    1C
    1UUSER                                                              
    1UDATE              28.march.2017                                   
    1UTIME              08:05:37                                        
    1UHOST                                                              
    1UPGM               CalculiX                                        
    1UVERSION           Version 2.11                             
    1UCOMPILETIME       So 31. Jul 13:26:31 CEST 2016                    
    1UDIR                                                               
    1UDBN                                                               
    1UMAT    1CARBONSTEEL(C>_EQ_0.3%)                                   
    1UMAT    2CARBONSTEEL(C<_EQ_0.3%)                                   
    1UMAT    3ALUMINUM                                                  
    1UMAT    4TITANIUM                                                  
    2C                          6794                                     1
 -1         1-5.00000E-02-4.00000E-02 0.00000E+00
 -1         2 4.00000E-02-4.00000E-02 0.00000E+00
 -1         3 4.00000E-02-4.00000E-02 1.20000E-02
 -1         4-5.00000E-02-4.00000E-02 1.20000E-02
 -1         5-2.50000E-02 0.00000E+00 0.00000E+00
 -1         6 2.50000E-02 0.00000E+00 0.00000E+00
 -1         7-5.00000E-02 4.00000E-02 0.00000E+00
 -1         8-6.00000E-02 3.00000E-02 0.00000E+00
 -1         9 4.00000E-02 4.00000E-02 0.00000E+00
 -1        10 6.00000E-02 2.00000E-02 0.00000E+00
 -1        11 6.00000E-02-2.00000E-02 0.00000E+00
 -1        12-6.00000E-02-3.00000E-02 0.00000E+00
 -1        13-6.00000E-02-3.00000E-02 1.20000E-02
 -1        14-2.50000E-02 0.00000E+00 1.20000E-02
 -1        15 2.50000E-02 0.00000E+00 1.20000E-02
 -1        16-5.00000E-02 4.00000E-02 1.20000E-02
 -1        17-6.00000E-02 3.00000E-02 1.20000E-02
 -1        18 6.00000E-02-2.00000E-02 1.20000E-02
 -1        19 6.00000E-02 2.00000E-02 1.20000E-02
 -1        20 4.00000E-02 4.00000E-02 1.20000E-02
 -1        31-4.75000E-02-4.00000E-02 0.00000E+00
 -1        32-4.50000E-02-4.00000E-02 0.00000E+00
 -1        33-4.25000E-02-4.00000E-02 0.00000E+00
 -1        34-4.00000E-02-4.00000E-02 0.00000E+00
 -1        35-3.75000E-02-4.00000E-02 0.00000E+00
 -1        36-3.50000E-02-4.00000E-02 0.00000E+00
 -1        37-3.25000E-02-4.00000E-02 0.00000E+00
 -1        38-3.00000E-02-4.00000E-02 0.00000E+00
 -1        39-2.75000E-02-4.00000E-02 0.00000E+00
 -1        40-2.50000E-02-4.00000E-02 0.00000E+00
 -1        41-2.25000E-02-4.00000E-02 0.00000E+00
 -1        42-2.00000E-02-4.00000E-02 0.00000E+00
 -1        43-1.75000E-02-4.00000E-02 0.00000E+00
 -1        44-1.50000E-02-4.00000E-02 0.00000E+00
 -1        45-1.25000E-02-4.00000E-02 0.00000E+00
 -1        46-1.00000E-02-4.00000E-02 0.00000E+00
 -1        47-7.50000E-03-4.00000E-02 0.00000E+00
 -1        48-5.00000E-03-4.00000E-02 0.00000E+00
 -1        49-2.50000E-03-4.00000E-02 0.00000E+00
 -1        50 0.00000E+00-4.00000E-02 0.00000E+00
 -1        51 2.50000E-03-4.00000E-02 0.00000E+00
 -1        52 5.00000E-03-4.00000E-02 0.00000E+00
 -1        53 7.50000E-03-4.00000E-02 0.00000E+00
 -1        54 1.00000E-02-4.00000E-02 0.00000E+00
 -1        55 1.25000E-02-4.00000E-02 0.00000E+00
 -1        56 1.50000E-02-4.00000E-02 0.00000E+00
 -1        57 1.75000E-02-4.00000E-02 0.00000E+00
 -1        58 2.00000E-02-4.00000E-02 0.00000E+00
 -1        59 2.25000E-02-4.00000E-02 0.00000E+00
 -1        60 2.50000E-02-4.00000E-02 0.00000E+00
 -1        61 2.75000E-02-4.00000E-02 0.00000E+00
 -1        62 3.00000E-02-4.00000E-02 0.00000E+00
 -1        63 3.25000E-02-4.00000E-02 0.00000E+00
 -1        64 3.50000E-02-4.00000E-02 0.00000E+00
 -1        65 3.75000E-02-4.00000E-02 0.00000E+00
 -1        66 4.00000E-02-4.00000E-02 1.00000E-02
 -1        67 4.00000E-02-4.00000E-02 8.00000E-03
 -1        68 4.00000E-02-4.00000E-02 6.00000E-03
 -1        69 4.00000E-02-4.00000E-02 4.00000E-03
 -1        70 4.00000E-02-4.00000E-02 2.00000E-03
 -1        71-4.75000E-02-4.00000E-02 1.20000E-02
 -1        72-4.50000E-02-4.00000E-02 1.20000E-02
 -1        73-4.25000E-02-4.00000E-02 1.20000E-02
 -1        74-4.00000E-02-4.00000E-02 1.20000E-02
 -1        75-3.75000E-02-4.00000E-02 1.20000E-02
 -1        76-3.50000E-02-4.00000E-02 1.20000E-02
 -1        77-3.25000E-02-4.00000E-02 1.20000E-02
 -1        78-3.00000E-02-4.00000E-02 1.20000E-02
 -1        79-2.75000E-02-4.00000E-02 1.20000E-02
 -1        80-2.50000E-02-4.00000E-02 1.20000E-02
 -1        81-2.25000E-02-4.00000E-02 1.20000E-02
 -1        82-2.00000E-02-4.00000E-02 1.20000E-02
 -1        83-1.75000E-02-4.00000E-02 1.20000E-02
 -1        84-1.50000E-02-4.00000E-02 1.20000E-02
 -1        85-1.25000E-02-4.00000E-02 1.20000E-02
 -1        86-1.00000E-02-4.00000E-02 1.20000E-02
 -1        87-7.50000E-03-4.00000E-02 1.20000E-02
 -1        88-5.00000E-03-4.00000E-02 1.20000E-02
 -1        89-2.50000E-03-4.00000E-02 1.20000E-02
 -1        90 0.00000E+00-4.00000E-02 1.20000E-02
 -1        91 2.50000E-03-4.00000E-02 1.20000E-02
 -1        92 5.00000E-03-4.00000E-02 1.20000E-02
 -1        93 7.50000E-03-4.00000E-02 1.20000E-02
 -1        94 1.00000E-02-4.00000E-02 1.20000E-02
 -1        95 1.25000E-02-4.00000E-02 1.20000E-02
 -1        96 1.50000E-02-4.00000E-02 1.20000E-02
 -1        97 1.75000E-02-4.00000E-02 1.20000E-02
 -1        98 2.00000E-02-4.00000E-02 1.20000E-02
 -1        99 2.25000E-02-4.00000E-02 1.20000E-02
 -1       100 2.50000E-02-4.00000E-02 1.20000E-02
 -1       101 2.75000E-02-4.00000E-02 1.20000E-02
 -1       102 3.00000E-02-4.00000E-02 1.20000E-02
 -1       103 3.25000E-02-4.00000E-02 1.20000E-02
 -1       104 3.50000E-02-4.00000E-02 1.20000E-02
 -1       105 3.75000E-02-4.00000E-02 1.20000E-02
 -1       106-5.00000E-02-4.00000E-02 1.00000E-02
 -1       107-5.00000E-02-4.00000E-02 8.00000E-03
 -1       108-5.00000E-02-4.00000E-02 6.00000E-03
 -1       109-5.00000E-02-4.00000E-02 4.00000E-03
 -1       110-5.00000E-02-4.00000E-02 2.00000E-03
 -1       111-2.48800E-02 2.45000E-03 0.00000E+00
 -1       112-2.45200E-02 4.87700E-03 0.00000E+00
 -1       113-2.39240E-02 7.25700E-03 0.00000E+00
 -1       114-2.30970E-02 9.56700E-03 0.00000E+00
 -1       115-2.20480E-02 1.17850E-02 0.00000E+00
 -1       116-2.07870E-02 1.38890E-02 0.00000E+00
 -1       117-1.93250E-02 1.58600E-02 0.00000E+00
 -1       118-1.76780E-02 1.76780E-02 0.00000E+00
 -1       119-1.58600E-02 1.93250E-02 0.00000E+00
 -1       120-1.38890E-02 2.07870E-02 0.00000E+00
 -1       121-1.17850E-02 2.20480E-02 0.00000E+00
 -1       122-9.56700E-03 2.30970E-02 0.00000E+00
 -1       123-7.25700E-03 2.39240E-02 0.00000E+00
 -1       124-4.87700E-03 2.45200E-02 0.00000E+00
 -1       125-2.45000E-03 2.48800E-02 0.00000E+00
 -1       126-0.00000E+00 2.50000E-02 0.00000E+00
 -1       127 2.45000E-03 2.48800E-02 0.00000E+00
 -1       128 4.87700E-03 2.45200E-02 0.00000E+00
 -1       129 7.25700E-03 2.39240E-02 0.00000E+00
 -1       130 9.56700E-03 2.30970E-02 0.00000E+00
 -1       131 1.17850E-02 2.20480E-02 0.00000E+00
 -1       132 1.38890E-02 2.07870E-02 0.00000E+00
 -1       133 1.58600E-02 1.93250E-02 0.00000E+00
 -1       134 1.76780E-02 1.76780E-02 0.00000E+00
 -1       135 1.93250E-02 1.58600E-02 0.00000E+00
 -1       136 2.07870E-02 1.38890E-02 0.00000E+00
 -1       137 2.20480E-02 1.17850E-02 0.00000E+00
 -1       138 2.30970E-02 9.56700E-03 0.00000E+00
 -1       139 2.39240E-02 7.25700E-03 0.00000E+00
 -1       140 2.45200E-02 4.87700E-03 0.00000E+00
 -1       141 2.48800E-02 2.45000E-03 0.00000E+00
 -1       142 2.48800E-02-2.45000E-03 0.00000E+00
 -1       143 2.45200E-02-4.87700E-03 0.00000E+00
 -1       144 2.39240E-02-7.25700E-03 0.00000E+00
 -1       145 2.30970E-02-9.56700E-03 0.00000E+00
 -1       146 2.20480E-02-1.17850E-02 0.00000E+00
 -1       147 2.07870E-02-1.38890E-02 0.00000E+00
 -1       148 1.93250E-02-1.58600E-02 0.00000E+00
 -1       149 1.76780E-02-1.76780E-02 0.00000E+00
 -1       150 1.58600E-02-1.93250E-02 0.00000E+00
 -1       151 1.38890E-02-2.07870E-02 0.00000E+00
 -1       152 1.17850E-02-2.20480E-02 0.00000E+00
 -1       153 9.56700E-03-2.30970E-02 0.00000E+00
 -1       154 7.25700E-03-2.39240E-02 0.00000E+00
 -1       155 4.87700E-03-2.45200E-02 0.00000E+00
 -1       156 2.45000E-03-2.48800E-02 0.00000E+00
 -1       157 0.00000E+00-2.50000E-02 0.00000E+00
 -1       158-2.45000E-03-2.48800E-02 0.00000E+00
 -1       159-4.87700E-03-2.45200E-02 0.00000E+00
 -1       160-7.25700E-03-2.39240E-02 0.00000E+00
 -1       161-9.56700E-03-2.30970E-02 0.00000E+00
 -1       162-1.17850E-02-2.20480E-02 0.00000E+00
 -1       163-1.38890E-02-2.07870E-02 0.00000E+00
 -1       164-1.58600E-02-1.93250E-02 0.00000E+00
 -1       165-1.76780E-02-1.76780E-02 0.00000E+00
 -1       166-1.93250E-02-1.58600E-02 0.00000E+00
 -1       167-2.07870E-02-1.38890E-02 0.00000E+00
 -1       168-2.20480E-02-1.17850E-02 0.00000E+00
 -1       169-2.30970E-02-9.56700E-03 0.00000E+00
 -1       170-2.39240E-02-7.25700E-03 0.00000E+00
 -1       171-2.45200E-02-4.87700E-03 0.00000E+00
 -1       172-2.48800E-02-2.45000E-03 0.00000E+00
 -1       173-5.25880E-02 3.96590E-02 0.00000E+00
 -1       174-5.50000E-02 3.86600E-02 0.00000E+00
 -1       175-5.70710E-02 3.70710E-02 0.00000E+00
 -1       176-5.86600E-02 3.50000E-02 0.00000E+00
 -1       177-5.96590E-02 3.25880E-02 0.00000E+00
 -1       178 3.75000E-02 4.00000E-02 0.00000E+00
 -1       179 3.50000E-02 4.00000E-02 0.00000E+00
 -1       180 3.25000E-02 4.00000E-02 0.00000E+00
 -1       181 3.00000E-02 4.00000E-02 0.00000E+00
 -1       182 2.75000E-02 4.00000E-02 0.00000E+00
 -1       183 2.50000E-02 4.00000E-02 0.00000E+00
 -1       184 2.25000E-02 4.00000E-02 0.00000E+00
 -1       185 2.00000E-02 4.00000E-02 0.00000E+00
 -1       186 1.75000E-02 4.00000E-02 0.00000E+00
 -1       187 1.50000E-02 4.00000E-02 0.00000E+00
 -1       188 1.25000E-02 4.00000E-02 0.00000E+00
 -1       189 1.00000E-02 4.00000E-02 0.00000E+00
 -1       190 7.50000E-03 4.00000E-02 0.00000E+00
 -1       191 5.00000E-03 4.00000E-02 0.00000E+00
 -1       192 2.50000E-03 4.00000E-02 0.00000E+00
 -1       193-0.00000E+00 4.00000E-02 0.00000E+00
 -1       194-2.50000E-03 4.00000E-02 0.00000E+00
 -1       195-5.00000E-03 4.00000E-02 0.00000E+00
 -1       196-7.50000E-03 4.00000E-02 0.00000E+00
 -1       197-1.00000E-02 4.00000E-02 0.00000E+00
 -1       198-1.25000E-02 4.00000E-02 0.00000E+00
 -1       199-1.50000E-02 4.00000E-02 0.00000E+00
 -1       200-1.75000E-02 4.00000E-02 0.00000E+00
 -1       201-2.00000E-02 4.00000E-02 0.00000E+00
 -1       202-2.25000E-02 4.00000E-02 0.00000E+00
 -1       203-2.50000E-02 4.00000E-02 0.00000E+00
 -1       204-2.75000E-02 4.00000E-02 0.00000E+00
 -1       205-3.00000E-02 4.00000E-02 0.00000E+00
 -1       206-3.25000E-02 4.00000E-02 0.00000E+00
 -1       207-3.50000E-02 4.00000E-02 0.00000E+00
 -1       208-3.75000E-02 4.00000E-02 0.00000E+00
 -1       209-4.00000E-02 4.00000E-02 0.00000E+00
 -1       210-4.25000E-02 4.00000E-02 0.00000E+00
 -1       211-4.50000E-02 4.00000E-02 0.00000E+00
 -1       212-4.75000E-02 4.00000E-02 0.00000E+00
 -1       213 5.98740E-02 2.22390E-02 0.00000E+00
 -1       214 5.94990E-02 2.44500E-02 0.00000E+00
 -1       215 5.88780E-02 2.66060E-02 0.00000E+00
 -1       216 5.80190E-02 2.86780E-02 0.00000E+00
 -1       217 5.69340E-02 3.06410E-02 0.00000E+00
 -1       218 5.56370E-02 3.24700E-02 0.00000E+00
 -1       219 5.41420E-02 3.41420E-02 0.00000E+00
 -1       220 5.24700E-02 3.56370E-02 0.00000E+00
 -1       221 5.06410E-02 3.69340E-02 0.00000E+00
 -1       222 4.86780E-02 3.80190E-02 0.00000E+00
 -1       223 4.66060E-02 3.88780E-02 0.00000E+00
 -1       224 4.44500E-02 3.94990E-02 0.00000E+00
 -1       225 4.22390E-02 3.98740E-02 0.00000E+00
 -1       226 6.00000E-02-1.75000E-02 0.00000E+00
 -1       227 6.00000E-02-1.50000E-02 0.00000E+00
 -1       228 6.00000E-02-1.25000E-02 0.00000E+00
 -1       229 6.00000E-02-1.00000E-02 0.00000E+00
 -1       230 6.00000E-02-7.50000E-03 0.00000E+00
 -1       231 6.00000E-02-5.00000E-03 0.00000E+00
 -1       232 6.00000E-02-2.50000E-03 0.00000E+00
 -1       233 6.00000E-02 0.00000E+00 0.00000E+00
 -1       234 6.00000E-02 2.50000E-03 0.00000E+00
 -1       235 6.00000E-02 5.00000E-03 0.00000E+00
 -1       236 6.00000E-02 7.50000E-03 0.00000E+00
 -1       237 6.00000E-02 1.00000E-02 0.00000E+00
 -1       238 6.00000E-02 1.25000E-02 0.00000E+00
 -1       239 6.00000E-02 1.50000E-02 0.00000E+00
 -1       240 6.00000E-02 1.75000E-02 0.00000E+00
 -1       241 4.22390E-02-3.98740E-02 0.00000E+00
 -1       242 4.44500E-02-3.94990E-02 0.00000E+00
 -1       243 4.66060E-02-3.88780E-02 0.00000E+00
 -1       244 4.86780E-02-3.80190E-02 0.00000E+00
 -1       245 5.06410E-02-3.69340E-02 0.00000E+00
 -1       246 5.24700E-02-3.56370E-02 0.00000E+00
 -1       247 5.41420E-02-3.41420E-02 0.00000E+00
 -1       248 5.56370E-02-3.24700E-02 0.00000E+00
 -1       249 5.69340E-02-3.06410E-02 0.00000E+00
 -1       250 5.80190E-02-2.86780E-02 0.00000E+00
 -1       251 5.88780E-02-2.66060E-02 0.00000E+00
 -1       252 5.94990E-02-2.44500E-02 0.00000E+00
 -1       253 5.98740E-02-2.22390E-02 0.00000E+00
 -1       254-5.96590E-02-3.25880E-02 0.00000E+00
 -1       255-5.86600E-02-3.50000E-02 0.00000E+00
 -1       256-5.70710E-02-3.70710E-02 0.00000E+00
 -1       257-5.50000E-02-3.86600E-02 0.00000E+00
 -1       258-5.25880E-02-3.96590E-02 0.00000E+00
 -1       259-6.00000E-02 2.75000E-02 0.00000E+00
 -1       260-6.00000E-02 2.50000E-02 0.00000E+00
 -1       261-6.00000E-02 2.25000E-02 0.00000E+00
 -1       262-6.00000E-02 2.00000E-02 0.00000E+00
 -1       263-6.00000E-02 1.75000E-02 0.00000E+00
 -1       264-6.00000E-02 1.50000E-02 0.00000E+00
 -1       265-6.00000E-02 1.25000E-02 0.00000E+00
 -1       266-6.00000E-02 1.00000E-02 0.00000E+00
 -1       267-6.00000E-02 7.50000E-03 0.00000E+00
 -1       268-6.00000E-02 5.00000E-03 0.00000E+00
 -1       269-6.00000E-02 2.50000E-03 0.00000E+00
 -1       270-6.00000E-02 0.00000E+00 0.00000E+00
 -1       271-6.00000E-02-2.50000E-03 0.00000E+00
 -1       272-6.00000E-02-5.00000E-03 0.00000E+00
 -1       273-6.00000E-02-7.50000E-03 0.00000E+00
 -1       274-6.00000E-02-1.00000E-02 0.00000E+00
 -1       275-6.00000E-02-1.25000E-02 0.00000E+00
 -1       276-6.00000E-02-1.50000E-02 0.00000E+00
 -1       277-6.00000E-02-1.75000E-02 0.00000E+00
 -1       278-6.00000E-02-2.00000E-02 0.00000E+00
 -1       279-6.00000E-02-2.25000E-02 0.00000E+00
 -1       280-6.00000E-02-2.50000E-02 0.00000E+00
 -1       281-6.00000E-02-2.75000E-02 0.00000E+00
 -1       282-5.96590E-02-3.25880E-02 1.20000E-02
 -1       283-5.86600E-02-3.50000E-02 1.20000E-02
 -1       284-5.70710E-02-3.70710E-02 1.20000E-02
 -1       285-5.50000E-02-3.86600E-02 1.20000E-02
 -1       286-5.25880E-02-3.96590E-02 1.20000E-02
 -1       287-6.00000E-02-3.00000E-02 1.00000E-02
 -1       288-6.00000E-02-3.00000E-02 8.00000E-03
 -1       289-6.00000E-02-3.00000E-02 6.00000E-03
 -1       290-6.00000E-02-3.00000E-02 4.00000E-03
 -1       291-6.00000E-02-3.00000E-02 2.00000E-03
 -1       292-2.48800E-02 2.45000E-03 1.20000E-02
 -1       293-2.45200E-02 4.87700E-03 1.20000E-02
 -1       294-2.39240E-02 7.25700E-03 1.20000E-02
 -1       295-2.30970E-02 9.56700E-03 1.20000E-02
 -1       296-2.20480E-02 1.17850E-02 1.20000E-02
 -1       297-2.07870E-02 1.38890E-02 1.20000E-02
 -1       298-1.93250E-02 1.58600E-02 1.20000E-02
 -1       299-1.76780E-02 1.76780E-02 1.20000E-02
 -1       300-1.58600E-02 1.93250E-02 1.20000E-02
 -1       301-1.38890E-02 2.07870E-02 1.20000E-02
 -1       302-1.17850E-02 2.20480E-02 1.20000E-02
 -1       303-9.56700E-03 2.30970E-02 1.20000E-02
 -1       304-7.25700E-03 2.39240E-02 1.20000E-02
 -1       305-4.87700E-03 2.45200E-02 1.20000E-02
 -1       306-2.45000E-03 2.48800E-02 1.20000E-02
 -1       307-0.00000E+00 2.50000E-02 1.20000E-02
 -1       308 2.45000E-03 2.48800E-02 1.20000E-02
 -1       309 4.87700E-03 2.45200E-02 1.20000E-02
 -1       310 7.25700E-03 2.39240E-02 1.20000E-02
 -1       311 9.56700E-03 2.30970E-02 1.20000E-02
 -1       312 1.17850E-02 2.20480E-02 1.20000E-02
 -1       313 1.38890E-02 2.07870E-02 1.20000E-02
 -1       314 1.58600E-02 1.93250E-02 1.20000E-02
 -1       315 1.76780E-02 1.76780E-02 1.20000E-02
 -1       316 1.93250E-02 1.58600E-02 1.20000E-02
 -1       317 2.07870E-02 1.38890E-02 1.20000E-02
 -1       318 2.20480E-02 1.17850E-02 1.20000E-02
 -1       319 2.30970E-02 9.56700E-03 1.20000E-02
 -1       320 2.39240E-02 7.25700E-03 1.20000E-02
 -1       321 2.45200E-02 4.87700E-03 1.20000E-02
 -1       322 2.48800E-02 2.45000E-03 1.20000E-02
 -1       323 2.48800E-02-2.45000E-03 1.20000E-02
 -1       324 2.45200E-02-4.87700E-03 1.20000E-02
 -1       325 2.39240E-02-7.25700E-03 1.20000E-02
 -1       326 2.30970E-02-9.56700E-03 1.20000E-02
 -1       327 2.20480E-02-1.17850E-02 1.20000E-02
 -1       328 2.07870E-02-1.38890E-02 1.20000E-02
 -1       329 1.93250E-02-1.58600E-02 1.20000E-02
 -1       330 1.76780E-02-1.76780E-02 1.20000E-02
 -1       331 1.58600E-02-1.93250E-02 1.20000E-02
 -1       332 1.38890E-02-2.07870E-02 1.20000E-02
 -1       333 1.17850E-02-2.20480E-02 1.20000E-02
 -1       334 9.56700E-03-2.30970E-02 1.20000E-02
 -1       335 7.25700E-03-2.39240E-02 1.20000E-02
 -1       336 4.87700E-03-2.45200E-02 1.20000E-02
 -1       337 2.45000E-03-2.48800E-02 1.20000E-02
 -1       338 0.00000E+00-2.50000E-02 1.20000E-02
 -1       339-2.45000E-03-2.48800E-02 1.20000E-02
 -1       340-4.87700E-03-2.45200E-02 1.20000E-02
 -1       341-7.25700E-03-2.39240E-02 1.20000E-02
 -1       342-9.56700E-03-2.30970E-02 1.20000E-02
 -1       343-1.17850E-02-2.20480E-02 1.20000E-02
 -1       344-1.38890E-02-2.07870E-02 1.20000E-02
 -1       345-1.58600E-02-1.93250E-02 1.20000E-02
 -1       346-1.76780E-02-1.76780E-02 1.20000E-02
 -1       347-1.93250E-02-1.58600E-02 1.20000E-02
 -1       348-2.07870E-02-1.38890E-02 1.20000E-02
 -1       349-2.20480E-02-1.17850E-02 1.20000E-02
 -1       350-2.30970E-02-9.56700E-03 1.20000E-02
 -1       351-2.39240E-02-7.25700E-03 1.20000E-02
 -1       352-2.45200E-02-4.87700E-03 1.20000E-02
 -1       353-2.48800E-02-2.45000E-03 1.20000E-02
 -1       354-5.25880E-02 3.96590E-02 1.20000E-02
 -1       355-5.50000E-02 3.86600E-02 1.20000E-02
 -1       356-5.70710E-02 3.70710E-02 1.20000E-02
 -1       357-5.86600E-02 3.50000E-02 1.20000E-02
 -1       358-5.96590E-02 3.25880E-02 1.20000E-02
 -1       359-6.00000E-02 2.75000E-02 1.20000E-02
 -1       360-6.00000E-02 2.50000E-02 1.20000E-02
 -1       361-6.00000E-02 2.25000E-02 1.20000E-02
 -1       362-6.00000E-02 2.00000E-02 1.20000E-02
 -1       363-6.00000E-02 1.75000E-02 1.20000E-02
 -1       364-6.00000E-02 1.50000E-02 1.20000E-02
 -1       365-6.00000E-02 1.25000E-02 1.20000E-02
 -1       366-6.00000E-02 1.00000E-02 1.20000E-02
 -1       367-6.00000E-02 7.50000E-03 1.20000E-02
 -1       368-6.00000E-02 5.00000E-03 1.20000E-02
 -1       369-6.00000E-02 2.50000E-03 1.20000E-02
 -1       370-6.00000E-02 0.00000E+00 1.20000E-02
 -1       371-6.00000E-02-2.50000E-03 1.20000E-02
 -1       372-6.00000E-02-5.00000E-03 1.20000E-02
 -1       373-6.00000E-02-7.50000E-03 1.20000E-02
 -1       374-6.00000E-02-1.00000E-02 1.20000E-02
 -1       375-6.00000E-02-1.25000E-02 1.20000E-02
 -1       376-6.00000E-02-1.50000E-02 1.20000E-02
 -1       377-6.00000E-02-1.75000E-02 1.20000E-02
 -1       378-6.00000E-02-2.00000E-02 1.20000E-02
 -1       379-6.00000E-02-2.25000E-02 1.20000E-02
 -1       380-6.00000E-02-2.50000E-02 1.20000E-02
 -1       381-6.00000E-02-2.75000E-02 1.20000E-02
 -1       382 4.22390E-02-3.98740E-02 1.20000E-02
 -1       383 4.44500E-02-3.94990E-02 1.20000E-02
 -1       384 4.66060E-02-3.88780E-02 1.20000E-02
 -1       385 4.86780E-02-3.80190E-02 1.20000E-02
 -1       386 5.06410E-02-3.69340E-02 1.20000E-02
 -1       387 5.24700E-02-3.56370E-02 1.20000E-02
 -1       388 5.41420E-02-3.41420E-02 1.20000E-02
 -1       389 5.56370E-02-3.24700E-02 1.20000E-02
 -1       390 5.69340E-02-3.06410E-02 1.20000E-02
 -1       391 5.80190E-02-2.86780E-02 1.20000E-02
 -1       392 5.88780E-02-2.66060E-02 1.20000E-02
 -1       393 5.94990E-02-2.44500E-02 1.20000E-02
 -1       394 5.98740E-02-2.22390E-02 1.20000E-02
 -1       395 6.00000E-02-1.75000E-02 1.20000E-02
 -1       396 6.00000E-02-1.50000E-02 1.20000E-02
 -1       397 6.00000E-02-1.25000E-02 1.20000E-02
 -1       398 6.00000E-02-1.00000E-02 1.20000E-02
 -1       399 6.00000E-02-7.50000E-03 1.20000E-02
 -1       400 6.00000E-02-5.00000E-03 1.20000E-02
 -1       401 6.00000E-02-2.50000E-03 1.20000E-02
 -1       402 6.00000E-02 0.00000E+00 1.20000E-02
 -1       403 6.00000E-02 2.50000E-03 1.20000E-02
 -1       404 6.00000E-02 5.00000E-03 1.20000E-02
 -1       405 6.00000E-02 7.50000E-03 1.20000E-02
 -1       406 6.00000E-02 1.00000E-02 1.20000E-02
 -1       407 6.00000E-02 1.25000E-02 1.20000E-02
 -1       408 6.00000E-02 1.50000E-02 1.20000E-02
 -1       409 6.00000E-02 1.75000E-02 1.20000E-02
 -1       410 5.98740E-02 2.22390E-02 1.20000E-02
 -1       411 5.94990E-02 2.44500E-02 1.20000E-02
 -1       412 5.88780E-02 2.66060E-02 1.20000E-02
 -1       413 5.80190E-02 2.86780E-02 1.20000E-02
 -1       414 5.69340E-02 3.06410E-02 1.20000E-02
 -1       415 5.56370E-02 3.24700E-02 1.20000E-02
 -1       416 5.41420E-02 3.41420E-02 1.20000E-02
 -1       417 5.24700E-02 3.56370E-02 1.20000E-02
 -1       418 5.06410E-02 3.69340E-02 1.20000E-02
 -1       419 4.86780E-02 3.80190E-02 1.20000E-02
 -1       420 4.66060E-02 3.88780E-02 1.20000E-02
 -1       421 4.44500E-02 3.94990E-02 1.20000E-02
 -1       422 4.22390E-02 3.98740E-02 1.20000E-02
 -1       423 3.75000E-02 4.00000E-02 1.20000E-02
 -1       424 3.50000E-02 4.00000E-02 1.20000E-02
 -1       425 3.25000E-02 4.00000E-02 1.20000E-02
 -1       426 3.00000E-02 4.00000E-02 1.20000E-02
 -1       427 2.75000E-02 4.00000E-02 1.20000E-02
 -1       428 2.50000E-02 4.00000E-02 1.20000E-02
 -1       429 2.25000E-02 4.00000E-02 1.20000E-02
 -1       430 2.00000E-02 4.00000E-02 1.20000E-02
 -1       431 1.75000E-02 4.00000E-02 1.20000E-02
 -1       432 1.50000E-02 4.00000E-02 1.20000E-02
 -1       433 1.25000E-02 4.00000E-02 1.20000E-02
 -1       434 1.00000E-02 4.00000E-02 1.20000E-02
 -1       435 7.50000E-03 4.00000E-02 1.20000E-02
 -1       436 5.00000E-03 4.00000E-02 1.20000E-02
 -1       437 2.50000E-03 4.00000E-02 1.20000E-02
 -1       438-0.00000E+00 4.00000E-02 1.20000E-02
 -1       439-2.50000E-03 4.00000E-02 1.20000E-02
 -1       440-5.00000E-03 4.00000E-02 1.20000E-02
 -1       441-7.50000E-03 4.00000E-02 1.20000E-02
 -1       442-1.00000E-02 4.00000E-02 1.20000E-02
 -1       443-1.25000E-02 4.00000E-02 1.20000E-02
 -1       444-1.50000E-02 4.00000E-02 1.20000E-02
 -1       445-1.75000E-02 4.00000E-02 1.20000E-02
 -1       446-2.00000E-02 4.00000E-02 1.20000E-02
 -1       447-2.25000E-02 4.00000E-02 1.20000E-02
 -1       448-2.50000E-02 4.00000E-02 1.20000E-02
 -1       449-2.75000E-02 4.00000E-02 1.20000E-02
 -1       450-3.00000E-02 4.00000E-02 1.20000E-02
 -1       451-3.25000E-02 4.00000E-02 1.20000E-02
 -1       452-3.50000E-02 4.00000E-02 1.20000E-02
 -1       453-3.75000E-02 4.00000E-02 1.20000E-02
 -1       454-4.00000E-02 4.00000E-02 1.20000E-02
 -1       455-4.25000E-02 4.00000E-02 1.20000E-02
 -1       456-4.50000E-02 4.00000E-02 1.20000E-02
 -1       457-4.75000E-02 4.00000E-02 1.20000E-02
 -1       458 6.00000E-02-2.00000E-02 1.00000E-02
 -1       459 6.00000E-02-2.00000E-02 8.00000E-03
 -1       460 6.00000E-02-2.00000E-02 6.00000E-03
 -1       461 6.00000E-02-2.00000E-02 4.00000E-03
 -1       462 6.00000E-02-2.00000E-02 2.00000E-03
 -1       463-6.00000E-02 3.00000E-02 1.00000E-02
 -1       464-6.00000E-02 3.00000E-02 8.00000E-03
 -1       465-6.00000E-02 3.00000E-02 6.00000E-03
 -1       466-6.00000E-02 3.00000E-02 4.00000E-03
 -1       467-6.00000E-02 3.00000E-02 2.00000E-03
 -1       468-5.00000E-02 4.00000E-02 1.00000E-02
 -1       469-5.00000E-02 4.00000E-02 8.00000E-03
 -1       470-5.00000E-02 4.00000E-02 6.00000E-03
 -1       471-5.00000E-02 4.00000E-02 4.00000E-03
 -1       472-5.00000E-02 4.00000E-02 2.00000E-03
 -1       473 4.00000E-02 4.00000E-02 1.00000E-02
 -1       474 4.00000E-02 4.00000E-02 8.00000E-03
 -1       475 4.00000E-02 4.00000E-02 6.00000E-03
 -1       476 4.00000E-02 4.00000E-02 4.00000E-03
 -1       477 4.00000E-02 4.00000E-02 2.00000E-03
 -1       478 6.00000E-02 2.00000E-02 1.00000E-02
 -1       479 6.00000E-02 2.00000E-02 8.00000E-03
 -1       480 6.00000E-02 2.00000E-02 6.00000E-03
 -1       481 6.00000E-02 2.00000E-02 4.00000E-03
 -1       482 6.00000E-02 2.00000E-02 2.00000E-03
 -1       483-2.50000E-02 0.00000E+00 1.00000E-02
 -1       484-2.50000E-02 0.00000E+00 8.00000E-03
 -1       485-2.50000E-02 0.00000E+00 6.00000E-03
 -1       486-2.50000E-02 0.00000E+00 4.00000E-03
 -1       487-2.50000E-02 0.00000E+00 2.00000E-03
 -1       488 2.50000E-02 0.00000E+00 1.00000E-02
 -1       489 2.50000E-02 0.00000E+00 8.00000E-03
 -1       490 2.50000E-02 0.00000E+00 6.00000E-03
 -1       491 2.50000E-02 0.00000E+00 4.00000E-03
 -1       492 2.50000E-02 0.00000E+00 2.00000E-03
 -1       493 2.12520E-02-4.00000E-02 9.62800E-03
 -1       494 1.88350E-02-4.00000E-02 9.66500E-03
 -1       495-1.11530E-02-4.00000E-02 9.58900E-03
 -1       496-9.59200E-03-4.00000E-02 7.28500E-03
 -1       497-1.21800E-02-4.00000E-02 7.12500E-03
 -1       498-1.86670E-02-4.00000E-02 2.39200E-03
 -1       499-1.62380E-02-4.00000E-02 2.20200E-03
 -1       500-2.45500E-03-4.00000E-02 5.10000E-03
 -1       501-3.69300E-03-4.00000E-02 2.41000E-03
 -1       502-4.98900E-03-4.00000E-02 4.48500E-03
 -1       503-1.27100E-03-4.00000E-02 9.71900E-03
 -1       504-3.12160E-02-4.00000E-02 9.62500E-03
 -1       505-3.37920E-02-4.00000E-02 9.59900E-03
 -1       506 2.61380E-02-4.00000E-02 2.24600E-03
 -1       507 2.36240E-02-4.00000E-02 2.32300E-03
 -1       508-2.24770E-02-4.00000E-02 5.11400E-03
 -1       509-2.36730E-02-4.00000E-02 2.40700E-03
 -1       510-2.49810E-02-4.00000E-02 4.46400E-03
 -1       511-3.62680E-02-4.00000E-02 9.49000E-03
 -1       512 2.38360E-02-4.00000E-02 9.59400E-03
 -1       513 1.21600E-03-4.00000E-02 9.51300E-03
 -1       514 3.68700E-03-4.00000E-02 9.59900E-03
 -1       515 1.61980E-02-4.00000E-02 2.48800E-03
 -1       516 1.37090E-02-4.00000E-02 2.28500E-03
 -1       517 1.46940E-02-4.00000E-02 4.78000E-03
 -1       518-3.60860E-02-4.00000E-02 2.23800E-03
 -1       519-3.35960E-02-4.00000E-02 2.31600E-03
 -1       520 3.59470E-02-4.00000E-02 1.02580E-02
 -1       521 3.78210E-02-4.00000E-02 9.31700E-03
 -1       522 3.54840E-02-4.00000E-02 8.12900E-03
 -1       523 2.00180E-02-4.00000E-02 6.98100E-03
 -1       524 1.74520E-02-4.00000E-02 5.09900E-03
 -1       525 1.76130E-02-4.00000E-02 7.65100E-03
 -1       526-3.79600E-03-4.00000E-02 9.67800E-03
 -1       527-6.16300E-03-4.00000E-02 9.68600E-03
 -1       528-6.30600E-03-4.00000E-02 2.41500E-03
 -1       529-8.80400E-03-4.00000E-02 2.51700E-03
 -1       530-7.51700E-03-4.00000E-02 5.11600E-03
 -1       531 3.10840E-02-4.00000E-02 2.43600E-03
 -1       532 2.85860E-02-4.00000E-02 2.38100E-03
 -1       533 2.96030E-02-4.00000E-02 4.80800E-03
 -1       534 2.88770E-02-4.00000E-02 9.57400E-03
 -1       535-2.11880E-02-4.00000E-02 2.51600E-03
 -1       536-2.50410E-02-4.00000E-02 6.98700E-03
 -1       537-2.26680E-02-4.00000E-02 7.67500E-03
 -1       538-2.62570E-02-4.00000E-02 2.37900E-03
 -1       539-2.86840E-02-4.00000E-02 2.36700E-03
 -1       540-2.74820E-02-4.00000E-02 5.03700E-03
 -1       541 3.78880E-02-4.00000E-02 7.14000E-03
 -1       542 6.27600E-03-4.00000E-02 9.61900E-03
 -1       543 4.98900E-03-4.00000E-02 7.54000E-03
 -1       544-1.13310E-02-4.00000E-02 2.39300E-03
 -1       545-1.37610E-02-4.00000E-02 2.20200E-03
 -1       546-4.35520E-02-4.00000E-02 2.58800E-03
 -1       547 3.83000E-03-4.00000E-02 2.33400E-03
 -1       548 1.13160E-02-4.00000E-02 9.60000E-03
 -1       549-4.78900E-02-4.00000E-02 2.68400E-03
 -1       550 3.28430E-02-4.00000E-02 7.66300E-03
 -1       551 3.37480E-02-4.00000E-02 9.91600E-03
 -1       552 2.63310E-02-4.00000E-02 9.47600E-03
 -1       553 2.50230E-02-4.00000E-02 6.88500E-03
 -1       554 2.70520E-02-4.00000E-02 4.70100E-03
 -1       555 2.48080E-02-4.00000E-02 4.32300E-03
 -1       556 8.72600E-03-4.00000E-02 9.61900E-03
 -1       557-7.34100E-03-4.00000E-02 7.67900E-03
 -1       558-2.13310E-02-4.00000E-02 9.74700E-03
 -1       559-2.38550E-02-4.00000E-02 9.67800E-03
 -1       560 1.62870E-02-4.00000E-02 9.71600E-03
 -1       561 2.25210E-02-4.00000E-02 7.54100E-03
 -1       562-2.62460E-02-4.00000E-02 9.64200E-03
 -1       563 7.50200E-03-4.00000E-02 6.96200E-03
 -1       564-1.62810E-02-4.00000E-02 9.45100E-03
 -1       565-1.37200E-02-4.00000E-02 9.45100E-03
 -1       566-1.50000E-02-4.00000E-02 6.81400E-03
 -1       567 2.78330E-02-4.00000E-02 7.12400E-03
 -1       568 6.23000E-03-4.00000E-02 2.36100E-03
 -1       569 7.50100E-03-4.00000E-02 4.43000E-03
 -1       570 5.02800E-03-4.00000E-02 5.01900E-03
 -1       571 3.35340E-02-4.00000E-02 2.29300E-03
 -1       572-2.85000E-04-4.00000E-02 7.22100E-03
 -1       573-2.58900E-03-4.00000E-02 7.65700E-03
 -1       574-4.76060E-02-4.00000E-02 7.41300E-03
 -1       575-3.49360E-02-4.00000E-02 6.89200E-03
 -1       576-1.96870E-02-4.00000E-02 4.85500E-03
 -1       577-4.59200E-02-4.00000E-02 1.79400E-03
 -1       578 2.12280E-02-4.00000E-02 2.36900E-03
 -1       579-1.03100E-02-4.00000E-02 4.85400E-03
 -1       580 3.61700E-02-4.00000E-02 6.05500E-03
 -1       581 3.42900E-02-4.00000E-02 6.11700E-03
 -1       582 3.13350E-02-4.00000E-02 9.72600E-03
 -1       583-4.12690E-02-4.00000E-02 9.68700E-03
 -1       584-3.24650E-02-4.00000E-02 7.54100E-03
 -1       585-3.23970E-02-4.00000E-02 5.01400E-03
 -1       586-1.88500E-02-4.00000E-02 9.58900E-03
 -1       587-1.78210E-02-4.00000E-02 7.12500E-03
 -1       588 3.23290E-02-4.00000E-02 4.87400E-03
 -1       589-3.93510E-02-4.00000E-02 4.80800E-03
 -1       590-4.17670E-02-4.00000E-02 4.92200E-03
 -1       591-4.02120E-02-4.00000E-02 7.26000E-03
 -1       592-3.87950E-02-4.00000E-02 9.59400E-03
 -1       593-4.09870E-02-4.00000E-02 2.43300E-03
 -1       594-4.79330E-02-4.00000E-02 4.97500E-03
 -1       595-4.81670E-02-4.00000E-02 9.49900E-03
 -1       596-3.85040E-02-4.00000E-02 2.36700E-03
 -1       597 2.24410E-02-4.00000E-02 5.01800E-03
 -1       598 1.52940E-02-4.00000E-02 7.22200E-03
 -1       599-2.87910E-02-4.00000E-02 9.63400E-03
 -1       600-8.67600E-03-4.00000E-02 9.74800E-03
 -1       601 1.28800E-03-4.00000E-02 2.28500E-03
 -1       602-1.20800E-03-4.00000E-02 2.48800E-03
 -1       603-4.58030E-02-4.00000E-02 3.83500E-03
 -1       604-3.76840E-02-4.00000E-02 7.14200E-03
 -1       605-3.12230E-02-4.00000E-02 2.35700E-03
 -1       606-2.99740E-02-4.00000E-02 6.96600E-03
 -1       607 1.37920E-02-4.00000E-02 9.51300E-03
 -1       608 1.25320E-02-4.00000E-02 6.90400E-03
 -1       609 1.00150E-02-4.00000E-02 7.54000E-03
 -1       610 3.04540E-02-4.00000E-02 7.23000E-03
 -1       611 9.97400E-03-4.00000E-02 5.02000E-03
 -1       612-4.97500E-03-4.00000E-02 7.00100E-03
 -1       613 3.58300E-02-4.00000E-02 1.82600E-03
 -1       614 3.77400E-02-4.00000E-02 2.72600E-03
 -1       615-4.26100E-02-4.00000E-02 7.44800E-03
 -1       616-2.04110E-02-4.00000E-02 7.28600E-03
 -1       617 3.78340E-02-4.00000E-02 4.89400E-03
 -1       618 1.11700E-02-4.00000E-02 2.33400E-03
 -1       619-4.49850E-02-4.00000E-02 7.68500E-03
 -1       620-4.39910E-02-4.00000E-02 5.32200E-03
 -1       621 2.47300E-03-4.00000E-02 6.90300E-03
 -1       622 2.62100E-03-4.00000E-02 4.35000E-03
 -1       623 3.05000E-04-4.00000E-02 4.77900E-03
 -1       624 1.23800E-02-4.00000E-02 4.35100E-03
 -1       625 1.86630E-02-4.00000E-02 2.39800E-03
 -1       626 3.52660E-02-4.00000E-02 4.03500E-03
 -1       627-1.28620E-02-4.00000E-02 4.68700E-03
 -1       628 8.77100E-03-4.00000E-02 2.36100E-03
 -1       629-2.99480E-02-4.00000E-02 4.43200E-03
 -1       630-4.61110E-02-4.00000E-02 9.75800E-03
 -1       631-4.37060E-02-4.00000E-02 9.78700E-03
 -1       632-3.69230E-02-4.00000E-02 4.69800E-03
 -1       633-3.47360E-02-4.00000E-02 4.31900E-03
 -1       634 1.99530E-02-4.00000E-02 4.45500E-03
 -1       635-2.75080E-02-4.00000E-02 7.57000E-03
 -1       636-1.71370E-02-4.00000E-02 4.68700E-03
 -1       637-4.60630E-02-4.00000E-02 5.88400E-03
 -1       638-1.50000E-02-4.00000E-02 4.20200E-03
 -1       639-4.59820E-02 3.75360E-02 0.00000E+00
 -1       640-4.35850E-02 3.74700E-02 0.00000E+00
 -1       641 3.85180E-02-3.77280E-02 0.00000E+00
 -1       642 4.07470E-02-3.77470E-02 0.00000E+00
 -1       643-3.63340E-02 3.74350E-02 0.00000E+00
 -1       644-3.87580E-02 3.74310E-02 0.00000E+00
 -1       645-1.35400E-03-2.70690E-02 0.00000E+00
 -1       646 1.30400E-03-2.70950E-02 0.00000E+00
 -1       647 5.73310E-02-2.07710E-02 0.00000E+00
 -1       648 4.28790E-02-3.73520E-02 0.00000E+00
 -1       649-2.38750E-02-3.76290E-02 0.00000E+00
 -1       650-4.60320E-02-3.74970E-02 0.00000E+00
 -1       651-5.74260E-02-8.74000E-03 0.00000E+00
 -1       652-5.74240E-02-1.12370E-02 0.00000E+00
 -1       653-2.58670E-02-9.22400E-03 0.00000E+00
 -1       654-2.35940E-02-1.39360E-02 0.00000E+00
 -1       655-2.48660E-02-1.16460E-02 0.00000E+00
 -1       656-5.61000E-02 3.46350E-02 0.00000E+00
 -1       657-5.73610E-02 3.28600E-02 0.00000E+00
 -1       658-5.46460E-02 3.60950E-02 0.00000E+00
 -1       659 2.63580E-02 3.76730E-02 0.00000E+00
 -1       660 2.88610E-02 3.76460E-02 0.00000E+00
 -1       661 5.73750E-02 2.07560E-02 0.00000E+00
 -1       662 5.72660E-02 1.85660E-02 0.00000E+00
 -1       663 2.38860E-02-3.76080E-02 0.00000E+00
 -1       664 3.13350E-02 3.76070E-02 0.00000E+00
 -1       665-5.74010E-02-1.62290E-02 0.00000E+00
 -1       666-5.73640E-02-1.87080E-02 0.00000E+00
 -1       667-5.73330E-02-2.11700E-02 0.00000E+00
 -1       668 5.72360E-02 1.38110E-02 0.00000E+00
 -1       669 5.72770E-02 1.13450E-02 0.00000E+00
 -1       670 4.47700E-02 3.68300E-02 0.00000E+00
 -1       671 4.67580E-02 3.62650E-02 0.00000E+00
 -1       672 5.71950E-02-1.38350E-02 0.00000E+00
 -1       673 2.48230E-02 1.16220E-02 0.00000E+00
 -1       674 5.61950E-02 2.67250E-02 0.00000E+00
 -1       675 5.31030E-02 3.16970E-02 0.00000E+00
 -1       676 5.43060E-02 3.01880E-02 0.00000E+00
 -1       677-5.73670E-02 1.12860E-02 0.00000E+00
 -1       678-5.73840E-02 8.78600E-03 0.00000E+00
 -1       679-1.88890E-02-3.76710E-02 0.00000E+00
 -1       680 5.73810E-02-6.33200E-03 0.00000E+00
 -1       681 5.74210E-02-3.79900E-03 0.00000E+00
 -1       682 5.74460E-02-1.26600E-03 0.00000E+00
 -1       683 5.53690E-02 2.84830E-02 0.00000E+00
 -1       684-2.71080E-02 4.06800E-03 0.00000E+00
 -1       685 1.83760E-02-2.00210E-02 0.00000E+00
 -1       686-5.77660E-02 3.06370E-02 0.00000E+00
 -1       687-2.65970E-02 6.68900E-03 0.00000E+00
 -1       688 6.61100E-03-2.63830E-02 0.00000E+00
 -1       689 3.96100E-03-2.68590E-02 0.00000E+00
 -1       690-2.71130E-02-4.02200E-03 0.00000E+00
 -1       691-2.73670E-02-1.32200E-03 0.00000E+00
 -1       692-2.63680E-02-3.76450E-02 0.00000E+00
 -1       693-2.88620E-02-3.76600E-02 0.00000E+00
 -1       694 2.38520E-02 3.76940E-02 0.00000E+00
 -1       695 2.13530E-02 3.76890E-02 0.00000E+00
 -1       696 9.16100E-03 2.55740E-02 0.00000E+00
 -1       697 6.61200E-03 2.63030E-02 0.00000E+00
 -1       698-5.74280E-02 2.11510E-02 0.00000E+00
 -1       699-5.74070E-02 1.86970E-02 0.00000E+00
 -1       700-6.60300E-03 2.63760E-02 0.00000E+00
 -1       701-1.30700E-03 2.70950E-02 0.00000E+00
 -1       702-3.96300E-03 2.68580E-02 0.00000E+00
 -1       703 1.39500E-02 2.32460E-02 0.00000E+00
 -1       704 1.62080E-02 2.16960E-02 0.00000E+00
 -1       705 5.72270E-02 1.62280E-02 0.00000E+00
 -1       706-5.74060E-02 6.27500E-03 0.00000E+00
 -1       707-5.47140E-02-3.61930E-02 0.00000E+00
 -1       708 1.16080E-02 2.45560E-02 0.00000E+00
 -1       709 3.79500E-03 3.77060E-02 0.00000E+00
 -1       710 1.38220E-02-3.76700E-02 0.00000E+00
 -1       711 1.12950E-02-3.76520E-02 0.00000E+00
 -1       712 1.16580E-02-2.46330E-02 0.00000E+00
 -1       713-8.82200E-03 3.76180E-02 0.00000E+00
 -1       714-1.13190E-02 3.76360E-02 0.00000E+00
 -1       715-9.15800E-03 2.56280E-02 0.00000E+00
 -1       716-2.13960E-02 3.76330E-02 0.00000E+00
 -1       717-2.39060E-02 3.76250E-02 0.00000E+00
 -1       718-5.73600E-02 1.37750E-02 0.00000E+00
 -1       719 1.83330E-02 1.99810E-02 0.00000E+00
 -1       720 2.58400E-02 9.19500E-03 0.00000E+00
 -1       721 2.66110E-02 6.65300E-03 0.00000E+00
 -1       722 5.74310E-02 3.78900E-03 0.00000E+00
 -1       723-5.73770E-02 1.62420E-02 0.00000E+00
 -1       724-3.38990E-02 3.74610E-02 0.00000E+00
 -1       725 2.02910E-02 1.81050E-02 0.00000E+00
 -1       726 2.13890E-02-3.76040E-02 0.00000E+00
 -1       727 5.16970E-02 3.31140E-02 0.00000E+00
 -1       728 3.81100E-03-3.78030E-02 0.00000E+00
 -1       729-5.06570E-02 3.77730E-02 0.00000E+00
 -1       730 2.58130E-02-9.15100E-03 0.00000E+00
 -1       731 5.72440E-02-1.13670E-02 0.00000E+00
 -1       732 2.73800E-02 1.35300E-03 0.00000E+00
 -1       733-2.58220E-02 9.21900E-03 0.00000E+00
 -1       734-5.28760E-02 3.73640E-02 0.00000E+00
 -1       735-2.64280E-02 3.76170E-02 0.00000E+00
 -1       736-2.20630E-02-1.60960E-02 0.00000E+00
 -1       737-1.63640E-02-3.77060E-02 0.00000E+00
 -1       738-1.38250E-02-3.76900E-02 0.00000E+00
 -1       739 5.71810E-02-2.28750E-02 0.00000E+00
 -1       740-1.83620E-02 2.00370E-02 0.00000E+00
 -1       741-2.02850E-02 1.81410E-02 0.00000E+00
 -1       742-2.20150E-02 1.60990E-02 0.00000E+00
 -1       743-2.89430E-02 3.75790E-02 0.00000E+00
 -1       744 5.73150E-02-8.86200E-03 0.00000E+00
 -1       745 1.63560E-02-3.76580E-02 0.00000E+00
 -1       746-3.82100E-03 3.77930E-02 0.00000E+00
 -1       747-5.73290E-02-2.36120E-02 0.00000E+00
 -1       748 4.85320E-02 3.54260E-02 0.00000E+00
 -1       749 5.02040E-02 3.43290E-02 0.00000E+00
 -1       750 1.88510E-02 3.76790E-02 0.00000E+00
 -1       751-4.11750E-02 3.74420E-02 0.00000E+00
 -1       752 4.85440E-02-3.54590E-02 0.00000E+00
 -1       753 5.71810E-02-1.62510E-02 0.00000E+00
 -1       754-5.74290E-02-1.24300E-03 0.00000E+00
 -1       755-1.39890E-02-2.32520E-02 0.00000E+00
 -1       756-1.16180E-02-2.45700E-02 0.00000E+00
 -1       757 3.13620E-02-3.76030E-02 0.00000E+00
 -1       758 2.89020E-02-3.76020E-02 0.00000E+00
 -1       759-2.73640E-02 1.38500E-03 0.00000E+00
 -1       760 5.68000E-02-2.48140E-02 0.00000E+00
 -1       761-5.74510E-02 2.35680E-02 0.00000E+00
 -1       762 1.28200E-03-3.78690E-02 0.00000E+00
 -1       763-1.62490E-02-2.17330E-02 0.00000E+00
 -1       764-6.32800E-03 3.76730E-02 0.00000E+00
 -1       765-2.03060E-02-1.81230E-02 0.00000E+00
 -1       766 2.20330E-02 1.60860E-02 0.00000E+00
 -1       767 1.40340E-02-2.32940E-02 0.00000E+00
 -1       768 1.62910E-02-2.17420E-02 0.00000E+00
 -1       769-3.38250E-02-3.76430E-02 0.00000E+00
 -1       770-3.13490E-02-3.76620E-02 0.00000E+00
 -1       771 5.74450E-02 1.26100E-03 0.00000E+00
 -1       772-5.74260E-02 1.25800E-03 0.00000E+00
 -1       773 5.61680E-02-2.67350E-02 0.00000E+00
 -1       774 5.53460E-02-2.84920E-02 0.00000E+00
 -1       775-1.12990E-02-3.76380E-02 0.00000E+00
 -1       776-8.79900E-03-3.76100E-02 0.00000E+00
 -1       777-5.76300E-02-3.07010E-02 0.00000E+00
 -1       778 5.72200E-02 2.28630E-02 0.00000E+00
 -1       779 5.42930E-02-3.02030E-02 0.00000E+00
 -1       780-5.74270E-02-3.74200E-03 0.00000E+00
 -1       781-4.11760E-02-3.75090E-02 0.00000E+00
 -1       782-3.87360E-02-3.75520E-02 0.00000E+00
 -1       783-5.74190E-02-1.37350E-02 0.00000E+00
 -1       784-6.63500E-03-2.63470E-02 0.00000E+00
 -1       785-4.01600E-03-2.68080E-02 0.00000E+00
 -1       786-5.73690E-02-2.60330E-02 0.00000E+00
 -1       787-1.62740E-02 2.17420E-02 0.00000E+00
 -1       788-1.40220E-02 2.32530E-02 0.00000E+00
 -1       789-1.63740E-02 3.77010E-02 0.00000E+00
 -1       790 5.72180E-02-1.85860E-02 0.00000E+00
 -1       791-5.75150E-02 2.59620E-02 0.00000E+00
 -1       792-5.76360E-02 2.83190E-02 0.00000E+00
 -1       793-4.36100E-02-3.74900E-02 0.00000E+00
 -1       794 9.18800E-03-2.56640E-02 0.00000E+00
 -1       795 3.61840E-02-3.76640E-02 0.00000E+00
 -1       796 3.37960E-02-3.76200E-02 0.00000E+00
 -1       797 8.81500E-03 3.76420E-02 0.00000E+00
 -1       798 2.64000E-02-3.76080E-02 0.00000E+00
 -1       799 2.65970E-02-6.61500E-03 0.00000E+00
 -1       800-4.84060E-02-3.75590E-02 0.00000E+00
 -1       801 4.07150E-02 3.76630E-02 0.00000E+00
 -1       802 4.28480E-02 3.72800E-02 0.00000E+00
 -1       803 2.71190E-02-4.00000E-03 0.00000E+00
 -1       804 6.32800E-03 3.76190E-02 0.00000E+00
 -1       805-2.66170E-02-6.66900E-03 0.00000E+00
 -1       806-1.89020E-02 3.76670E-02 0.00000E+00
 -1       807-5.61690E-02-3.47310E-02 0.00000E+00
 -1       808-5.73090E-02-3.29070E-02 0.00000E+00
 -1       809-5.28990E-02-3.73420E-02 0.00000E+00
 -1       810-5.06950E-02-3.76850E-02 0.00000E+00
 -1       811-3.14420E-02 3.75160E-02 0.00000E+00
 -1       812 5.73370E-02 8.84300E-03 0.00000E+00
 -1       813 2.20140E-02-1.60660E-02 0.00000E+00
 -1       814-5.74720E-02-2.84110E-02 0.00000E+00
 -1       815 4.67770E-02-3.63070E-02 0.00000E+00
 -1       816 8.79100E-03-3.76440E-02 0.00000E+00
 -1       817-3.76400E-03-3.77250E-02 0.00000E+00
 -1       818-2.35200E-02 1.39300E-02 0.00000E+00
 -1       819 5.02070E-02-3.43550E-02 0.00000E+00
 -1       820 5.16950E-02-3.31360E-02 0.00000E+00
 -1       821 2.71240E-02 4.02700E-03 0.00000E+00
 -1       822-4.83440E-02 3.76530E-02 0.00000E+00
 -1       823-6.28600E-03-3.76470E-02 0.00000E+00
 -1       824-2.47960E-02 1.16350E-02 0.00000E+00
 -1       825 6.30500E-03-3.76900E-02 0.00000E+00
 -1       826 4.47970E-02-3.68900E-02 0.00000E+00
 -1       827 5.73930E-02 6.32000E-03 0.00000E+00
 -1       828 1.63700E-02 3.76860E-02 0.00000E+00
 -1       829 1.38750E-02 3.77320E-02 0.00000E+00
 -1       830 1.88780E-02-3.76240E-02 0.00000E+00
 -1       831 2.47870E-02-1.15750E-02 0.00000E+00
 -1       832-1.25200E-03-3.78270E-02 0.00000E+00
 -1       833 2.73830E-02-1.33300E-03 0.00000E+00
 -1       834 3.61640E-02 3.75800E-02 0.00000E+00
 -1       835 3.84910E-02 3.76310E-02 0.00000E+00
 -1       836-5.74270E-02-6.24100E-03 0.00000E+00
 -1       837-5.74180E-02 3.76600E-03 0.00000E+00
 -1       838 4.00300E-03 2.67940E-02 0.00000E+00
 -1       839 1.13320E-02 3.77180E-02 0.00000E+00
 -1       840 2.35530E-02 1.39210E-02 0.00000E+00
 -1       841-2.13870E-02-3.76340E-02 0.00000E+00
 -1       842 5.68340E-02 2.48040E-02 0.00000E+00
 -1       843-1.83650E-02-2.00140E-02 0.00000E+00
 -1       844-1.38360E-02 3.76860E-02 0.00000E+00
 -1       845-1.16240E-02 2.45780E-02 0.00000E+00
 -1       846 5.30940E-02-3.17140E-02 0.00000E+00
 -1       847-1.28000E-03 3.78610E-02 0.00000E+00
 -1       848 1.26900E-03 3.78150E-02 0.00000E+00
 -1       849 1.35000E-03 2.70660E-02 0.00000E+00
 -1       850 3.37750E-02 3.75770E-02 0.00000E+00
 -1       851-9.16500E-03-2.56160E-02 0.00000E+00
 -1       852 2.35200E-02-1.38780E-02 0.00000E+00
 -1       853-3.62880E-02-3.76030E-02 0.00000E+00
 -1       854 2.03030E-02-1.81140E-02 0.00000E+00
 -1       855 5.03700E-03-3.54680E-02 0.00000E+00
 -1       856 7.57000E-03-3.52880E-02 0.00000E+00
 -1       857 2.57300E-03-3.57410E-02 0.00000E+00
 -1       858 5.20000E-05-3.57690E-02 0.00000E+00
 -1       859-4.22730E-02-3.49590E-02 0.00000E+00
 -1       860 5.44080E-02-1.97420E-02 0.00000E+00
 -1       861 5.43320E-02-1.75100E-02 0.00000E+00
 -1       862 2.93000E-03 2.90280E-02 0.00000E+00
 -1       863 2.46900E-03 3.55240E-02 0.00000E+00
 -1       864-5.58010E-02 3.11010E-02 0.00000E+00
 -1       865 2.77400E-03-2.91620E-02 0.00000E+00
 -1       866 5.65900E-03-2.87640E-02 0.00000E+00
 -1       867-5.49930E-02-2.94000E-02 0.00000E+00
 -1       868-8.56900E-03-2.81730E-02 0.00000E+00
 -1       869-5.75800E-03-2.86950E-02 0.00000E+00
 -1       870 3.51160E-02-3.52080E-02 0.00000E+00
 -1       871 2.78760E-02-3.52060E-02 0.00000E+00
 -1       872 3.03580E-02-3.51750E-02 0.00000E+00
 -1       873-5.48120E-02-1.24660E-02 0.00000E+00
 -1       874-5.47950E-02-1.49490E-02 0.00000E+00
 -1       875 5.29730E-02 2.81900E-02 0.00000E+00
 -1       876-5.48980E-02 2.45780E-02 0.00000E+00
 -1       877-5.48590E-02 2.22370E-02 0.00000E+00
 -1       878-4.46700E-02-3.49350E-02 0.00000E+00
 -1       879-5.47640E-02 7.56500E-03 0.00000E+00
 -1       880-5.47990E-02 5.03800E-03 0.00000E+00
 -1       881-2.85940E-02 8.70900E-03 0.00000E+00
 -1       882-2.96860E-02 3.02300E-03 0.00000E+00
 -1       883-2.98280E-02 7.60000E-05 0.00000E+00
 -1       884 4.82180E-02 3.30140E-02 0.00000E+00
 -1       885 5.46880E-02-7.67400E-03 0.00000E+00
 -1       886 5.45360E-02-1.02200E-02 0.00000E+00
 -1       887 2.85880E-02-8.55900E-03 0.00000E+00
 -1       888 2.93020E-02-5.76500E-03 0.00000E+00
 -1       889-5.51400E-02 3.25760E-02 0.00000E+00
 -1       890-2.92800E-02 5.91700E-03 0.00000E+00
 -1       891 3.02410E-02 3.52390E-02 0.00000E+00
 -1       892 2.52370E-02 3.53560E-02 0.00000E+00
 -1       893 2.27540E-02 3.53800E-02 0.00000E+00
 -1       894-3.26850E-02-3.53310E-02 0.00000E+00
 -1       895-3.02360E-02-3.53450E-02 0.00000E+00
 -1       896-1.88060E-02-2.24640E-02 0.00000E+00
 -1       897-2.27820E-02-3.52330E-02 0.00000E+00
 -1       898-2.03250E-02 3.52600E-02 0.00000E+00
 -1       899-2.28300E-02 3.52380E-02 0.00000E+00
 -1       900 1.63400E-02 2.41360E-02 0.00000E+00
 -1       901-2.53580E-02 3.52530E-02 0.00000E+00
 -1       902-5.46420E-02-2.46970E-02 0.00000E+00
 -1       903-5.46040E-02-2.22850E-02 0.00000E+00
 -1       904-4.46280E-02 3.49660E-02 0.00000E+00
 -1       905-4.22910E-02 3.48750E-02 0.00000E+00
 -1       906-1.01390E-02-3.52020E-02 0.00000E+00
 -1       907-1.26590E-02-3.53390E-02 0.00000E+00
 -1       908-4.99200E-03-3.53830E-02 0.00000E+00
 -1       909-1.52600E-02 3.54410E-02 0.00000E+00
 -1       910-1.26870E-02 3.53300E-02 0.00000E+00
 -1       911 5.48690E-02-5.00000E-06 0.00000E+00
 -1       912 5.48510E-02-2.54700E-03 0.00000E+00
 -1       913 2.09980E-02 2.04550E-02 0.00000E+00
 -1       914 2.03060E-02-3.51980E-02 0.00000E+00
 -1       915 5.08310E-02 3.08560E-02 0.00000E+00
 -1       916 5.43280E-02-1.51510E-02 0.00000E+00
 -1       917 5.48130E-02 5.08700E-03 0.00000E+00
 -1       918 5.08130E-02-3.08960E-02 0.00000E+00
 -1       919-5.48440E-02 1.98540E-02 0.00000E+00
 -1       920-5.47630E-02 1.74460E-02 0.00000E+00
 -1       921 5.44000E-02-1.27230E-02 0.00000E+00
 -1       922 5.07500E-03 3.53410E-02 0.00000E+00
 -1       923 1.52770E-02 3.53740E-02 0.00000E+00
 -1       924 4.14320E-02 3.54440E-02 0.00000E+00
 -1       925-2.93070E-02-5.82000E-03 0.00000E+00
 -1       926-2.86670E-02-8.66500E-03 0.00000E+00
 -1       927-5.50550E-02-3.27620E-02 0.00000E+00
 -1       928-2.30490E-02 1.84220E-02 0.00000E+00
 -1       929-3.76070E-02 3.48290E-02 0.00000E+00
 -1       930 1.01840E-02 3.53660E-02 0.00000E+00
 -1       931-5.50790E-02 2.68870E-02 0.00000E+00
 -1       932 2.53460E-02-3.52110E-02 0.00000E+00
 -1       933 2.76690E-02 1.13200E-02 0.00000E+00
 -1       934-1.38880E-02-2.57730E-02 0.00000E+00
 -1       935 5.47190E-02 7.64500E-03 0.00000E+00
 -1       936 5.45900E-02 1.01810E-02 0.00000E+00
 -1       937 2.97210E-02 2.94000E-03 0.00000E+00
 -1       938-2.52820E-02-3.52700E-02 0.00000E+00
 -1       939 2.10860E-02-2.04720E-02 0.00000E+00
 -1       940 1.89110E-02-2.24500E-02 0.00000E+00
 -1       941 5.43900E-02 2.50430E-02 0.00000E+00
 -1       942-1.39260E-02 2.57760E-02 0.00000E+00
 -1       943-1.12460E-02 2.72070E-02 0.00000E+00
 -1       944 5.44250E-02 1.74650E-02 0.00000E+00
 -1       945 5.44180E-02 1.51010E-02 0.00000E+00
 -1       946 8.53400E-03-2.82220E-02 0.00000E+00
 -1       947 2.28320E-02-3.51860E-02 0.00000E+00
 -1       948-2.10490E-02 2.05230E-02 0.00000E+00
 -1       949-1.88610E-02 2.24890E-02 0.00000E+00
 -1       950-6.30000E-05-2.92520E-02 0.00000E+00
 -1       951-2.92900E-03-2.90380E-02 0.00000E+00
 -1       952-3.04030E-02 3.51070E-02 0.00000E+00
 -1       953-5.48160E-02 2.51800E-03 0.00000E+00
 -1       954-4.93640E-02-3.51270E-02 0.00000E+00
 -1       955 1.00850E-02-3.52690E-02 0.00000E+00
 -1       956 4.31150E-02 3.41810E-02 0.00000E+00
 -1       957 3.27650E-02-3.51650E-02 0.00000E+00
 -1       958-2.65230E-02-1.38610E-02 0.00000E+00
 -1       959-2.49680E-02-1.61960E-02 0.00000E+00
 -1       960 2.63640E-02-1.37260E-02 0.00000E+00
 -1       961 2.48530E-02-1.60940E-02 0.00000E+00
 -1       962 3.73920E-02-3.52960E-02 0.00000E+00
 -1       963 5.74700E-03 2.86530E-02 0.00000E+00
 -1       964-1.64990E-02 2.42280E-02 0.00000E+00
 -1       965-5.48170E-02-9.97300E-03 0.00000E+00
 -1       966 2.98680E-02 1.70000E-05 0.00000E+00
 -1       967 2.93020E-02 5.83400E-03 0.00000E+00
 -1       968 2.76120E-02-1.12160E-02 0.00000E+00
 -1       969-2.77670E-02-3.53160E-02 0.00000E+00
 -1       970 7.71600E-03 3.51660E-02 0.00000E+00
 -1       971-2.78300E-03 2.91610E-02 0.00000E+00
 -1       972 6.40000E-05 2.92510E-02 0.00000E+00
 -1       973-3.75030E-02-3.51500E-02 0.00000E+00
 -1       974-3.51110E-02-3.52620E-02 0.00000E+00
 -1       975-2.42100E-03-3.55460E-02 0.00000E+00
 -1       976 1.38460E-02 2.58140E-02 0.00000E+00
 -1       977-5.06800E-03 3.54500E-02 0.00000E+00
 -1       978-7.63100E-03 3.52510E-02 0.00000E+00
 -1       979 3.50430E-02 3.50710E-02 0.00000E+00
 -1       980 3.26860E-02 3.51350E-02 0.00000E+00
 -1       981-1.64280E-02-2.42210E-02 0.00000E+00
 -1       982-2.31080E-02-1.84030E-02 0.00000E+00
 -1       983-2.58000E-03 3.57300E-02 0.00000E+00
 -1       984 2.77540E-02 3.53170E-02 0.00000E+00
 -1       985-3.40000E-05 3.57570E-02 0.00000E+00
 -1       986 3.73250E-02 3.51000E-02 0.00000E+00
 -1       987-4.70690E-02-3.49670E-02 0.00000E+00
 -1       988-7.58800E-03-3.52340E-02 0.00000E+00
 -1       989 1.87510E-02 2.23710E-02 0.00000E+00
 -1       990-5.36490E-02-3.37070E-02 0.00000E+00
 -1       991 5.49810E-02 2.15670E-02 0.00000E+00
 -1       992-2.97020E-02-2.88000E-03 0.00000E+00
 -1       993 2.86250E-02 8.64000E-03 0.00000E+00
 -1       994-5.48240E-02-2.47900E-03 0.00000E+00
 -1       995-5.48180E-02 1.80000E-05 0.00000E+00
 -1       996 5.44730E-02 1.26760E-02 0.00000E+00
 -1       997 5.48540E-02 2.53600E-03 0.00000E+00
 -1       998 2.97360E-02-2.89000E-03 0.00000E+00
 -1       999 2.30760E-02 1.83850E-02 0.00000E+00
 -1      1000 2.49000E-02 1.61840E-02 0.00000E+00
 -1      1001-5.46600E-02-1.98700E-02 0.00000E+00
 -1      1002-5.47420E-02-1.74180E-02 0.00000E+00
 -1      1003-5.55310E-02-3.12800E-02 0.00000E+00
 -1      1004 2.02370E-02 3.53570E-02 0.00000E+00
 -1      1005-5.12490E-02-3.56130E-02 0.00000E+00
 -1      1006 4.31710E-02-3.43290E-02 0.00000E+00
 -1      1007-8.54300E-03 2.81950E-02 0.00000E+00
 -1      1008-5.48230E-02-4.97600E-03 0.00000E+00
 -1      1009-5.47630E-02-2.71100E-02 0.00000E+00
 -1      1010-2.63660E-02 1.38480E-02 0.00000E+00
 -1      1011 8.50200E-03 2.80440E-02 0.00000E+00
 -1      1012 5.47940E-02-5.10800E-03 0.00000E+00
 -1      1013 1.52180E-02-3.53590E-02 0.00000E+00
 -1      1014 1.26320E-02-3.53440E-02 0.00000E+00
 -1      1015 5.32790E-02-2.64880E-02 0.00000E+00
 -1      1016-2.48390E-02 1.61940E-02 0.00000E+00
 -1      1017 1.77770E-02-3.52700E-02 0.00000E+00
 -1      1018 1.40010E-02-2.58850E-02 0.00000E+00
 -1      1019 1.13290E-02-2.73100E-02 0.00000E+00
 -1      1020-5.46800E-02 1.50390E-02 0.00000E+00
 -1      1021-5.46780E-02 1.25800E-02 0.00000E+00
 -1      1022-5.47150E-02 1.00820E-02 0.00000E+00
 -1      1023-2.10450E-02-2.04860E-02 0.00000E+00
 -1      1024-1.01640E-02 3.52040E-02 0.00000E+00
 -1      1025 2.30960E-02-1.83370E-02 0.00000E+00
 -1      1026 1.65350E-02-2.42270E-02 0.00000E+00
 -1      1027 5.15940E-02 2.92920E-02 0.00000E+00
 -1      1028 1.12620E-02 2.71420E-02 0.00000E+00
 -1      1029 1.27630E-02 3.55490E-02 0.00000E+00
 -1      1030 1.77520E-02 3.53180E-02 0.00000E+00
 -1      1031-4.91950E-02 3.53830E-02 0.00000E+00
 -1      1032-3.98850E-02-3.50370E-02 0.00000E+00
 -1      1033 4.66260E-02-3.35850E-02 0.00000E+00
 -1      1034 5.43350E-02-2.50720E-02 0.00000E+00
 -1      1035 5.42430E-02-2.32820E-02 0.00000E+00
 -1      1036 4.66020E-02 3.35010E-02 0.00000E+00
 -1      1037-5.48230E-02-7.47700E-03 0.00000E+00
 -1      1038-4.69540E-02 3.51370E-02 0.00000E+00
 -1      1039-5.27220E-02-3.51170E-02 0.00000E+00
 -1      1040 4.82280E-02-3.30770E-02 0.00000E+00
 -1      1041-2.77500E-02-1.13540E-02 0.00000E+00
 -1      1042 3.94870E-02 3.52240E-02 0.00000E+00
 -1      1043-1.78240E-02 3.53800E-02 0.00000E+00
 -1      1044 5.29360E-02-2.82230E-02 0.00000E+00
 -1      1045-5.34310E-02 3.34100E-02 0.00000E+00
 -1      1046-5.11390E-02 3.58070E-02 0.00000E+00
 -1      1047-5.53510E-02 2.91450E-02 0.00000E+00
 -1      1048 5.45040E-02 1.97000E-02 0.00000E+00
 -1      1049-1.77980E-02-3.53900E-02 0.00000E+00
 -1      1050-2.02980E-02-3.52700E-02 0.00000E+00
 -1      1051-2.78870E-02 3.52240E-02 0.00000E+00
 -1      1052-1.52370E-02-3.54520E-02 0.00000E+00
 -1      1053 4.51460E-02-3.46200E-02 0.00000E+00
 -1      1054 4.14890E-02-3.55950E-02 0.00000E+00
 -1      1055 3.95550E-02-3.54130E-02 0.00000E+00
 -1      1056-1.12410E-02-2.71970E-02 0.00000E+00
 -1      1057 5.49060E-02-2.15990E-02 0.00000E+00
 -1      1058-3.52500E-02 3.48660E-02 0.00000E+00
 -1      1059-3.28580E-02 3.49650E-02 0.00000E+00
 -1      1060-2.76290E-02 1.13510E-02 0.00000E+00
 -1      1061-3.99530E-02 3.48370E-02 0.00000E+00
 -1      1062-5.26030E-02 3.51380E-02 0.00000E+00
 -1      1063 5.33340E-02 2.64540E-02 0.00000E+00
 -1      1064 4.92740E-02-3.16900E-02 0.00000E+00
 -1      1065-5.67800E-03 2.87560E-02 0.00000E+00
 -1      1066 4.51090E-02 3.45200E-02 0.00000E+00
 -1      1067 2.64370E-02 1.38320E-02 0.00000E+00
 -1      1068 5.43190E-02 2.32470E-02 0.00000E+00
 -1      1069 5.15650E-02-2.93380E-02 0.00000E+00
 -1      1070 4.92770E-02 3.16300E-02 0.00000E+00
 -1      1071-1.36800E-03 3.15100E-02 0.00000E+00
 -1      1072-4.50800E-03 3.10680E-02 0.00000E+00
 -1      1073-8.74000E-04-3.34450E-02 0.00000E+00
 -1      1074 1.75000E-03 3.12260E-02 0.00000E+00
 -1      1075 9.07000E-04 3.34340E-02 0.00000E+00
 -1      1076 1.93080E-02-2.49790E-02 0.00000E+00
 -1      1077-5.18630E-02-2.33680E-02 0.00000E+00
 -1      1078-5.20680E-02-2.58570E-02 0.00000E+00
 -1      1079-1.33500E-03 3.38870E-02 0.00000E+00
 -1      1080-3.59000E-03 3.33540E-02 0.00000E+00
 -1      1081 1.66740E-02-3.29830E-02 0.00000E+00
 -1      1082 5.22200E-02-3.82600E-03 0.00000E+00
 -1      1083 5.21200E-02-6.42400E-03 0.00000E+00
 -1      1084 2.39970E-02-2.06830E-02 0.00000E+00
 -1      1085 2.60600E-02-1.83800E-02 0.00000E+00
 -1      1086-6.24500E-03-3.30120E-02 0.00000E+00
 -1      1087-3.51400E-03-3.32430E-02 0.00000E+00
 -1      1088-4.33920E-02 3.23540E-02 0.00000E+00
 -1      1089-4.57370E-02 3.25760E-02 0.00000E+00
 -1      1090-1.72400E-03-3.12340E-02 0.00000E+00
 -1      1091 9.40600E-03 3.25750E-02 0.00000E+00
 -1      1092 1.17100E-02 3.35400E-02 0.00000E+00
 -1      1093 2.38680E-02 2.07570E-02 0.00000E+00
 -1      1094 2.14800E-02 2.28730E-02 0.00000E+00
 -1      1095 2.41770E-02 3.30080E-02 0.00000E+00
 -1      1096 2.17340E-02 3.30770E-02 0.00000E+00
 -1      1097-5.21840E-02-8.71100E-03 0.00000E+00
 -1      1098-5.23030E-02-2.84880E-02 0.00000E+00
 -1      1099 1.14430E-02-3.29500E-02 0.00000E+00
 -1      1100 5.17570E-02 1.15230E-02 0.00000E+00
 -1      1101 5.19740E-02 8.97400E-03 0.00000E+00
 -1      1102-4.09450E-02-3.24510E-02 0.00000E+00
 -1      1103-5.19830E-02 1.14120E-02 0.00000E+00
 -1      1104-5.19300E-02 1.39130E-02 0.00000E+00
 -1      1105-2.68680E-02 3.29130E-02 0.00000E+00
 -1      1106 5.16070E-02 1.64370E-02 0.00000E+00
 -1      1107 5.16100E-02 1.40170E-02 0.00000E+00
 -1      1108-4.64700E-03-3.09760E-02 0.00000E+00
 -1      1109-7.57400E-03-3.06120E-02 0.00000E+00
 -1      1110-2.80330E-02-1.61810E-02 0.00000E+00
 -1      1111-2.61120E-02-1.85420E-02 0.00000E+00
 -1      1112-3.13780E-02 8.00600E-03 0.00000E+00
 -1      1113-3.19530E-02 4.92400E-03 0.00000E+00
 -1      1114-3.18630E-02 3.25580E-02 0.00000E+00
 -1      1115-5.22090E-02 1.86370E-02 0.00000E+00
 -1      1116-5.19670E-02 1.63340E-02 0.00000E+00
 -1      1117 5.14750E-02-1.65170E-02 0.00000E+00
 -1      1118 2.66800E-02 3.30150E-02 0.00000E+00
 -1      1119-1.16290E-02 3.28070E-02 0.00000E+00
 -1      1120-1.06860E-02 3.00870E-02 0.00000E+00
 -1      1121-9.02100E-03 3.27480E-02 0.00000E+00
 -1      1122 1.91990E-02 3.29630E-02 0.00000E+00
 -1      1123 1.67270E-02 3.28810E-02 0.00000E+00
 -1      1124-1.67860E-02 3.32130E-02 0.00000E+00
 -1      1125-1.41750E-02 3.32120E-02 0.00000E+00
 -1      1126 8.91200E-03-3.28030E-02 0.00000E+00
 -1      1127-3.23000E-02-1.44400E-03 0.00000E+00
 -1      1128 3.59200E-03 3.32160E-02 0.00000E+00
 -1      1129 4.69200E-03 3.09490E-02 0.00000E+00
 -1      1130-5.20700E-02 8.88200E-03 0.00000E+00
 -1      1131-5.24260E-02 2.55940E-02 0.00000E+00
 -1      1132-1.41340E-02-3.32250E-02 0.00000E+00
 -1      1133-1.16100E-02-3.28130E-02 0.00000E+00
 -1      1134-3.05130E-02 1.09230E-02 0.00000E+00
 -1      1135 6.20300E-03-3.30730E-02 0.00000E+00
 -1      1136 4.47800E-03-3.10780E-02 0.00000E+00
 -1      1137 3.56900E-03-3.33650E-02 0.00000E+00
 -1      1138 1.36800E-03-3.15140E-02 0.00000E+00
 -1      1139 1.34100E-03-3.38960E-02 0.00000E+00
 -1      1140 2.93140E-02-1.34350E-02 0.00000E+00
 -1      1141 5.16730E-02-1.15890E-02 0.00000E+00
 -1      1142 5.19170E-02-9.02200E-03 0.00000E+00
 -1      1143-2.95660E-02-1.36240E-02 0.00000E+00
 -1      1144-4.83800E-02-3.25180E-02 0.00000E+00
 -1      1145 2.17210E-02-2.28940E-02 0.00000E+00
 -1      1146 3.20440E-02-4.67100E-03 0.00000E+00
 -1      1147 1.04910E-02 2.97390E-02 0.00000E+00
 -1      1148 1.24290E-02 3.12570E-02 0.00000E+00
 -1      1149-3.39880E-02-3.30060E-02 0.00000E+00
 -1      1150-3.86130E-02-3.26190E-02 0.00000E+00
 -1      1151-2.16350E-02 2.29810E-02 0.00000E+00
 -1      1152-3.88290E-02 3.22110E-02 0.00000E+00
 -1      1153-3.65340E-02 3.22290E-02 0.00000E+00
 -1      1154-1.92930E-02 3.29060E-02 0.00000E+00
 -1      1155-1.06840E-02-3.00830E-02 0.00000E+00
 -1      1156-1.67330E-02-3.32300E-02 0.00000E+00
 -1      1157 2.94040E-02 1.36150E-02 0.00000E+00
 -1      1158 2.79110E-02 1.61770E-02 0.00000E+00
 -1      1159-1.90740E-02-2.50400E-02 0.00000E+00
 -1      1160-2.17310E-02-3.28000E-02 0.00000E+00
 -1      1161-1.92390E-02-3.29240E-02 0.00000E+00
 -1      1162 2.78340E-02-1.59790E-02 0.00000E+00
 -1      1163 1.92770E-02-3.28050E-02 0.00000E+00
 -1      1164-2.42550E-02-3.28600E-02 0.00000E+00
 -1      1165 1.38190E-02-2.85940E-02 0.00000E+00
 -1      1166 1.66940E-02-2.66810E-02 0.00000E+00
 -1      1167 4.09480E-02-3.32310E-02 0.00000E+00
 -1      1168 3.87550E-02-3.28920E-02 0.00000E+00
 -1      1169-4.57480E-02-3.23900E-02 0.00000E+00
 -1      1170 3.16830E-02 3.27590E-02 0.00000E+00
 -1      1171 2.92060E-02 3.29430E-02 0.00000E+00
 -1      1172 3.40730E-02 3.25570E-02 0.00000E+00
 -1      1173-6.25900E-03 3.30480E-02 0.00000E+00
 -1      1174 2.60510E-02 1.85380E-02 0.00000E+00
 -1      1175-7.52900E-03 3.06420E-02 0.00000E+00
 -1      1176 6.41300E-03 3.29500E-02 0.00000E+00
 -1      1177 7.46800E-03-3.06700E-02 0.00000E+00
 -1      1178-4.33030E-02-3.23430E-02 0.00000E+00
 -1      1179-2.77950E-02 1.61710E-02 0.00000E+00
 -1      1180-2.93190E-02 1.36340E-02 0.00000E+00
 -1      1181-5.21600E-02-1.36790E-02 0.00000E+00
 -1      1182-5.21670E-02-1.11980E-02 0.00000E+00
 -1      1183-2.18180E-02 3.27920E-02 0.00000E+00
 -1      1184 1.36470E-02 2.85890E-02 0.00000E+00
 -1      1185 3.86330E-02 3.26080E-02 0.00000E+00
 -1      1186-2.93850E-02 3.28200E-02 0.00000E+00
 -1      1187 3.63860E-02 3.24820E-02 0.00000E+00
 -1      1188-3.22780E-02 1.74900E-03 0.00000E+00
 -1      1189-3.06800E-02-1.08560E-02 0.00000E+00
 -1      1190-1.92020E-02 2.50560E-02 0.00000E+00
 -1      1191 7.60500E-03 3.05330E-02 0.00000E+00
 -1      1192 1.40940E-02 3.32020E-02 0.00000E+00
 -1      1193-1.65410E-02 2.67450E-02 0.00000E+00
 -1      1194-2.43260E-02 3.28670E-02 0.00000E+00
 -1      1195-5.21570E-02-1.20800E-03 0.00000E+00
 -1      1196 5.17000E-02 1.88630E-02 0.00000E+00
 -1      1197 5.21450E-02 6.38500E-03 0.00000E+00
 -1      1198-2.15380E-02-2.29360E-02 0.00000E+00
 -1      1199-2.67480E-02-3.29590E-02 0.00000E+00
 -1      1200-5.18840E-02-2.09660E-02 0.00000E+00
 -1      1201-1.64590E-02-2.67460E-02 0.00000E+00
 -1      1202-4.11020E-02 3.22350E-02 0.00000E+00
 -1      1203-3.63260E-02-3.28240E-02 0.00000E+00
 -1      1204-5.22950E-02 2.09570E-02 0.00000E+00
 -1      1205-3.42290E-02 3.23430E-02 0.00000E+00
 -1      1206-5.21500E-02 6.32400E-03 0.00000E+00
 -1      1207-4.81210E-02 3.29240E-02 0.00000E+00
 -1      1208 1.05930E-02-3.01440E-02 0.00000E+00
 -1      1209 1.40710E-02-3.31490E-02 0.00000E+00
 -1      1210-3.16120E-02-3.30710E-02 0.00000E+00
 -1      1211-2.39100E-02-2.07680E-02 0.00000E+00
 -1      1212-2.92090E-02-3.30310E-02 0.00000E+00
 -1      1213-9.01000E-03-3.27420E-02 0.00000E+00
 -1      1214-5.28440E-02 2.80110E-02 0.00000E+00
 -1      1215-1.35830E-02-2.83050E-02 0.00000E+00
 -1      1216 1.89670E-02 2.48370E-02 0.00000E+00
 -1      1217 5.22180E-02 3.80200E-03 0.00000E+00
 -1      1218 4.08610E-02 3.29980E-02 0.00000E+00
 -1      1219-5.21650E-02 3.78100E-03 0.00000E+00
 -1      1220 5.22320E-02 1.25600E-03 0.00000E+00
 -1      1221-5.21490E-02 1.27100E-03 0.00000E+00
 -1      1222 3.14000E-02-7.74500E-03 0.00000E+00
 -1      1223 3.19880E-02 4.78300E-03 0.00000E+00
 -1      1224 3.14040E-02 7.87400E-03 0.00000E+00
 -1      1225 3.05560E-02 1.08400E-02 0.00000E+00
 -1      1226 5.22270E-02-1.27200E-03 0.00000E+00
 -1      1227 2.43700E-02-3.27900E-02 0.00000E+00
 -1      1228 2.69230E-02-3.28420E-02 0.00000E+00
 -1      1229-3.20140E-02-4.65800E-03 0.00000E+00
 -1      1230-5.21850E-02-3.69800E-03 0.00000E+00
 -1      1231-5.20350E-02-1.85590E-02 0.00000E+00
 -1      1232 2.18340E-02-3.27150E-02 0.00000E+00
 -1      1233 3.18650E-02-3.27100E-02 0.00000E+00
 -1      1234 2.94350E-02-3.27920E-02 0.00000E+00
 -1      1235 5.14960E-02-1.40940E-02 0.00000E+00
 -1      1236-3.14680E-02-7.82900E-03 0.00000E+00
 -1      1237 3.65370E-02-3.27500E-02 0.00000E+00
 -1      1238 1.63630E-02 2.65770E-02 0.00000E+00
 -1      1239-5.22280E-02 2.32260E-02 0.00000E+00
 -1      1240 3.42390E-02-3.27020E-02 0.00000E+00
 -1      1241-1.36230E-02 2.83020E-02 0.00000E+00
 -1      1242-5.21340E-02-1.61280E-02 0.00000E+00
 -1      1243 3.23720E-02-1.53400E-03 0.00000E+00
 -1      1244-5.22000E-02-6.20700E-03 0.00000E+00
 -1      1245-2.59860E-02 1.85440E-02 0.00000E+00
 -1      1246 3.23340E-02 1.61800E-03 0.00000E+00
 -1      1247-2.39240E-02 2.08020E-02 0.00000E+00
 -1      1248 3.04990E-02-1.06860E-02 0.00000E+00
 -1      1249 5.15670E-02-1.89300E-02 0.00000E+00
 -1      1250 3.09320E-02-1.57630E-02 0.00000E+00
 -1      1251 2.91700E-02-1.83020E-02 0.00000E+00
 -1      1252-3.36120E-02-1.00860E-02 0.00000E+00
 -1      1253-3.42280E-02-6.69700E-03 0.00000E+00
 -1      1254 1.54280E-02-3.08440E-02 0.00000E+00
 -1      1255 1.82120E-02-3.05260E-02 0.00000E+00
 -1      1256-4.94900E-02 2.17680E-02 0.00000E+00
 -1      1257-4.98340E-02 1.97690E-02 0.00000E+00
 -1      1258-1.94160E-02 2.78450E-02 0.00000E+00
 -1      1259-1.81830E-02 3.06580E-02 0.00000E+00
 -1      1260-2.07970E-02 3.03050E-02 0.00000E+00
 -1      1261-2.84360E-02 3.06060E-02 0.00000E+00
 -1      1262 4.94500E-02 7.68400E-03 0.00000E+00
 -1      1263 4.91450E-02 1.03010E-02 0.00000E+00
 -1      1264 2.43400E-02 2.32040E-02 0.00000E+00
 -1      1265 2.69180E-02 2.09580E-02 0.00000E+00
 -1      1266 1.96600E-02-2.77000E-02 0.00000E+00
 -1      1267 1.67540E-02-2.88220E-02 0.00000E+00
 -1      1268-4.94780E-02-1.48830E-02 0.00000E+00
 -1      1269-3.29440E-02-3.08450E-02 0.00000E+00
 -1      1270-3.06930E-02-3.07890E-02 0.00000E+00
 -1      1271-2.83070E-02-3.07230E-02 0.00000E+00
 -1      1272 1.29970E-02-3.10460E-02 0.00000E+00
 -1      1273-4.95050E-02-1.24300E-02 0.00000E+00
 -1      1274-4.95010E-02-9.94600E-03 0.00000E+00
 -1      1275 2.22280E-02-2.53670E-02 0.00000E+00
 -1      1276-1.62590E-02 2.91250E-02 0.00000E+00
 -1      1277-1.57550E-02 3.13690E-02 0.00000E+00
 -1      1278 2.91940E-02 1.86360E-02 0.00000E+00
 -1      1279 3.10200E-02 1.60670E-02 0.00000E+00
 -1      1280 2.56710E-02 3.06710E-02 0.00000E+00
 -1      1281 5.18620E-02-2.14930E-02 0.00000E+00
 -1      1282-3.77720E-02 2.96430E-02 0.00000E+00
 -1      1283 4.96010E-02-5.11300E-03 0.00000E+00
 -1      1284 4.95630E-02-2.52900E-03 0.00000E+00
 -1      1285 1.85290E-02 3.02240E-02 0.00000E+00
 -1      1286 2.08330E-02 3.09140E-02 0.00000E+00
 -1      1287 2.08610E-02-3.02120E-02 0.00000E+00
 -1      1288 3.41510E-02 6.89100E-03 0.00000E+00
 -1      1289 3.34400E-02 1.01290E-02 0.00000E+00
 -1      1290-2.20920E-02 2.54860E-02 0.00000E+00
 -1      1291-3.54840E-02 2.96160E-02 0.00000E+00
 -1      1292-3.23380E-02 1.32880E-02 0.00000E+00
 -1      1293 4.94880E-02-1.40000E-05 0.00000E+00
 -1      1294 1.53030E-02 3.08210E-02 0.00000E+00
 -1      1295-2.06540E-02-3.03270E-02 0.00000E+00
 -1      1296-1.80970E-02-3.06770E-02 0.00000E+00
 -1      1297-1.61770E-02-2.91390E-02 0.00000E+00
 -1      1298 1.91200E-02 2.73680E-02 0.00000E+00
 -1      1299 2.17820E-02 2.82410E-02 0.00000E+00
 -1      1300-4.94420E-02 2.51200E-03 0.00000E+00
 -1      1301-4.95280E-02 5.05800E-03 0.00000E+00
 -1      1302 4.02170E-02-3.05200E-02 0.00000E+00
 -1      1303 3.80130E-02-3.01900E-02 0.00000E+00
 -1      1304-3.41350E-02 7.11000E-03 0.00000E+00
 -1      1305-3.46270E-02 3.72200E-03 0.00000E+00
 -1      1306-4.91270E-02 1.53610E-02 0.00000E+00
 -1      1307-4.92140E-02 1.28120E-02 0.00000E+00
 -1      1308 3.34040E-02-9.96900E-03 0.00000E+00
 -1      1309 3.23350E-02-1.29870E-02 0.00000E+00
 -1      1310 5.19790E-02 2.14300E-02 0.00000E+00
 -1      1311-4.92500E-02-1.95990E-02 0.00000E+00
 -1      1312 2.17120E-02 2.54230E-02 0.00000E+00
 -1      1313 2.47310E-02-2.30690E-02 0.00000E+00
 -1      1314 2.81850E-02 3.07340E-02 0.00000E+00
 -1      1315 3.07070E-02 3.05360E-02 0.00000E+00
 -1      1316 3.50250E-02 8.70000E-05 0.00000E+00
 -1      1317 3.46800E-02 3.50600E-03 0.00000E+00
 -1      1318 4.00920E-02 3.02310E-02 0.00000E+00
 -1      1319 3.78030E-02 2.98390E-02 0.00000E+00
 -1      1320-3.73800E-02-3.02250E-02 0.00000E+00
 -1      1321-3.52060E-02-3.06530E-02 0.00000E+00
 -1      1322 3.24030E-02 1.32210E-02 0.00000E+00
 -1      1323-2.69670E-02 2.09390E-02 0.00000E+00
 -1      1324-2.69750E-02-2.09150E-02 0.00000E+00
 -1      1325-3.95810E-02-3.00390E-02 0.00000E+00
 -1      1326-4.45670E-02 2.99790E-02 0.00000E+00
 -1      1327 4.90730E-02 2.01390E-02 0.00000E+00
 -1      1328-4.92710E-02-2.44310E-02 0.00000E+00
 -1      1329-4.90140E-02-2.19240E-02 0.00000E+00
 -1      1330-3.26900E-02-1.32160E-02 0.00000E+00
 -1      1331-3.12710E-02-1.60390E-02 0.00000E+00
 -1      1332-3.08760E-02 1.60320E-02 0.00000E+00
 -1      1333-4.94790E-02-1.72470E-02 0.00000E+00
 -1      1334-4.95620E-02-7.45000E-03 0.00000E+00
 -1      1335-4.95700E-02-4.93200E-03 0.00000E+00
 -1      1336-3.32890E-02 2.98740E-02 0.00000E+00
 -1      1337 4.88460E-02 1.29050E-02 0.00000E+00
 -1      1338-2.18520E-02-2.54710E-02 0.00000E+00
 -1      1339-2.44270E-02-2.31770E-02 0.00000E+00
 -1      1340-2.58440E-02-3.05670E-02 0.00000E+00
 -1      1341-2.90700E-02 1.85500E-02 0.00000E+00
 -1      1342-2.33040E-02-3.03940E-02 0.00000E+00
 -1      1343-5.01880E-02 2.67420E-02 0.00000E+00
 -1      1344-5.09360E-02 2.92540E-02 0.00000E+00
 -1      1345-2.46220E-02 2.32270E-02 0.00000E+00
 -1      1346 1.65640E-02 2.87350E-02 0.00000E+00
 -1      1347-5.34450E-02 3.05930E-02 0.00000E+00
 -1      1348-5.16030E-02 3.15640E-02 0.00000E+00
 -1      1349 4.87360E-02-1.29980E-02 0.00000E+00
 -1      1350 4.90750E-02-1.03800E-02 0.00000E+00
 -1      1351 3.34090E-02-3.02480E-02 0.00000E+00
 -1      1352 3.09880E-02-3.03260E-02 0.00000E+00
 -1      1353-3.49320E-02 2.71000E-04 0.00000E+00
 -1      1354-3.99940E-02 2.95530E-02 0.00000E+00
 -1      1355 2.31830E-02 3.05880E-02 0.00000E+00
 -1      1356 3.48710E-02-3.28400E-03 0.00000E+00
 -1      1357 3.42090E-02-6.70900E-03 0.00000E+00
 -1      1358-2.59410E-02 3.06040E-02 0.00000E+00
 -1      1359-3.08260E-02 3.03680E-02 0.00000E+00
 -1      1360-4.69750E-02 3.03880E-02 0.00000E+00
 -1      1361 2.35480E-02-3.02760E-02 0.00000E+00
 -1      1362-4.97870E-02-2.71130E-02 0.00000E+00
 -1      1363-1.56980E-02-3.13850E-02 0.00000E+00
 -1      1364-2.93410E-02-1.85680E-02 0.00000E+00
 -1      1365-4.22560E-02 2.97050E-02 0.00000E+00
 -1      1366 3.57590E-02-3.01660E-02 0.00000E+00
 -1      1367-1.92830E-02-2.78440E-02 0.00000E+00
 -1      1368 3.54920E-02 2.98280E-02 0.00000E+00
 -1      1369 2.70720E-02-2.07290E-02 0.00000E+00
 -1      1370-4.93220E-02 1.02380E-02 0.00000E+00
 -1      1371-4.92040E-02 1.77650E-02 0.00000E+00
 -1      1372-3.34230E-02 1.03060E-02 0.00000E+00
 -1      1373-4.93690E-02 4.70000E-05 0.00000E+00
 -1      1374-4.94700E-02-2.41800E-03 0.00000E+00
 -1      1375-5.28650E-02-3.11010E-02 0.00000E+00
 -1      1376 2.60530E-02-3.04960E-02 0.00000E+00
 -1      1377 2.85620E-02-3.05070E-02 0.00000E+00
 -1      1378-4.42200E-02-2.96570E-02 0.00000E+00
 -1      1379-4.68990E-02-3.00780E-02 0.00000E+00
 -1      1380-2.34470E-02 3.03700E-02 0.00000E+00
 -1      1381-1.35180E-02 3.07400E-02 0.00000E+00
 -1      1382-4.97040E-02 2.42300E-02 0.00000E+00
 -1      1383-5.06560E-02 3.34520E-02 0.00000E+00
 -1      1384-4.18800E-02-2.97420E-02 0.00000E+00
 -1      1385-5.10170E-02-3.29850E-02 0.00000E+00
 -1      1386 4.95400E-02 2.48700E-03 0.00000E+00
 -1      1387-1.34800E-02-3.07500E-02 0.00000E+00
 -1      1388-3.47840E-02-3.13200E-03 0.00000E+00
 -1      1389 4.94190E-02-7.75300E-03 0.00000E+00
 -1      1390-4.94830E-02 7.65100E-03 0.00000E+00
 -1      1391-4.99390E-02-3.01210E-02 0.00000E+00
 -1      1392 4.95830E-02 5.05800E-03 0.00000E+00
 -1      1393 4.85570E-02-1.55090E-02 0.00000E+00
 -1      1394 4.87390E-02-1.78620E-02 0.00000E+00
 -1      1395 3.31430E-02 3.01280E-02 0.00000E+00
 -1      1396 4.86980E-02 1.54060E-02 0.00000E+00
 -1      1397 4.89250E-02-2.02410E-02 0.00000E+00
 -1      1398 4.88940E-02 1.77620E-02 0.00000E+00
 -1      1399 4.24600E-02-3.12850E-02 0.00000E+00
 -1      1400-2.76260E-02 2.85590E-02 0.00000E+00
 -1      1401-2.98820E-02 2.80720E-02 0.00000E+00
 -1      1402-4.48670E-02 2.57410E-02 0.00000E+00
 -1      1403-4.59700E-02 2.78750E-02 0.00000E+00
 -1      1404-4.74280E-02 2.55570E-02 0.00000E+00
 -1      1405 4.91530E-02 2.45890E-02 0.00000E+00
 -1      1406 5.06040E-02 2.67680E-02 0.00000E+00
 -1      1407 4.78030E-02 2.62480E-02 0.00000E+00
 -1      1408 4.46210E-02 3.19810E-02 0.00000E+00
 -1      1409 4.23930E-02 3.10700E-02 0.00000E+00
 -1      1410 4.41190E-02 2.92140E-02 0.00000E+00
 -1      1411 4.46590E-02-3.21270E-02 0.00000E+00
 -1      1412 4.41380E-02-2.93930E-02 0.00000E+00
 -1      1413-4.78080E-02-2.80750E-02 0.00000E+00
 -1      1414-3.01530E-02 2.09650E-02 0.00000E+00
 -1      1415-2.77800E-02 2.33710E-02 0.00000E+00
 -1      1416-3.09950E-02 2.34140E-02 0.00000E+00
 -1      1417-4.65670E-02 1.97690E-02 0.00000E+00
 -1      1418-4.69090E-02-3.68200E-03 0.00000E+00
 -1      1419 3.58420E-02 1.84990E-02 0.00000E+00
 -1      1420 3.41600E-02 1.57850E-02 0.00000E+00
 -1      1421 3.73270E-02 1.52830E-02 0.00000E+00
 -1      1422 4.06510E-02 1.39700E-03 0.00000E+00
 -1      1423 4.37000E-02-1.25000E-04 0.00000E+00
 -1      1424 4.38280E-02 2.62000E-03 0.00000E+00
 -1      1425 3.92480E-02 4.46500E-03 0.00000E+00
 -1      1426 4.18070E-02 5.13300E-03 0.00000E+00
 -1      1427 4.46940E-02 4.98200E-03 0.00000E+00
 -1      1428 2.77540E-02-2.84210E-02 0.00000E+00
 -1      1429 2.84350E-02-2.57480E-02 0.00000E+00
 -1      1430 2.55970E-02-2.79170E-02 0.00000E+00
 -1      1431-3.64870E-02-9.02200E-03 0.00000E+00
 -1      1432-2.26530E-02 2.78950E-02 0.00000E+00
 -1      1433-4.64480E-02 1.42840E-02 0.00000E+00
 -1      1434-4.65400E-02 1.16570E-02 0.00000E+00
 -1      1435-4.36500E-02 1.31000E-02 0.00000E+00
 -1      1436-4.67600E-02 8.98000E-03 0.00000E+00
 -1      1437-4.69850E-02 6.38400E-03 0.00000E+00
 -1      1438 5.15910E-02-2.42160E-02 0.00000E+00
 -1      1439-4.43030E-02 7.49500E-03 0.00000E+00
 -1      1440-4.46190E-02 5.14000E-03 0.00000E+00
 -1      1441-4.17500E-02 5.40500E-03 0.00000E+00
 -1      1442 2.73070E-02 2.84790E-02 0.00000E+00
 -1      1443 4.66920E-02-1.31200E-03 0.00000E+00
 -1      1444 3.94690E-02-2.75240E-02 0.00000E+00
 -1      1445 4.17500E-02-2.82900E-02 0.00000E+00
 -1      1446-4.65020E-02 1.30700E-03 0.00000E+00
 -1      1447-4.65530E-02-1.21500E-03 0.00000E+00
 -1      1448-4.35600E-02 2.70000E-05 0.00000E+00
 -1      1449 3.69670E-02-5.50400E-03 0.00000E+00
 -1      1450-4.68710E-02-1.37110E-02 0.00000E+00
 -1      1451 3.63070E-02 9.19400E-03 0.00000E+00
 -1      1452 3.68340E-02 5.73500E-03 0.00000E+00
 -1      1453 4.66470E-02-9.03300E-03 0.00000E+00
 -1      1454-4.24430E-02-2.65770E-02 0.00000E+00
 -1      1455 5.16820E-02 2.41560E-02 0.00000E+00
 -1      1456 3.21280E-02 2.79400E-02 0.00000E+00
 -1      1457 2.97170E-02 2.85350E-02 0.00000E+00
 -1      1458 3.09630E-02 2.62510E-02 0.00000E+00
 -1      1459 3.24410E-02-2.79480E-02 0.00000E+00
 -1      1460 3.00110E-02-2.79520E-02 0.00000E+00
 -1      1461 2.44550E-02 2.57470E-02 0.00000E+00
 -1      1462 4.16930E-02 2.80560E-02 0.00000E+00
 -1      1463-4.52570E-02-2.73080E-02 0.00000E+00
 -1      1464-4.42280E-02-2.43340E-02 0.00000E+00
 -1      1465 4.58390E-02 1.43880E-02 0.00000E+00
 -1      1466 4.62530E-02 1.16570E-02 0.00000E+00
 -1      1467 3.93250E-02 2.72440E-02 0.00000E+00
 -1      1468-4.67310E-02-1.61340E-02 0.00000E+00
 -1      1469-3.22880E-02 1.84780E-02 0.00000E+00
 -1      1470-2.47520E-02-2.55990E-02 0.00000E+00
 -1      1471-2.74390E-02-2.33270E-02 0.00000E+00
 -1      1472-2.74070E-02-2.58140E-02 0.00000E+00
 -1      1473-4.68540E-02-8.69900E-03 0.00000E+00
 -1      1474 2.48100E-02 2.82100E-02 0.00000E+00
 -1      1475-4.62690E-02-2.28250E-02 0.00000E+00
 -1      1476 3.68940E-02 2.69730E-02 0.00000E+00
 -1      1477 4.67260E-02-3.07250E-02 0.00000E+00
 -1      1478-4.68210E-02-1.12430E-02 0.00000E+00
 -1      1479-4.41610E-02-1.27280E-02 0.00000E+00
 -1      1480-3.02240E-02-2.10690E-02 0.00000E+00
 -1      1481-3.27860E-02-1.86110E-02 0.00000E+00
 -1      1482-3.35940E-02-2.13970E-02 0.00000E+00
 -1      1483 3.72160E-02-2.73890E-02 0.00000E+00
 -1      1484 3.41110E-02-1.54890E-02 0.00000E+00
 -1      1485-4.69010E-02-1.82110E-02 0.00000E+00
 -1      1486-4.36830E-02-1.77010E-02 0.00000E+00
 -1      1487-4.61060E-02-2.02360E-02 0.00000E+00
 -1      1488-4.30060E-02-2.08870E-02 0.00000E+00
 -1      1489-3.46440E-02-1.58150E-02 0.00000E+00
 -1      1490-2.24060E-02-2.79210E-02 0.00000E+00
 -1      1491 3.44770E-02 2.72200E-02 0.00000E+00
 -1      1492-3.68710E-02-5.27800E-03 0.00000E+00
 -1      1493-4.93580E-02 3.09420E-02 0.00000E+00
 -1      1494-4.84380E-02 2.83630E-02 0.00000E+00
 -1      1495 3.24710E-02 1.87120E-02 0.00000E+00
 -1      1496 2.73330E-02 2.34270E-02 0.00000E+00
 -1      1497 3.01570E-02 2.12040E-02 0.00000E+00
 -1      1498 3.03680E-02 2.38870E-02 0.00000E+00
 -1      1499 3.24250E-02-1.81880E-02 0.00000E+00
 -1      1500 3.02530E-02-2.06880E-02 0.00000E+00
 -1      1501 3.49120E-02-2.77230E-02 0.00000E+00
 -1      1502-4.34640E-02 2.73500E-02 0.00000E+00
 -1      1503-3.41460E-02-2.87840E-02 0.00000E+00
 -1      1504-3.60700E-02-2.79940E-02 0.00000E+00
 -1      1505-3.82650E-02-2.74820E-02 0.00000E+00
 -1      1506-4.69980E-02-6.23100E-03 0.00000E+00
 -1      1507-4.38340E-02 2.14300E-02 0.00000E+00
 -1      1508-4.27590E-02 1.84740E-02 0.00000E+00
 -1      1509 4.89680E-02-2.24850E-02 0.00000E+00
 -1      1510 4.57150E-02-1.44890E-02 0.00000E+00
 -1      1511 3.92690E-02-7.99600E-03 0.00000E+00
 -1      1512 3.63050E-02-9.04100E-03 0.00000E+00
 -1      1513 3.82240E-02-1.16580E-02 0.00000E+00
 -1      1514 3.53370E-02-1.24110E-02 0.00000E+00
 -1      1515 3.72730E-02-1.51490E-02 0.00000E+00
 -1      1516-3.21600E-02 2.80560E-02 0.00000E+00
 -1      1517-2.99590E-02-2.85520E-02 0.00000E+00
 -1      1518-2.75800E-02-2.83940E-02 0.00000E+00
 -1      1519 4.43080E-02 7.31400E-03 0.00000E+00
 -1      1520 3.74360E-02 2.09000E-03 0.00000E+00
 -1      1521-4.05400E-02 1.63700E-03 0.00000E+00
 -1      1522-4.10750E-02-1.85700E-03 0.00000E+00
 -1      1523-3.78250E-02-1.29700E-03 0.00000E+00
 -1      1524 2.27990E-02-2.77840E-02 0.00000E+00
 -1      1525 2.71670E-02 2.59110E-02 0.00000E+00
 -1      1526-2.54810E-02 2.80440E-02 0.00000E+00
 -1      1527-2.84290E-02 2.59160E-02 0.00000E+00
 -1      1528-3.93130E-02-4.22200E-03 0.00000E+00
 -1      1529-3.91240E-02-7.53500E-03 0.00000E+00
 -1      1530 2.53330E-02-2.54690E-02 0.00000E+00
 -1      1531 4.66750E-02 8.93200E-03 0.00000E+00
 -1      1532-4.11970E-02 2.69620E-02 0.00000E+00
 -1      1533-4.25130E-02 2.42060E-02 0.00000E+00
 -1      1534-3.88480E-02 2.69140E-02 0.00000E+00
 -1      1535-4.62280E-02 1.70480E-02 0.00000E+00
 -1      1536-4.11980E-02 1.14240E-02 0.00000E+00
 -1      1537-3.84310E-02 1.21380E-02 0.00000E+00
 -1      1538-4.07430E-02 1.50580E-02 0.00000E+00
 -1      1539 4.61720E-02-1.17540E-02 0.00000E+00
 -1      1540-3.34610E-02 2.09880E-02 0.00000E+00
 -1      1541-3.56380E-02 1.83460E-02 0.00000E+00
 -1      1542-3.68080E-02 6.04000E-03 0.00000E+00
 -1      1543-3.63360E-02 9.51600E-03 0.00000E+00
 -1      1544-3.92740E-02 8.37000E-03 0.00000E+00
 -1      1545 3.56650E-02 2.41480E-02 0.00000E+00
 -1      1546 3.84550E-02 2.41700E-02 0.00000E+00
 -1      1547-3.73480E-02 2.35800E-03 0.00000E+00
 -1      1548-4.46760E-02-5.06000E-03 0.00000E+00
 -1      1549-4.39210E-02-2.77500E-03 0.00000E+00
 -1      1550 3.85550E-02-2.43840E-02 0.00000E+00
 -1      1551 4.48070E-02-5.17200E-03 0.00000E+00
 -1      1552 4.70210E-02-3.82000E-03 0.00000E+00
 -1      1553 4.40700E-02-2.89000E-03 0.00000E+00
 -1      1554 4.34530E-02-2.64180E-02 0.00000E+00
 -1      1555 4.60140E-02-2.79690E-02 0.00000E+00
 -1      1556-2.51520E-02-2.80800E-02 0.00000E+00
 -1      1557-2.52250E-02 2.56270E-02 0.00000E+00
 -1      1558-4.51060E-02 2.37550E-02 0.00000E+00
 -1      1559-4.70140E-02 2.26200E-02 0.00000E+00
 -1      1560-3.54000E-02 1.27820E-02 0.00000E+00
 -1      1561-3.40670E-02 1.57670E-02 0.00000E+00
 -1      1562-3.73520E-02 1.54400E-02 0.00000E+00
 -1      1563-3.17400E-02 2.57630E-02 0.00000E+00
 -1      1564 4.91000E-02 2.23860E-02 0.00000E+00
 -1      1565 4.66740E-02 2.36010E-02 0.00000E+00
 -1      1566 3.53820E-02 1.25980E-02 0.00000E+00
 -1      1567 4.64450E-02 1.90960E-02 0.00000E+00
 -1      1568 4.60600E-02 2.12390E-02 0.00000E+00
 -1      1569 4.31600E-02 1.94330E-02 0.00000E+00
 -1      1570-4.13010E-02-1.47010E-02 0.00000E+00
 -1      1571-3.90000E-02-1.14860E-02 0.00000E+00
 -1      1572-4.18730E-02-1.16290E-02 0.00000E+00
 -1      1573-3.91880E-02 4.78000E-03 0.00000E+00
 -1      1574 3.69840E-02-2.13410E-02 0.00000E+00
 -1      1575 4.03720E-02-2.16720E-02 0.00000E+00
 -1      1576-3.42760E-02 2.36330E-02 0.00000E+00
 -1      1577-3.45360E-02 2.66320E-02 0.00000E+00
 -1      1578-3.73290E-02 2.41790E-02 0.00000E+00
 -1      1579-4.03300E-02 2.14800E-02 0.00000E+00
 -1      1580 3.82700E-02 1.17250E-02 0.00000E+00
 -1      1581 3.61000E-02-2.47430E-02 0.00000E+00
 -1      1582 4.70500E-02-6.42800E-03 0.00000E+00
 -1      1583-3.58340E-02-1.25260E-02 0.00000E+00
 -1      1584-3.94020E-02-2.45710E-02 0.00000E+00
 -1      1585-4.16920E-02-2.34410E-02 0.00000E+00
 -1      1586 4.70220E-02 6.31700E-03 0.00000E+00
 -1      1587 3.94310E-02-4.50400E-03 0.00000E+00
 -1      1588 4.11890E-02-2.03400E-03 0.00000E+00
 -1      1589 3.79380E-02-1.54100E-03 0.00000E+00
 -1      1590-4.43600E-02-1.50720E-02 0.00000E+00
 -1      1591 3.30210E-02 2.48920E-02 0.00000E+00
 -1      1592 3.36200E-02 2.16590E-02 0.00000E+00
 -1      1593 4.57640E-02 1.69930E-02 0.00000E+00
 -1      1594 4.27890E-02 1.61930E-02 0.00000E+00
 -1      1595 4.59170E-02-2.13660E-02 0.00000E+00
 -1      1596 4.69300E-02 3.70900E-03 0.00000E+00
 -1      1597 4.66390E-02 1.21900E-03 0.00000E+00
 -1      1598-4.03590E-02-2.75290E-02 0.00000E+00
 -1      1599-4.18340E-02-5.38100E-03 0.00000E+00
 -1      1600-4.15410E-02-8.82500E-03 0.00000E+00
 -1      1601-4.70260E-02-2.55730E-02 0.00000E+00
 -1      1602-3.22130E-02-2.85010E-02 0.00000E+00
 -1      1603 4.67200E-02 3.06140E-02 0.00000E+00
 -1      1604-3.41410E-02-2.63230E-02 0.00000E+00
 -1      1605-3.03730E-02-2.37650E-02 0.00000E+00
 -1      1606-4.68270E-02 3.78000E-03 0.00000E+00
 -1      1607 3.14880E-02-2.55350E-02 0.00000E+00
 -1      1608-3.15630E-02-2.62320E-02 0.00000E+00
 -1      1609 3.38180E-02-2.57880E-02 0.00000E+00
 -1      1610 3.39340E-02-2.32970E-02 0.00000E+00
 -1      1611 3.09200E-02-2.31500E-02 0.00000E+00
 -1      1612 2.78430E-02-2.31560E-02 0.00000E+00
 -1      1613 4.56140E-02-1.71050E-02 0.00000E+00
 -1      1614 4.62890E-02-1.92170E-02 0.00000E+00
 -1      1615-3.67480E-02 2.72370E-02 0.00000E+00
 -1      1616 4.26590E-02-1.62830E-02 0.00000E+00
 -1      1617 3.94520E-02-1.81540E-02 0.00000E+00
 -1      1618 4.30180E-02-1.95440E-02 0.00000E+00
 -1      1619-4.37050E-02 2.79300E-03 0.00000E+00
 -1      1620 3.92490E-02 7.98600E-03 0.00000E+00
 -1      1621 4.39190E-02 1.01300E-02 0.00000E+00
 -1      1622-3.91070E-02 1.83010E-02 0.00000E+00
 -1      1623-4.40620E-02 1.02920E-02 0.00000E+00
 -1      1624-3.28340E-02-2.41800E-02 0.00000E+00
 -1      1625 4.02230E-02-1.43930E-02 0.00000E+00
 -1      1626 4.31790E-02-1.31240E-02 0.00000E+00
 -1      1627 4.09880E-02-1.10640E-02 0.00000E+00
 -1      1628 4.38820E-02-1.02400E-02 0.00000E+00
 -1      1629 3.58350E-02-1.82110E-02 0.00000E+00
 -1      1630-2.93840E-02-2.64400E-02 0.00000E+00
 -1      1631 3.95860E-02 1.80880E-02 0.00000E+00
 -1      1632 3.72710E-02 2.11870E-02 0.00000E+00
 -1      1633 4.03080E-02 1.43640E-02 0.00000E+00
 -1      1634 4.10330E-02 1.10070E-02 0.00000E+00
 -1      1635 4.32690E-02 1.30380E-02 0.00000E+00
 -1      1636-4.19810E-02 8.55800E-03 0.00000E+00
 -1      1637 4.90510E-02-2.46820E-02 0.00000E+00
 -1      1638 4.65570E-02-2.37270E-02 0.00000E+00
 -1      1639 4.77330E-02-2.63540E-02 0.00000E+00
 -1      1640-3.65570E-02-1.88000E-02 0.00000E+00
 -1      1641-4.41920E-02-7.41200E-03 0.00000E+00
 -1      1642-4.42230E-02-1.00360E-02 0.00000E+00
 -1      1643-3.79750E-02-1.52530E-02 0.00000E+00
 -1      1644-3.69050E-02-2.21850E-02 0.00000E+00
 -1      1645-3.95750E-02-2.11010E-02 0.00000E+00
 -1      1646 3.35540E-02-2.07280E-02 0.00000E+00
 -1      1647 4.43530E-02-7.47400E-03 0.00000E+00
 -1      1648-4.38260E-02 1.56890E-02 0.00000E+00
 -1      1649-3.68400E-02 2.11220E-02 0.00000E+00
 -1      1650-4.00060E-02 2.45410E-02 0.00000E+00
 -1      1651-4.02760E-02-1.80310E-02 0.00000E+00
 -1      1652 2.90480E-02 2.65250E-02 0.00000E+00
 -1      1653 4.11180E-02 2.48270E-02 0.00000E+00
 -1      1654 4.34800E-02 2.62390E-02 0.00000E+00
 -1      1655 4.53980E-02 2.52750E-02 0.00000E+00
 -1      1656 4.19710E-02-5.41900E-03 0.00000E+00
 -1      1657 4.34120E-02-2.30250E-02 0.00000E+00
 -1      1658 4.11190E-02-2.50160E-02 0.00000E+00
 -1      1659 5.05440E-02-2.68320E-02 0.00000E+00
 -1      1660 4.05220E-02 2.15520E-02 0.00000E+00
 -1      1661 4.35210E-02 2.28910E-02 0.00000E+00
 -1      1662 4.60440E-02 2.78320E-02 0.00000E+00
 -1      1663 4.87940E-02-2.89640E-02 0.00000E+00
 -1      1664 4.53230E-02-2.54140E-02 0.00000E+00
 -1      1665 4.88230E-02 2.88850E-02 0.00000E+00
 -1      1666 4.19710E-02-8.39000E-03 0.00000E+00
 -1      1667 4.19470E-02 8.24600E-03 0.00000E+00
 -1      1668-3.67490E-02-2.52910E-02 0.00000E+00
 -1      1669-3.49280E-02-2.37740E-02 0.00000E+00
 -1      1670-5.61340E-02-3.78980E-02 1.99500E-03
 -1      1671-5.41700E-02-3.90890E-02 1.75400E-03
 -1      1672-5.47550E-02-3.87970E-02 3.91100E-03
 -1      1673-5.23060E-02-3.97310E-02 4.88500E-03
 -1      1674-5.70710E-02-3.70710E-02 8.00500E-03
 -1      1675-5.87970E-02-3.47560E-02 8.08800E-03
 -1      1676-5.79290E-02-3.60940E-02 5.99900E-03
 -1      1677-5.97250E-02-3.23300E-02 2.70800E-03
 -1      1678-5.61340E-02-3.78980E-02 1.00040E-02
 -1      1679-5.41710E-02-3.90890E-02 1.02460E-02
 -1      1680-5.97300E-02-3.23060E-02 4.88500E-03
 -1      1681-5.23300E-02-3.97250E-02 9.29100E-03
 -1      1682-5.23060E-02-3.97310E-02 7.11400E-03
 -1      1683-5.78980E-02-3.61340E-02 1.99500E-03
 -1      1684-5.91060E-02-3.41330E-02 6.00000E-03
 -1      1685-5.41330E-02-3.91060E-02 5.99900E-03
 -1      1686-5.60940E-02-3.79290E-02 5.99900E-03
 -1      1687-5.97250E-02-3.23300E-02 9.29100E-03
 -1      1688-5.97300E-02-3.23060E-02 7.11400E-03
 -1      1689-5.87970E-02-3.47560E-02 3.91100E-03
 -1      1690-5.70710E-02-3.70710E-02 3.99400E-03
 -1      1691-5.90890E-02-3.41710E-02 1.75400E-03
 -1      1692-5.23300E-02-3.97250E-02 2.70800E-03
 -1      1693-5.78980E-02-3.61340E-02 1.00040E-02
 -1      1694-5.90890E-02-3.41710E-02 1.02460E-02
 -1      1695-5.47550E-02-3.87970E-02 8.08800E-03
 -1      1696 1.16700E-02-2.46280E-02 1.20000E-02
 -1      1697 9.21000E-03-2.56520E-02 1.20000E-02
 -1      1698-4.10770E-02 3.73670E-02 1.20000E-02
 -1      1699-6.64200E-03 2.63590E-02 1.20000E-02
 -1      1700 2.58180E-02-9.15300E-03 1.20000E-02
 -1      1701 2.48010E-02-1.15750E-02 1.20000E-02
 -1      1702 6.64600E-03-2.63570E-02 1.20000E-02
 -1      1703 5.67910E-02 2.48120E-02 1.20000E-02
 -1      1704-8.75800E-03 3.76420E-02 1.20000E-02
 -1      1705-6.25600E-03 3.76640E-02 1.20000E-02
 -1      1706 6.32700E-03 3.76780E-02 1.20000E-02
 -1      1707 3.83100E-03 3.77970E-02 1.20000E-02
 -1      1708-1.13100E-02-3.76400E-02 1.20000E-02
 -1      1709-5.74400E-02-3.06600E-02 1.20000E-02
 -1      1710-5.73720E-02-2.83440E-02 1.20000E-02
 -1      1711-5.46050E-02 3.61040E-02 1.20000E-02
 -1      1712-5.60590E-02 3.46430E-02 1.20000E-02
 -1      1713-5.73900E-02 1.37800E-02 1.20000E-02
 -1      1714-5.74010E-02 1.12820E-02 1.20000E-02
 -1      1715-2.66410E-02 6.70800E-03 1.20000E-02
 -1      1716-2.71510E-02 4.05800E-03 1.20000E-02
 -1      1717-9.15300E-03-2.56300E-02 1.20000E-02
 -1      1718-6.60700E-03-2.63740E-02 1.20000E-02
 -1      1719-1.12590E-02 3.76660E-02 1.20000E-02
 -1      1720-1.37830E-02 3.76970E-02 1.20000E-02
 -1      1721-4.82760E-02 3.76650E-02 1.20000E-02
 -1      1722-5.06010E-02 3.77850E-02 1.20000E-02
 -1      1723 2.63540E-02 3.76500E-02 1.20000E-02
 -1      1724 1.39650E-02 2.32580E-02 1.20000E-02
 -1      1725 1.15920E-02 2.45800E-02 1.20000E-02
 -1      1726-2.71370E-02-4.04400E-03 1.20000E-02
 -1      1727-1.16260E-02-2.45810E-02 1.20000E-02
 -1      1728-5.73720E-02-1.37720E-02 1.20000E-02
 -1      1729 2.71050E-02-4.00100E-03 1.20000E-02
 -1      1730 2.73640E-02-1.33100E-03 1.20000E-02
 -1      1731 5.71870E-02-2.28830E-02 1.20000E-02
 -1      1732 5.73400E-02-2.07810E-02 1.20000E-02
 -1      1733 5.71640E-02 2.28670E-02 1.20000E-02
 -1      1734-3.14440E-02-3.75230E-02 1.20000E-02
 -1      1735-3.39070E-02-3.74590E-02 1.20000E-02
 -1      1736-5.74250E-02-6.27500E-03 1.20000E-02
 -1      1737-5.75580E-02 2.83250E-02 1.20000E-02
 -1      1738-5.74050E-02 2.59580E-02 1.20000E-02
 -1      1739-2.35890E-02 1.39870E-02 1.20000E-02
 -1      1740-5.77130E-02 3.06420E-02 1.20000E-02
 -1      1741 5.72760E-02 1.13360E-02 1.20000E-02
 -1      1742-2.20210E-02-1.61040E-02 1.20000E-02
 -1      1743-2.35370E-02-1.39290E-02 1.20000E-02
 -1      1744 5.72470E-02-1.13770E-02 1.20000E-02
 -1      1745-5.73220E-02 3.28660E-02 1.20000E-02
 -1      1746 8.81600E-03 3.76230E-02 1.20000E-02
 -1      1747 1.63420E-02 3.77180E-02 1.20000E-02
 -1      1748 1.38120E-02 3.76990E-02 1.20000E-02
 -1      1749 2.38530E-02 3.76470E-02 1.20000E-02
 -1      1750 1.34600E-03-2.70710E-02 1.20000E-02
 -1      1751 4.01300E-03-2.68120E-02 1.20000E-02
 -1      1752-8.82400E-03-3.76190E-02 1.20000E-02
 -1      1753-6.33400E-03-3.76750E-02 1.20000E-02
 -1      1754 5.72010E-02 1.85710E-02 1.20000E-02
 -1      1755 5.71790E-02 1.62300E-02 1.20000E-02
 -1      1756 1.12990E-02 3.76440E-02 1.20000E-02
 -1      1757-5.74440E-02 1.26100E-03 1.20000E-02
 -1      1758-5.74450E-02-1.24700E-03 1.20000E-02
 -1      1759-5.74430E-02-3.76000E-03 1.20000E-02
 -1      1760-3.87480E-02-3.74170E-02 1.20000E-02
 -1      1761-3.63380E-02-3.74200E-02 1.20000E-02
 -1      1762-2.89430E-02-3.75890E-02 1.20000E-02
 -1      1763 5.61740E-02 2.67440E-02 1.20000E-02
 -1      1764 1.30000E-03 3.78680E-02 1.20000E-02
 -1      1765 5.74370E-02 3.76500E-03 1.20000E-02
 -1      1766 5.74430E-02 1.23600E-03 1.20000E-02
 -1      1767 4.47970E-02-3.68940E-02 1.20000E-02
 -1      1768-2.38270E-02 3.76700E-02 1.20000E-02
 -1      1769 5.42920E-02-3.02050E-02 1.20000E-02
 -1      1770-1.38320E-02-3.76890E-02 1.20000E-02
 -1      1771 2.38900E-02-3.76110E-02 1.20000E-02
 -1      1772 2.13890E-02-3.76070E-02 1.20000E-02
 -1      1773 3.74200E-03-3.77330E-02 1.20000E-02
 -1      1774 6.26000E-03-3.76610E-02 1.20000E-02
 -1      1775 1.62880E-02-2.17470E-02 1.20000E-02
 -1      1776 1.38140E-02-3.76750E-02 1.20000E-02
 -1      1777 1.12800E-02-3.76540E-02 1.20000E-02
 -1      1778-5.07070E-02-3.74490E-02 1.20000E-02
 -1      1779-5.29100E-02-3.70900E-02 1.20000E-02
 -1      1780-3.38310E-02 3.73830E-02 1.20000E-02
 -1      1781 2.73670E-02 1.35600E-03 1.20000E-02
 -1      1782 4.85450E-02-3.54630E-02 1.20000E-02
 -1      1783 5.02080E-02-3.43600E-02 1.20000E-02
 -1      1784 2.35250E-02-1.38880E-02 1.20000E-02
 -1      1785-5.60430E-02-3.47990E-02 1.20000E-02
 -1      1786-5.49360E-02-3.65200E-02 1.20000E-02
 -1      1787-1.62820E-02 2.17730E-02 1.20000E-02
 -1      1788-1.83920E-02 2.00650E-02 1.20000E-02
 -1      1789-5.74340E-02 3.77000E-03 1.20000E-02
 -1      1790-5.74200E-02 6.27800E-03 1.20000E-02
 -1      1791 5.73100E-02-8.87000E-03 1.20000E-02
 -1      1792-1.62710E-02-2.17520E-02 1.20000E-02
 -1      1793-2.03340E-02 1.81800E-02 1.20000E-02
 -1      1794-1.30100E-03-3.78680E-02 1.20000E-02
 -1      1795-3.96600E-03-2.68570E-02 1.20000E-02
 -1      1796-4.34900E-02 3.74420E-02 1.20000E-02
 -1      1797-4.11540E-02-3.74400E-02 1.20000E-02
 -1      1798-4.35590E-02-3.74910E-02 1.20000E-02
 -1      1799-3.13650E-02 3.74830E-02 1.20000E-02
 -1      1800-5.28320E-02 3.73700E-02 1.20000E-02
 -1      1801-2.63500E-02 3.76450E-02 1.20000E-02
 -1      1802-2.64240E-02-3.76250E-02 1.20000E-02
 -1      1803-2.39090E-02-3.76340E-02 1.20000E-02
 -1      1804-2.58440E-02-9.20700E-03 1.20000E-02
 -1      1805 4.28790E-02-3.73560E-02 1.20000E-02
 -1      1806 5.31540E-02 3.17760E-02 1.20000E-02
 -1      1807 3.84960E-02 3.76510E-02 1.20000E-02
 -1      1808 4.07190E-02 3.77160E-02 1.20000E-02
 -1      1809 5.68050E-02-2.48220E-02 1.20000E-02
 -1      1810 5.61710E-02-2.67430E-02 1.20000E-02
 -1      1811 5.53480E-02-2.85010E-02 1.20000E-02
 -1      1812-5.73820E-02-1.12850E-02 1.20000E-02
 -1      1813-1.89020E-02-3.76710E-02 1.20000E-02
 -1      1814-1.63800E-02-3.77030E-02 1.20000E-02
 -1      1815 5.73650E-02-6.34600E-03 1.20000E-02
 -1      1816 5.74060E-02-3.81800E-03 1.20000E-02
 -1      1817 2.20240E-02-1.60650E-02 1.20000E-02
 -1      1818-5.73460E-02-1.87150E-02 1.20000E-02
 -1      1819 2.58290E-02 9.18900E-03 1.20000E-02
 -1      1820-5.73680E-02-1.62460E-02 1.20000E-02
 -1      1821-5.72830E-02-2.35630E-02 1.20000E-02
 -1      1822-4.83770E-02-3.75640E-02 1.20000E-02
 -1      1823-5.73100E-02-2.59600E-02 1.20000E-02
 -1      1824-5.35810E-02-3.48340E-02 1.20000E-02
 -1      1825-4.59630E-02-3.75640E-02 1.20000E-02
 -1      1826-2.20710E-02 1.61550E-02 1.20000E-02
 -1      1827-5.73000E-02 2.11700E-02 1.20000E-02
 -1      1828-5.73170E-02 2.35740E-02 1.20000E-02
 -1      1829 5.73460E-02 8.82600E-03 1.20000E-02
 -1      1830 5.43350E-02 3.02430E-02 1.20000E-02
 -1      1831 5.53700E-02 2.85170E-02 1.20000E-02
 -1      1832-2.48160E-02-1.16270E-02 1.20000E-02
 -1      1833-5.73030E-02-2.11540E-02 1.20000E-02
 -1      1834 2.02780E-02 1.81320E-02 1.20000E-02
 -1      1835 2.20250E-02 1.60900E-02 1.20000E-02
 -1      1836 5.72040E-02-1.38450E-02 1.20000E-02
 -1      1837 1.83420E-02 2.00230E-02 1.20000E-02
 -1      1838-5.74010E-02-8.78600E-03 1.20000E-02
 -1      1839 2.65910E-02-6.61700E-03 1.20000E-02
 -1      1840-3.83300E-03-3.77960E-02 1.20000E-02
 -1      1841-3.86640E-02 3.73200E-02 1.20000E-02
 -1      1842-3.62550E-02 3.73220E-02 1.20000E-02
 -1      1843 4.67770E-02-3.63120E-02 1.20000E-02
 -1      1844 9.13400E-03 2.56300E-02 1.20000E-02
 -1      1845 3.37870E-02 3.75640E-02 1.20000E-02
 -1      1846 3.61740E-02 3.75770E-02 1.20000E-02
 -1      1847 3.13610E-02-3.76080E-02 1.20000E-02
 -1      1848 3.37950E-02-3.76250E-02 1.20000E-02
 -1      1849 2.63920E-02-3.76170E-02 1.20000E-02
 -1      1850 2.88680E-02 3.76280E-02 1.20000E-02
 -1      1851-2.66220E-02-6.67200E-03 1.20000E-02
 -1      1852-1.63070E-02 3.76990E-02 1.20000E-02
 -1      1853-3.74100E-03 3.77340E-02 1.20000E-02
 -1      1854 1.88620E-02 3.76870E-02 1.20000E-02
 -1      1855 2.13550E-02 3.76550E-02 1.20000E-02
 -1      1856-1.40320E-02 2.33060E-02 1.20000E-02
 -1      1857 2.02960E-02-1.81210E-02 1.20000E-02
 -1      1858 5.72120E-02 1.38080E-02 1.20000E-02
 -1      1859 1.23300E-03-3.78290E-02 1.20000E-02
 -1      1860-1.31300E-03-2.70950E-02 1.20000E-02
 -1      1861 3.85200E-02-3.77310E-02 1.20000E-02
 -1      1862-2.74010E-02 1.35700E-03 1.20000E-02
 -1      1863-5.74100E-02 8.78100E-03 1.20000E-02
 -1      1864 2.65990E-02 6.64800E-03 1.20000E-02
 -1      1865-5.70160E-02-3.28800E-02 1.20000E-02
 -1      1866 8.76500E-03-3.76370E-02 1.20000E-02
 -1      1867-2.88680E-02 3.75810E-02 1.20000E-02
 -1      1868-2.13190E-02 3.76780E-02 1.20000E-02
 -1      1869-1.88190E-02 3.76840E-02 1.20000E-02
 -1      1870-1.34800E-03 2.70710E-02 1.20000E-02
 -1      1871 4.28620E-02 3.73930E-02 1.20000E-02
 -1      1872 2.71140E-02 4.02600E-03 1.20000E-02
 -1      1873 2.35380E-02 1.39220E-02 1.20000E-02
 -1      1874 5.74330E-02-1.28900E-03 1.20000E-02
 -1      1875-1.23400E-03 3.78300E-02 1.20000E-02
 -1      1876-1.40200E-02-2.32570E-02 1.20000E-02
 -1      1877-2.13990E-02-3.76380E-02 1.20000E-02
 -1      1878 3.13510E-02 3.75910E-02 1.20000E-02
 -1      1879 1.88740E-02-3.76260E-02 1.20000E-02
 -1      1880-2.74000E-02-1.35500E-03 1.20000E-02
 -1      1881 5.71930E-02-1.62620E-02 1.20000E-02
 -1      1882 5.72290E-02-1.85980E-02 1.20000E-02
 -1      1883-5.73270E-02 1.87350E-02 1.20000E-02
 -1      1884 2.48100E-02 1.16190E-02 1.20000E-02
 -1      1885-2.58830E-02 9.25900E-03 1.20000E-02
 -1      1886-2.48680E-02 1.16870E-02 1.20000E-02
 -1      1887-2.02900E-02-1.81500E-02 1.20000E-02
 -1      1888-1.83730E-02-2.00370E-02 1.20000E-02
 -1      1889 6.59300E-03 2.63740E-02 1.20000E-02
 -1      1890 3.95800E-03 2.68570E-02 1.20000E-02
 -1      1891 1.40350E-02-2.33000E-02 1.20000E-02
 -1      1892 2.88940E-02-3.76080E-02 1.20000E-02
 -1      1893-9.19900E-03 2.56550E-02 1.20000E-02
 -1      1894-1.16620E-02 2.46300E-02 1.20000E-02
 -1      1895-5.73650E-02 1.62680E-02 1.20000E-02
 -1      1896 5.74040E-02 6.29700E-03 1.20000E-02
 -1      1897-4.58920E-02 3.75390E-02 1.20000E-02
 -1      1898 1.30900E-03 2.70950E-02 1.20000E-02
 -1      1899 4.68150E-02 3.64280E-02 1.20000E-02
 -1      1900 4.86060E-02 3.55850E-02 1.20000E-02
 -1      1901 5.17670E-02 3.32260E-02 1.20000E-02
 -1      1902 4.48040E-02 3.69800E-02 1.20000E-02
 -1      1903 5.02820E-02 3.44660E-02 1.20000E-02
 -1      1904 3.61860E-02-3.76690E-02 1.20000E-02
 -1      1905 5.16950E-02-3.31420E-02 1.20000E-02
 -1      1906 1.83900E-02-2.00200E-02 1.20000E-02
 -1      1907 1.63540E-02-3.76620E-02 1.20000E-02
 -1      1908 5.30980E-02-3.17230E-02 1.20000E-02
 -1      1909 1.62260E-02 2.17410E-02 1.20000E-02
 -1      1910 4.07490E-02-3.77500E-02 1.20000E-02
 -1      1911-4.01200E-03 2.68130E-02 1.20000E-02
 -1      1912 5.73100E-02 2.07590E-02 1.20000E-02
 -1      1913 4.67500E-02 3.38480E-02 1.20000E-02
 -1      1914 2.92860E-02 5.82300E-03 1.20000E-02
 -1      1915 2.38700E-03-3.55530E-02 1.20000E-02
 -1      1916 4.94700E-03-3.53990E-02 1.20000E-02
 -1      1917-5.57150E-02 3.11280E-02 1.20000E-02
 -1      1918 5.32840E-02 2.65350E-02 1.20000E-02
 -1      1919 5.43380E-02-2.50870E-02 1.20000E-02
 -1      1920 3.27570E-02-3.51790E-02 1.20000E-02
 -1      1921 3.51170E-02-3.52210E-02 1.20000E-02
 -1      1922-5.08300E-03-3.54520E-02 1.20000E-02
 -1      1923-2.60800E-03-3.57350E-02 1.20000E-02
 -1      1924-2.26570E-02 3.53450E-02 1.20000E-02
 -1      1925-2.01590E-02 3.53410E-02 1.20000E-02
 -1      1926-1.26710E-02-3.53370E-02 1.20000E-02
 -1      1927-1.12400E-02-2.72110E-02 1.20000E-02
 -1      1928-8.54500E-03-2.81950E-02 1.20000E-02
 -1      1929 5.49160E-02-2.16180E-02 1.20000E-02
 -1      1930-4.68760E-02-3.51980E-02 1.20000E-02
 -1      1931-4.45670E-02-3.50060E-02 1.20000E-02
 -1      1932 8.50900E-03 2.82000E-02 1.20000E-02
 -1      1933 1.11920E-02 2.72130E-02 1.20000E-02
 -1      1934 2.48650E-02-1.61090E-02 1.20000E-02
 -1      1935 2.63900E-02-1.37260E-02 1.20000E-02
 -1      1936 5.48650E-02 2.48300E-03 1.20000E-02
 -1      1937 5.48320E-02 5.03300E-03 1.20000E-02
 -1      1938 3.50890E-02 3.50470E-02 1.20000E-02
 -1      1939 3.27330E-02 3.50990E-02 1.20000E-02
 -1      1940 3.74000E-02-3.53030E-02 1.20000E-02
 -1      1941-2.11040E-02 2.06030E-02 1.20000E-02
 -1      1942-1.88900E-02 2.25420E-02 1.20000E-02
 -1      1943 1.52050E-02-3.53700E-02 1.20000E-02
 -1      1944 1.26140E-02-3.53540E-02 1.20000E-02
 -1      1945 1.01390E-02 3.52130E-02 1.20000E-02
 -1      1946-5.47990E-02-7.55800E-03 1.20000E-02
 -1      1947 2.78610E-02-3.52190E-02 1.20000E-02
 -1      1948 3.03490E-02-3.51850E-02 1.20000E-02
 -1      1949-2.10600E-02-2.05370E-02 1.20000E-02
 -1      1950 2.97010E-02 2.93800E-03 1.20000E-02
 -1      1951-2.31550E-02 1.85190E-02 1.20000E-02
 -1      1952 5.16450E-02 2.94520E-02 1.20000E-02
 -1      1953 2.90700E-03-2.90420E-02 1.20000E-02
 -1      1954 5.74500E-03-2.87070E-02 1.20000E-02
 -1      1955-5.43490E-02-3.28350E-02 1.20000E-02
 -1      1956 5.46110E-02 1.01400E-02 1.20000E-02
 -1      1957 5.44560E-02 1.26480E-02 1.20000E-02
 -1      1958 5.45350E-02-1.02480E-02 1.20000E-02
 -1      1959 5.46600E-02-7.70600E-03 1.20000E-02
 -1      1960-5.47970E-02 7.56300E-03 1.20000E-02
 -1      1961 1.89090E-02-2.24630E-02 1.20000E-02
 -1      1962 2.11080E-02-2.04650E-02 1.20000E-02
 -1      1963 5.66500E-03 2.87550E-02 1.20000E-02
 -1      1964 2.76380E-02-1.12080E-02 1.20000E-02
 -1      1965-4.60000E-05 2.92540E-02 1.20000E-02
 -1      1966-5.46630E-02 2.46040E-02 1.20000E-02
 -1      1967-5.45630E-02 2.22680E-02 1.20000E-02
 -1      1968 3.95590E-02-3.54210E-02 1.20000E-02
 -1      1969 4.14940E-02-3.56000E-02 1.20000E-02
 -1      1970 5.32880E-02-2.65080E-02 1.20000E-02
 -1      1971 4.14700E-02 3.55980E-02 1.20000E-02
 -1      1972-3.26910E-02 3.48520E-02 1.20000E-02
 -1      1973-3.50920E-02 3.46390E-02 1.20000E-02
 -1      1974-3.03990E-02-3.51410E-02 1.20000E-02
 -1      1975-2.78840E-02-3.52520E-02 1.20000E-02
 -1      1976 5.08220E-02-3.09130E-02 1.20000E-02
 -1      1977-3.02110E-02 3.50860E-02 1.20000E-02
 -1      1978-2.77040E-02 3.52520E-02 1.20000E-02
 -1      1979 1.77640E-02-3.52790E-02 1.20000E-02
 -1      1980 5.42560E-02-2.33020E-02 1.20000E-02
 -1      1981 5.43560E-02-1.75390E-02 1.20000E-02
 -1      1982 5.43560E-02-1.51810E-02 1.20000E-02
 -1      1983 5.43280E-02 1.51040E-02 1.20000E-02
 -1      1984 5.42620E-02 1.74750E-02 1.20000E-02
 -1      1985 3.95180E-02 3.53060E-02 1.20000E-02
 -1      1986-5.47070E-02-1.25670E-02 1.20000E-02
 -1      1987-3.52670E-02-3.48140E-02 1.20000E-02
 -1      1988 5.47490E-02 7.59300E-03 1.20000E-02
 -1      1989-5.10420E-02 3.58390E-02 1.20000E-02
 -1      1990-3.28660E-02-3.49750E-02 1.20000E-02
 -1      1991-5.46940E-02-1.50260E-02 1.20000E-02
 -1      1992-5.47030E-02-1.74510E-02 1.20000E-02
 -1      1993-2.76640E-02-1.13440E-02 1.20000E-02
 -1      1994-2.86430E-02-8.68500E-03 1.20000E-02
 -1      1995 4.52140E-02 3.48370E-02 1.20000E-02
 -1      1996 2.53500E-02-3.52180E-02 1.20000E-02
 -1      1997 5.44310E-02-1.97660E-02 1.20000E-02
 -1      1998 2.28350E-02-3.51920E-02 1.20000E-02
 -1      1999 2.27270E-02 3.52690E-02 1.20000E-02
 -1      2000 2.02500E-02 3.52980E-02 1.20000E-02
 -1      2001-1.64880E-02-2.42460E-02 1.20000E-02
 -1      2002 2.92790E-02-5.76300E-03 1.20000E-02
 -1      2003 2.85910E-02-8.55500E-03 1.20000E-02
 -1      2004 2.48680E-02 1.61860E-02 1.20000E-02
 -1      2005 2.30600E-02 1.83990E-02 1.20000E-02
 -1      2006-2.97470E-02-2.97200E-03 1.20000E-02
 -1      2007-2.98960E-02-1.00000E-05 1.20000E-02
 -1      2008 2.98340E-02 2.30000E-05 1.20000E-02
 -1      2009-5.47760E-02 1.00690E-02 1.20000E-02
 -1      2010-5.47570E-02 1.25660E-02 1.20000E-02
 -1      2011-4.22420E-02-3.48470E-02 1.20000E-02
 -1      2012-1.01650E-02-3.52060E-02 1.20000E-02
 -1      2013-1.39620E-02 2.59100E-02 1.20000E-02
 -1      2014-7.52200E-03 3.52730E-02 1.20000E-02
 -1      2015-2.38800E-03 3.55540E-02 1.20000E-02
 -1      2016 8.00000E-05 3.57710E-02 1.20000E-02
 -1      2017 1.87670E-02 2.24780E-02 1.20000E-02
 -1      2018 2.10090E-02 2.04950E-02 1.20000E-02
 -1      2019 1.63820E-02 2.42340E-02 1.20000E-02
 -1      2020-1.51260E-02 3.54220E-02 1.20000E-02
 -1      2021-1.76620E-02 3.53680E-02 1.20000E-02
 -1      2022 1.38580E-02 2.57810E-02 1.20000E-02
 -1      2023-5.48580E-02-2.50000E-03 1.20000E-02
 -1      2024-5.48510E-02 1.60000E-05 1.20000E-02
 -1      2025 2.86030E-02 8.62400E-03 1.20000E-02
 -1      2026-7.63800E-03-3.52530E-02 1.20000E-02
 -1      2027-2.90800E-03 2.90440E-02 1.20000E-02
 -1      2028-5.45920E-02 1.99120E-02 1.20000E-02
 -1      2029 5.29310E-02-2.82300E-02 1.20000E-02
 -1      2030-8.30000E-05-3.57690E-02 1.20000E-02
 -1      2031 2.64040E-02 1.38200E-02 1.20000E-02
 -1      2032 2.76530E-02 1.12950E-02 1.20000E-02
 -1      2033 2.30930E-02-1.83480E-02 1.20000E-02
 -1      2034 5.48530E-02-5.70000E-05 1.20000E-02
 -1      2035 5.43120E-02 2.50850E-02 1.20000E-02
 -1      2036 2.60400E-03 3.57370E-02 1.20000E-02
 -1      2037 3.73640E-02 3.51110E-02 1.20000E-02
 -1      2038-3.74260E-02 3.45670E-02 1.20000E-02
 -1      2039-2.93290E-02-5.88300E-03 1.20000E-02
 -1      2040-2.03320E-02-3.52690E-02 1.20000E-02
 -1      2041-4.94400E-03 3.54030E-02 1.20000E-02
 -1      2042 2.52450E-02 3.52890E-02 1.20000E-02
 -1      2043 2.77610E-02 3.52830E-02 1.20000E-02
 -1      2044 7.62000E-03 3.52590E-02 1.20000E-02
 -1      2045-5.47330E-02 1.50440E-02 1.20000E-02
 -1      2046-5.46740E-02 1.74960E-02 1.20000E-02
 -1      2047-2.93650E-02 5.90300E-03 1.20000E-02
 -1      2048 8.57600E-03-2.82010E-02 1.20000E-02
 -1      2049-5.47430E-02-1.00750E-02 1.20000E-02
 -1      2050-5.48420E-02-5.02600E-03 1.20000E-02
 -1      2051-2.53480E-02-3.52710E-02 1.20000E-02
 -1      2052-4.44730E-02 3.49590E-02 1.20000E-02
 -1      2053-5.33370E-02 3.34510E-02 1.20000E-02
 -1      2054-5.46220E-02-1.98700E-02 1.20000E-02
 -1      2055 2.97010E-02-2.88200E-03 1.20000E-02
 -1      2056-5.49090E-02 2.69300E-02 1.20000E-02
 -1      2057-8.56200E-03 2.82050E-02 1.20000E-02
 -1      2058-1.13180E-02 2.73150E-02 1.20000E-02
 -1      2059 1.51960E-02 3.54670E-02 1.20000E-02
 -1      2060-1.00390E-02 3.52800E-02 1.20000E-02
 -1      2061-1.25670E-02 3.53810E-02 1.20000E-02
 -1      2062-5.73900E-03 2.87090E-02 1.20000E-02
 -1      2063 1.39980E-02-2.58930E-02 1.20000E-02
 -1      2064 1.65510E-02-2.42270E-02 1.20000E-02
 -1      2065-3.99220E-02-3.47430E-02 1.20000E-02
 -1      2066-2.28370E-02-3.52500E-02 1.20000E-02
 -1      2067-1.65130E-02 2.42730E-02 1.20000E-02
 -1      2068-5.52350E-02 2.91790E-02 1.20000E-02
 -1      2069-5.12980E-02-3.48950E-02 1.20000E-02
 -1      2070-5.21730E-02-3.29350E-02 1.20000E-02
 -1      2071-3.76080E-02-3.47290E-02 1.20000E-02
 -1      2072 1.77500E-02 3.54130E-02 1.20000E-02
 -1      2073 4.10000E-05-2.92530E-02 1.20000E-02
 -1      2074-2.65000E-02 1.39550E-02 1.20000E-02
 -1      2075-2.77580E-02 1.14260E-02 1.20000E-02
 -1      2076 4.82290E-02-3.30850E-02 1.20000E-02
 -1      2077 7.53300E-03-3.52670E-02 1.20000E-02
 -1      2078 5.44160E-02-1.27460E-02 1.20000E-02
 -1      2079 5.07700E-03 3.54540E-02 1.20000E-02
 -1      2080-4.21170E-02 3.47900E-02 1.20000E-02
 -1      2081 1.26430E-02 3.53470E-02 1.20000E-02
 -1      2082-2.79900E-03-2.91600E-02 1.20000E-02
 -1      2083-5.68700E-03-2.87530E-02 1.20000E-02
 -1      2084 5.47600E-02-5.14600E-03 1.20000E-02
 -1      2085-2.48640E-02-1.62050E-02 1.20000E-02
 -1      2086 5.43130E-02 1.97170E-02 1.20000E-02
 -1      2087-4.91920E-02-3.50400E-02 1.20000E-02
 -1      2088-2.87020E-02 8.74200E-03 1.20000E-02
 -1      2089-4.90720E-02 3.54170E-02 1.20000E-02
 -1      2090-5.48450E-02 2.52700E-03 1.20000E-02
 -1      2091-1.78310E-02-3.53860E-02 1.20000E-02
 -1      2092 1.00610E-02-3.52690E-02 1.20000E-02
 -1      2093-1.39350E-02-2.57790E-02 1.20000E-02
 -1      2094-1.52540E-02-3.54480E-02 1.20000E-02
 -1      2095-5.47550E-02-2.92000E-02 1.20000E-02
 -1      2096 4.66310E-02-3.35970E-02 1.20000E-02
 -1      2097-5.48260E-02 5.04400E-03 1.20000E-02
 -1      2098 4.94130E-02 3.18990E-02 1.20000E-02
 -1      2099-2.97680E-02 2.95800E-03 1.20000E-02
 -1      2100-5.50940E-02-3.11780E-02 1.20000E-02
 -1      2101 2.03100E-02-3.52030E-02 1.20000E-02
 -1      2102-5.45500E-02-2.45360E-02 1.20000E-02
 -1      2103-5.46710E-02-2.69120E-02 1.20000E-02
 -1      2104-2.30800E-02-1.84240E-02 1.20000E-02
 -1      2105-2.64090E-02-1.38420E-02 1.20000E-02
 -1      2106-3.97600E-02 3.46490E-02 1.20000E-02
 -1      2107 3.02790E-02 3.52080E-02 1.20000E-02
 -1      2108 4.83650E-02 3.33150E-02 1.20000E-02
 -1      2109-5.45200E-02-2.22160E-02 1.20000E-02
 -1      2110 5.48170E-02-2.59700E-03 1.20000E-02
 -1      2111-2.51880E-02 3.53300E-02 1.20000E-02
 -1      2112 5.15730E-02-2.93540E-02 1.20000E-02
 -1      2113-4.68050E-02 3.51620E-02 1.20000E-02
 -1      2114 2.79000E-03 2.91600E-02 1.20000E-02
 -1      2115 1.13460E-02-2.73070E-02 1.20000E-02
 -1      2116 4.51490E-02-3.46300E-02 1.20000E-02
 -1      2117-5.50630E-02 3.26020E-02 1.20000E-02
 -1      2118 5.41790E-02 2.32750E-02 1.20000E-02
 -1      2119-1.88700E-02-2.24970E-02 1.20000E-02
 -1      2120 5.29730E-02 2.82890E-02 1.20000E-02
 -1      2121-5.25220E-02 3.51670E-02 1.20000E-02
 -1      2122 4.92750E-02-3.17030E-02 1.20000E-02
 -1      2123 4.31750E-02-3.43400E-02 1.20000E-02
 -1      2124-2.49670E-02 1.63020E-02 1.20000E-02
 -1      2125 5.09250E-02 3.10510E-02 1.20000E-02
 -1      2126 4.32050E-02 3.44960E-02 1.20000E-02
 -1      2127 5.48280E-02 2.15830E-02 1.20000E-02
 -1      2128-4.59800E-03 3.09910E-02 1.20000E-02
 -1      2129-3.46600E-03 3.32550E-02 1.20000E-02
 -1      2130-6.17800E-03 3.30400E-02 1.20000E-02
 -1      2131-1.05750E-02 3.01550E-02 1.20000E-02
 -1      2132 1.90120E-02 2.50600E-02 1.20000E-02
 -1      2133 2.14960E-02 2.29480E-02 1.20000E-02
 -1      2134 2.94240E-02-3.28050E-02 1.20000E-02
 -1      2135 3.18650E-02-3.27310E-02 1.20000E-02
 -1      2136-5.22030E-02-6.30300E-03 1.20000E-02
 -1      2137-5.22220E-02-3.74800E-03 1.20000E-02
 -1      2138 5.22480E-02 3.71100E-03 1.20000E-02
 -1      2139 5.21920E-02 6.28100E-03 1.20000E-02
 -1      2140-2.16540E-02-2.29950E-02 1.20000E-02
 -1      2141-1.92100E-02-2.50670E-02 1.20000E-02
 -1      2142-1.41610E-02-3.32230E-02 1.20000E-02
 -1      2143 2.16600E-02 3.28350E-02 1.20000E-02
 -1      2144 2.78680E-02 1.61540E-02 1.20000E-02
 -1      2145 2.60330E-02 1.85260E-02 1.20000E-02
 -1      2146-5.20710E-02 1.38570E-02 1.20000E-02
 -1      2147-5.20380E-02 1.62910E-02 1.20000E-02
 -1      2148-5.21860E-02 6.33600E-03 1.20000E-02
 -1      2149-5.21310E-02 8.87000E-03 1.20000E-02
 -1      2150-2.78690E-02-1.61830E-02 1.20000E-02
 -1      2151-2.93930E-02-1.36480E-02 1.20000E-02
 -1      2152 2.41810E-02 3.28930E-02 1.20000E-02
 -1      2153 5.18040E-02 1.14380E-02 1.20000E-02
 -1      2154-1.67880E-02-3.32250E-02 1.20000E-02
 -1      2155 3.87610E-02-3.29020E-02 1.20000E-02
 -1      2156 4.09540E-02-3.32430E-02 1.20000E-02
 -1      2157 1.39900E-03 3.15140E-02 1.20000E-02
 -1      2158-1.69100E-03 3.12400E-02 1.20000E-02
 -1      2159 8.36000E-04-3.34470E-02 1.20000E-02
 -1      2160-1.40800E-03-3.15120E-02 1.20000E-02
 -1      2161-1.38100E-03-3.38930E-02 1.20000E-02
 -1      2162 3.46700E-03-3.32530E-02 1.20000E-02
 -1      2163-5.26670E-02 2.81080E-02 1.20000E-02
 -1      2164-1.65430E-02-2.67600E-02 1.20000E-02
 -1      2165-1.36180E-02-2.83110E-02 1.20000E-02
 -1      2166-5.21150E-02-8.85800E-03 1.20000E-02
 -1      2167 5.22250E-02 1.16800E-03 1.20000E-02
 -1      2168-5.19260E-02 1.86960E-02 1.20000E-02
 -1      2169-2.40470E-02 3.30370E-02 1.20000E-02
 -1      2170-2.65630E-02 3.29790E-02 1.20000E-02
 -1      2171-2.80000E-02 1.63270E-02 1.20000E-02
 -1      2172-2.61630E-02 1.87060E-02 1.20000E-02
 -1      2173 1.15780E-02 3.28220E-02 1.20000E-02
 -1      2174 8.99000E-03 3.27580E-02 1.20000E-02
 -1      2175-5.22040E-02 3.79800E-03 1.20000E-02
 -1      2176-5.21920E-02 1.27900E-03 1.20000E-02
 -1      2177 6.25500E-03 3.30520E-02 1.20000E-02
 -1      2178 3.60800E-03 3.33580E-02 1.20000E-02
 -1      2179-5.22060E-02-1.22400E-03 1.20000E-02
 -1      2180 1.93170E-02-2.49900E-02 1.20000E-02
 -1      2181-3.65320E-02-3.19810E-02 1.20000E-02
 -1      2182 3.13920E-02 7.85500E-03 1.20000E-02
 -1      2183 3.05430E-02 1.07990E-02 1.20000E-02
 -1      2184 3.05310E-02-1.06810E-02 1.20000E-02
 -1      2185 2.93660E-02-1.34150E-02 1.20000E-02
 -1      2186-5.20640E-02-2.55660E-02 1.20000E-02
 -1      2187-5.16570E-02-2.31820E-02 1.20000E-02
 -1      2188-2.95080E-02 1.37490E-02 1.20000E-02
 -1      2189 3.42400E-02-3.27190E-02 1.20000E-02
 -1      2190-4.79340E-02 3.29710E-02 1.20000E-02
 -1      2191-4.55390E-02 3.25870E-02 1.20000E-02
 -1      2192 2.43720E-02-3.28010E-02 1.20000E-02
 -1      2193 2.69220E-02-3.28520E-02 1.20000E-02
 -1      2194 5.13070E-02 1.89060E-02 1.20000E-02
 -1      2195 5.13570E-02 1.64460E-02 1.20000E-02
 -1      2196-8.39000E-04 3.34490E-02 1.20000E-02
 -1      2197-5.17920E-02 2.10360E-02 1.20000E-02
 -1      2198-5.18320E-02 2.33420E-02 1.20000E-02
 -1      2199-3.05780E-02-1.09230E-02 1.20000E-02
 -1      2200-6.27300E-03-3.30490E-02 1.20000E-02
 -1      2201-3.61700E-03-3.33560E-02 1.20000E-02
 -1      2202-4.53100E-03-3.10660E-02 1.20000E-02
 -1      2203-3.06990E-02 1.09580E-02 1.20000E-02
 -1      2204 1.92730E-02-3.28150E-02 1.20000E-02
 -1      2205 2.18380E-02-3.27230E-02 1.20000E-02
 -1      2206-3.23600E-02-1.65700E-03 1.20000E-02
 -1      2207 5.21560E-02-3.90800E-03 1.20000E-02
 -1      2208 5.20600E-02-6.49400E-03 1.20000E-02
 -1      2209 5.21930E-02-1.35600E-03 1.20000E-02
 -1      2210 2.38680E-02 2.07740E-02 1.20000E-02
 -1      2211 2.67170E-02 3.29530E-02 1.20000E-02
 -1      2212-2.60410E-02-1.85650E-02 1.20000E-02
 -1      2213 5.18900E-02-9.08400E-03 1.20000E-02
 -1      2214-3.15270E-02 7.96900E-03 1.20000E-02
 -1      2215 7.50200E-03 3.06480E-02 1.20000E-02
 -1      2216 1.06420E-02 3.00920E-02 1.20000E-02
 -1      2217-3.85500E-02 3.18140E-02 1.20000E-02
 -1      2218-3.62880E-02 3.17290E-02 1.20000E-02
 -1      2219-1.92200E-02 2.51120E-02 1.20000E-02
 -1      2220-2.16820E-02 2.30820E-02 1.20000E-02
 -1      2221 7.52600E-03-3.06400E-02 1.20000E-02
 -1      2222 1.14310E-02-3.29560E-02 1.20000E-02
 -1      2223 1.06110E-02-3.01430E-02 1.20000E-02
 -1      2224 8.91600E-03-3.27920E-02 1.20000E-02
 -1      2225 4.51300E-03 3.10690E-02 1.20000E-02
 -1      2226-3.20960E-02 4.79200E-03 1.20000E-02
 -1      2227 1.66810E-02-2.66950E-02 1.20000E-02
 -1      2228 3.65360E-02-3.27680E-02 1.20000E-02
 -1      2229-1.06920E-02-3.00860E-02 1.20000E-02
 -1      2230-7.53700E-03-3.06410E-02 1.20000E-02
 -1      2231 4.60300E-03-3.09880E-02 1.20000E-02
 -1      2232 6.18600E-03-3.30360E-02 1.20000E-02
 -1      2233-1.65760E-02 2.67620E-02 1.20000E-02
 -1      2234-1.37590E-02 2.86310E-02 1.20000E-02
 -1      2235-2.40240E-02 2.09590E-02 1.20000E-02
 -1      2236-5.20270E-02-1.13800E-02 1.20000E-02
 -1      2237-1.39660E-02 3.32100E-02 1.20000E-02
 -1      2238 5.20360E-02 8.86700E-03 1.20000E-02
 -1      2239 3.64880E-02 3.24550E-02 1.20000E-02
 -1      2240 3.87270E-02 3.26980E-02 1.20000E-02
 -1      2241-1.92960E-02-3.29170E-02 1.20000E-02
 -1      2242-3.42170E-02-3.23090E-02 1.20000E-02
 -1      2243-2.90370E-02 3.28200E-02 1.20000E-02
 -1      2244-7.50900E-03 3.06450E-02 1.20000E-02
 -1      2245-8.89400E-03 3.28020E-02 1.20000E-02
 -1      2246 3.19730E-02 4.77100E-03 1.20000E-02
 -1      2247 1.68900E-03-3.12380E-02 1.20000E-02
 -1      2248-4.56490E-02-3.26400E-02 1.20000E-02
 -1      2249-4.33520E-02-3.23000E-02 1.20000E-02
 -1      2250 1.38230E-02-2.86050E-02 1.20000E-02
 -1      2251-3.18190E-02-3.26490E-02 1.20000E-02
 -1      2252 1.37400E-03 3.38960E-02 1.20000E-02
 -1      2253-4.99030E-02-3.21100E-02 1.20000E-02
 -1      2254 2.60640E-02-1.84000E-02 1.20000E-02
 -1      2255 2.78750E-02-1.59720E-02 1.20000E-02
 -1      2256-1.16240E-02-3.28110E-02 1.20000E-02
 -1      2257 5.16860E-02-1.16480E-02 1.20000E-02
 -1      2258 5.15390E-02-1.41450E-02 1.20000E-02
 -1      2259 2.40120E-02-2.06890E-02 1.20000E-02
 -1      2260 4.09530E-02 3.32480E-02 1.20000E-02
 -1      2261-4.10510E-02-3.20070E-02 1.20000E-02
 -1      2262-3.87850E-02-3.18740E-02 1.20000E-02
 -1      2263-4.78080E-02-3.30690E-02 1.20000E-02
 -1      2264 5.16020E-02-1.89820E-02 1.20000E-02
 -1      2265 5.15240E-02-1.65670E-02 1.20000E-02
 -1      2266 5.15560E-02 1.39640E-02 1.20000E-02
 -1      2267 2.93640E-02 1.35840E-02 1.20000E-02
 -1      2268 2.17480E-02-2.28830E-02 1.20000E-02
 -1      2269-5.19730E-02-1.38650E-02 1.20000E-02
 -1      2270-2.39590E-02-2.08160E-02 1.20000E-02
 -1      2271-3.39810E-02 3.20520E-02 1.20000E-02
 -1      2272 1.40500E-02-3.31660E-02 1.20000E-02
 -1      2273-5.20460E-02-1.86070E-02 1.20000E-02
 -1      2274-5.17850E-02-2.09590E-02 1.20000E-02
 -1      2275-4.08610E-02 3.20960E-02 1.20000E-02
 -1      2276-4.32090E-02 3.23380E-02 1.20000E-02
 -1      2277-5.21620E-02-2.80740E-02 1.20000E-02
 -1      2278-1.65210E-02 3.30890E-02 1.20000E-02
 -1      2279-1.90580E-02 3.29740E-02 1.20000E-02
 -1      2280-3.23970E-02 1.55700E-03 1.20000E-02
 -1      2281-5.20950E-02 1.13740E-02 1.20000E-02
 -1      2282-2.68490E-02-3.29530E-02 1.20000E-02
 -1      2283-2.93430E-02-3.28930E-02 1.20000E-02
 -1      2284 3.22950E-02 1.61700E-03 1.20000E-02
 -1      2285 3.23160E-02-1.51200E-03 1.20000E-02
 -1      2286 3.41810E-02 3.24930E-02 1.20000E-02
 -1      2287 1.66660E-02-3.29980E-02 1.20000E-02
 -1      2288-5.21570E-02 2.56930E-02 1.20000E-02
 -1      2289 1.35270E-02 2.83220E-02 1.20000E-02
 -1      2290-9.02600E-03-3.27480E-02 1.20000E-02
 -1      2291-2.43240E-02-3.28870E-02 1.20000E-02
 -1      2292 3.17670E-02 3.27050E-02 1.20000E-02
 -1      2293-1.13940E-02 3.29740E-02 1.20000E-02
 -1      2294-3.20290E-02-4.87000E-03 1.20000E-02
 -1      2295-3.14490E-02-7.98000E-03 1.20000E-02
 -1      2296-2.18230E-02-3.28040E-02 1.20000E-02
 -1      2297 3.13820E-02-7.73200E-03 1.20000E-02
 -1      2298 3.20030E-02-4.63000E-03 1.20000E-02
 -1      2299-2.15320E-02 3.29770E-02 1.20000E-02
 -1      2300 1.66800E-02 3.32500E-02 1.20000E-02
 -1      2301-3.15390E-02 3.25190E-02 1.20000E-02
 -1      2302 1.64180E-02 2.67550E-02 1.20000E-02
 -1      2303 1.41010E-02 3.32360E-02 1.20000E-02
 -1      2304 1.91670E-02 3.29550E-02 1.20000E-02
 -1      2305 2.92670E-02 3.29000E-02 1.20000E-02
 -1      2306-5.19780E-02-1.62760E-02 1.20000E-02
 -1      2307-4.95460E-02-1.96800E-02 1.20000E-02
 -1      2308-4.84600E-02-2.17860E-02 1.20000E-02
 -1      2309-5.33180E-02 3.06600E-02 1.20000E-02
 -1      2310-4.73140E-02-3.06960E-02 1.20000E-02
 -1      2311 4.94960E-02-5.23600E-03 1.20000E-02
 -1      2312 2.32160E-02 3.04210E-02 1.20000E-02
 -1      2313 2.70920E-02-2.07400E-02 1.20000E-02
 -1      2314 3.09910E-02-3.03430E-02 1.20000E-02
 -1      2315-2.93370E-02 1.88170E-02 1.20000E-02
 -1      2316-2.71710E-02 2.11600E-02 1.20000E-02
 -1      2317 2.08700E-02-3.02210E-02 1.20000E-02
 -1      2318 2.35550E-02-3.02860E-02 1.20000E-02
 -1      2319 3.41620E-02 6.88400E-03 1.20000E-02
 -1      2320 3.46560E-02 3.50200E-03 1.20000E-02
 -1      2321 4.96360E-02 4.90800E-03 1.20000E-02
 -1      2322-2.78960E-02 3.05650E-02 1.20000E-02
 -1      2323-1.29330E-02 3.10830E-02 1.20000E-02
 -1      2324 4.87970E-02-1.79390E-02 1.20000E-02
 -1      2325 4.89640E-02-2.03020E-02 1.20000E-02
 -1      2326-3.26060E-02 1.33550E-02 1.20000E-02
 -1      2327-3.36480E-02 1.02610E-02 1.20000E-02
 -1      2328 4.85880E-02 1.52650E-02 1.20000E-02
 -1      2329-4.20560E-02 2.97540E-02 1.20000E-02
 -1      2330-4.88940E-02 2.20850E-02 1.20000E-02
 -1      2331-4.92690E-02 2.44610E-02 1.20000E-02
 -1      2332 1.56500E-02 3.13990E-02 1.20000E-02
 -1      2333 1.80380E-02 3.06950E-02 1.20000E-02
 -1      2334-4.92410E-02-1.75690E-02 1.20000E-02
 -1      2335-4.93760E-02-1.01850E-02 1.20000E-02
 -1      2336-4.92690E-02-1.27220E-02 1.20000E-02
 -1      2337 1.96450E-02-2.77210E-02 1.20000E-02
 -1      2338 1.67640E-02-2.88290E-02 1.20000E-02
 -1      2339-2.83590E-02-3.06920E-02 1.20000E-02
 -1      2340 3.23710E-02 1.31890E-02 1.20000E-02
 -1      2341 4.82910E-02 1.77910E-02 1.20000E-02
 -1      2342 3.24210E-02-1.29590E-02 1.20000E-02
 -1      2343 3.10050E-02-1.57270E-02 1.20000E-02
 -1      2344-1.81760E-02-3.06740E-02 1.20000E-02
 -1      2345-4.47090E-02-3.00140E-02 1.20000E-02
 -1      2346-2.46230E-02 2.34640E-02 1.20000E-02
 -1      2347-1.52930E-02 3.09300E-02 1.20000E-02
 -1      2348-1.66140E-02 2.89160E-02 1.20000E-02
 -1      2349-5.05200E-02 3.35130E-02 1.20000E-02
 -1      2350 4.92790E-02 1.00930E-02 1.20000E-02
 -1      2351 4.89470E-02 1.26750E-02 1.20000E-02
 -1      2352-3.35090E-02-1.03360E-02 1.20000E-02
 -1      2353 4.94620E-02-1.37000E-04 1.20000E-02
 -1      2354 4.95560E-02 2.35700E-03 1.20000E-02
 -1      2355 3.49690E-02 1.06000E-04 1.20000E-02
 -1      2356 3.47940E-02-3.20000E-03 1.20000E-02
 -1      2357-4.94340E-02 4.80000E-05 1.20000E-02
 -1      2358-4.95110E-02-2.44700E-03 1.20000E-02
 -1      2359 3.34530E-02 1.01160E-02 1.20000E-02
 -1      2360 4.87920E-02-1.30930E-02 1.20000E-02
 -1      2361 2.17880E-02 2.54870E-02 1.20000E-02
 -1      2362 2.44040E-02 2.31850E-02 1.20000E-02
 -1      2363-4.93960E-02 1.27260E-02 1.20000E-02
 -1      2364-4.94230E-02 1.02190E-02 1.20000E-02
 -1      2365 2.57630E-02 3.05870E-02 1.20000E-02
 -1      2366 3.08260E-02 3.04730E-02 1.20000E-02
 -1      2367 1.54080E-02-3.08660E-02 1.20000E-02
 -1      2368 1.81920E-02-3.05450E-02 1.20000E-02
 -1      2369-4.22710E-02-2.93990E-02 1.20000E-02
 -1      2370 1.61290E-02 2.91510E-02 1.20000E-02
 -1      2371-4.99550E-02 2.69250E-02 1.20000E-02
 -1      2372-5.22810E-02-3.05940E-02 1.20000E-02
 -1      2373 4.90620E-02-1.04800E-02 1.20000E-02
 -1      2374 2.05780E-02 3.03550E-02 1.20000E-02
 -1      2375-3.24500E-02-1.33610E-02 1.20000E-02
 -1      2376-2.29760E-02 3.07190E-02 1.20000E-02
 -1      2377 1.92100E-02 2.78690E-02 1.20000E-02
 -1      2378 2.85680E-02-3.05180E-02 1.20000E-02
 -1      2379-3.28080E-02 2.98270E-02 1.20000E-02
 -1      2380-4.94360E-02-2.91090E-02 1.20000E-02
 -1      2381 2.91990E-02-1.83020E-02 1.20000E-02
 -1      2382-3.06880E-02-3.05340E-02 1.20000E-02
 -1      2383-3.30960E-02-3.00850E-02 1.20000E-02
 -1      2384 2.22430E-02-2.53680E-02 1.20000E-02
 -1      2385 4.93370E-02-7.85900E-03 1.20000E-02
 -1      2386 3.57720E-02-3.01860E-02 1.20000E-02
 -1      2387 3.34040E-02-3.02750E-02 1.20000E-02
 -1      2388-2.59160E-02-3.06380E-02 1.20000E-02
 -1      2389 4.02830E-02 3.05640E-02 1.20000E-02
 -1      2390-3.10120E-02-1.61010E-02 1.20000E-02
 -1      2391-4.95440E-02-7.60600E-03 1.20000E-02
 -1      2392-4.95970E-02-5.00600E-03 1.20000E-02
 -1      2393 3.80350E-02 2.98820E-02 1.20000E-02
 -1      2394-2.91860E-02-1.86020E-02 1.20000E-02
 -1      2395-1.35140E-02-3.07490E-02 1.20000E-02
 -1      2396-4.91890E-02-1.52220E-02 1.20000E-02
 -1      2397-2.70330E-02-2.09730E-02 1.20000E-02
 -1      2398-4.92700E-02-2.43510E-02 1.20000E-02
 -1      2399-3.48800E-02 3.32200E-03 1.20000E-02
 -1      2400-3.50420E-02-1.33000E-04 1.20000E-02
 -1      2401-3.42190E-02-7.07200E-03 1.20000E-02
 -1      2402-4.67180E-02 3.03870E-02 1.20000E-02
 -1      2403-4.43600E-02 2.99530E-02 1.20000E-02
 -1      2404-3.99250E-02-2.89240E-02 1.20000E-02
 -1      2405-3.03180E-02 3.04250E-02 1.20000E-02
 -1      2406-4.95060E-02 2.54900E-03 1.20000E-02
 -1      2407 4.95400E-02 7.50000E-03 1.20000E-02
 -1      2408 4.94950E-02-2.65300E-03 1.20000E-02
 -1      2409 5.16360E-02 2.14830E-02 1.20000E-02
 -1      2410-4.93390E-02 1.51880E-02 1.20000E-02
 -1      2411-5.00730E-02-2.67100E-02 1.20000E-02
 -1      2412 4.02260E-02-3.05440E-02 1.20000E-02
 -1      2413 3.80150E-02-3.02020E-02 1.20000E-02
 -1      2414 3.41520E-02-6.65300E-03 1.20000E-02
 -1      2415 3.34480E-02-9.90500E-03 1.20000E-02
 -1      2416 2.82890E-02 3.06770E-02 1.20000E-02
 -1      2417-3.76260E-02-2.89010E-02 1.20000E-02
 -1      2418-3.53440E-02-2.93550E-02 1.20000E-02
 -1      2419-1.57470E-02-3.13850E-02 1.20000E-02
 -1      2420-1.62540E-02-2.91430E-02 1.20000E-02
 -1      2421-3.47160E-02-3.62800E-03 1.20000E-02
 -1      2422-5.14560E-02 3.16420E-02 1.20000E-02
 -1      2423-3.74780E-02 2.87090E-02 1.20000E-02
 -1      2424-3.51800E-02 2.89010E-02 1.20000E-02
 -1      2425-1.94320E-02-2.78510E-02 1.20000E-02
 -1      2426-2.21110E-02-2.54980E-02 1.20000E-02
 -1      2427 1.34370E-02 3.07610E-02 1.20000E-02
 -1      2428 3.57190E-02 2.97310E-02 1.20000E-02
 -1      2429 3.33150E-02 3.00480E-02 1.20000E-02
 -1      2430-2.34520E-02-3.03860E-02 1.20000E-02
 -1      2431-3.11420E-02 1.61440E-02 1.20000E-02
 -1      2432-2.08000E-02-3.03170E-02 1.20000E-02
 -1      2433-2.46550E-02-2.32440E-02 1.20000E-02
 -1      2434 4.86320E-02-1.56010E-02 1.20000E-02
 -1      2435-4.95250E-02 7.67300E-03 1.20000E-02
 -1      2436-2.05140E-02 3.04610E-02 1.20000E-02
 -1      2437-1.79890E-02 3.06750E-02 1.20000E-02
 -1      2438-4.90750E-02 1.98380E-02 1.20000E-02
 -1      2439-1.94110E-02 2.78730E-02 1.20000E-02
 -1      2440-2.20840E-02 2.56340E-02 1.20000E-02
 -1      2441 1.30010E-02-3.10550E-02 1.20000E-02
 -1      2442-4.93210E-02 1.75170E-02 1.20000E-02
 -1      2443 2.91700E-02 1.86140E-02 1.20000E-02
 -1      2444 2.60490E-02-3.05100E-02 1.20000E-02
 -1      2445-4.95760E-02 5.10800E-03 1.20000E-02
 -1      2446 5.18860E-02-2.15310E-02 1.20000E-02
 -1      2447-2.54800E-02 3.07670E-02 1.20000E-02
 -1      2448-3.97410E-02 2.93180E-02 1.20000E-02
 -1      2449 3.09590E-02 1.60490E-02 1.20000E-02
 -1      2450 4.83340E-02 2.02450E-02 1.20000E-02
 -1      2451-3.43110E-02 6.88500E-03 1.20000E-02
 -1      2452 2.47530E-02-2.30730E-02 1.20000E-02
 -1      2453-4.91570E-02 3.10340E-02 1.20000E-02
 -1      2454 2.69490E-02 2.09320E-02 1.20000E-02
 -1      2455-4.64060E-02-2.36860E-02 1.20000E-02
 -1      2456-4.77810E-02-2.63190E-02 1.20000E-02
 -1      2457-4.53970E-02-2.57680E-02 1.20000E-02
 -1      2458 3.95010E-02-2.75590E-02 1.20000E-02
 -1      2459-4.41090E-02 1.56840E-02 1.20000E-02
 -1      2460-4.67070E-02 1.41580E-02 1.20000E-02
 -1      2461-4.39910E-02 1.32890E-02 1.20000E-02
 -1      2462 4.11480E-02-2.50600E-02 1.20000E-02
 -1      2463 4.17690E-02-2.83250E-02 1.20000E-02
 -1      2464 4.34740E-02-2.64600E-02 1.20000E-02
 -1      2465-4.65850E-02-1.15610E-02 1.20000E-02
 -1      2466-4.68190E-02-8.90200E-03 1.20000E-02
 -1      2467 2.53430E-02-2.54800E-02 1.20000E-02
 -1      2468 2.28020E-02-2.77930E-02 1.20000E-02
 -1      2469 5.16060E-02-2.42470E-02 1.20000E-02
 -1      2470 3.93120E-02-4.37200E-03 1.20000E-02
 -1      2471 4.11310E-02-2.10300E-03 1.20000E-02
 -1      2472 3.78720E-02-1.48800E-03 1.20000E-02
 -1      2473-3.06360E-02 2.14540E-02 1.20000E-02
 -1      2474 3.02870E-02-2.06840E-02 1.20000E-02
 -1      2475 2.78670E-02-2.31640E-02 1.20000E-02
 -1      2476 3.09530E-02-2.31470E-02 1.20000E-02
 -1      2477 3.72270E-02-2.74020E-02 1.20000E-02
 -1      2478 3.49030E-02-2.77570E-02 1.20000E-02
 -1      2479 4.89940E-02-2.25330E-02 1.20000E-02
 -1      2480 4.90680E-02-2.47180E-02 1.20000E-02
 -1      2481 3.24670E-02-2.79620E-02 1.20000E-02
 -1      2482 3.00230E-02-2.79670E-02 1.20000E-02
 -1      2483 4.89190E-02 2.48690E-02 1.20000E-02
 -1      2484 5.05350E-02 2.69580E-02 1.20000E-02
 -1      2485 4.75990E-02 2.66380E-02 1.20000E-02
 -1      2486 4.25900E-02 3.16350E-02 1.20000E-02
 -1      2487 4.66350E-02 1.06700E-03 1.20000E-02
 -1      2488 3.97900E-02 2.75400E-02 1.20000E-02
 -1      2489 3.38410E-02-2.57990E-02 1.20000E-02
 -1      2490-2.52330E-02-2.56490E-02 1.20000E-02
 -1      2491-2.78010E-02-2.34290E-02 1.20000E-02
 -1      2492-2.83470E-02-2.60110E-02 1.20000E-02
 -1      2493 4.46380E-02-5.37900E-03 1.20000E-02
 -1      2494 4.39700E-02-3.04200E-03 1.20000E-02
 -1      2495 4.17970E-02-5.60100E-03 1.20000E-02
 -1      2496 4.06240E-02 1.30500E-03 1.20000E-02
 -1      2497 4.36660E-02-2.54000E-04 1.20000E-02
 -1      2498 4.24690E-02-3.13080E-02 1.20000E-02
 -1      2499-4.63630E-02-1.67580E-02 1.20000E-02
 -1      2500-4.66720E-02-1.92380E-02 1.20000E-02
 -1      2501 5.14900E-02 2.42600E-02 1.20000E-02
 -1      2502 4.62050E-02 2.84940E-02 1.20000E-02
 -1      2503 4.47970E-02 2.59760E-02 1.20000E-02
 -1      2504 4.56900E-02-1.72270E-02 1.20000E-02
 -1      2505 4.58340E-02-1.46490E-02 1.20000E-02
 -1      2506-4.70010E-02 6.49600E-03 1.20000E-02
 -1      2507-4.69420E-02 3.89900E-03 1.20000E-02
 -1      2508-2.51550E-02 2.60920E-02 1.20000E-02
 -1      2509 4.68340E-02 8.61200E-03 1.20000E-02
 -1      2510 4.65150E-02 1.12000E-02 1.20000E-02
 -1      2511 4.41550E-02 9.59200E-03 1.20000E-02
 -1      2512 3.55050E-02-1.23040E-02 1.20000E-02
 -1      2513 3.63100E-02-8.91100E-03 1.20000E-02
 -1      2514-4.49400E-02-2.12420E-02 1.20000E-02
 -1      2515-4.31490E-02-1.82640E-02 1.20000E-02
 -1      2516 4.48170E-02 3.25240E-02 1.20000E-02
 -1      2517 4.69360E-02 3.11120E-02 1.20000E-02
 -1      2518 3.63800E-02 9.23500E-03 1.20000E-02
 -1      2519 3.92860E-02 7.88200E-03 1.20000E-02
 -1      2520 3.85040E-02 1.18840E-02 1.20000E-02
 -1      2521-2.26600E-02-2.79110E-02 1.20000E-02
 -1      2522-5.07510E-02 2.93780E-02 1.20000E-02
 -1      2523-4.71570E-02 2.58430E-02 1.20000E-02
 -1      2524-4.61620E-02 2.31880E-02 1.20000E-02
 -1      2525 4.86580E-02 2.26080E-02 1.20000E-02
 -1      2526-4.66480E-02 1.86410E-02 1.20000E-02
 -1      2527 3.24790E-02-1.81660E-02 1.20000E-02
 -1      2528 3.42170E-02-1.54280E-02 1.20000E-02
 -1      2529 4.69080E-02-3.97700E-03 1.20000E-02
 -1      2530 4.66340E-02-1.46500E-03 1.20000E-02
 -1      2531 4.46650E-02-3.21460E-02 1.20000E-02
 -1      2532-4.18860E-02 5.70800E-03 1.20000E-02
 -1      2533-4.11620E-02 2.09100E-03 1.20000E-02
 -1      2534-3.94020E-02 4.50400E-03 1.20000E-02
 -1      2535-3.09290E-02-2.36350E-02 1.20000E-02
 -1      2536-3.14220E-02-2.60600E-02 1.20000E-02
 -1      2537 4.20250E-02 2.89420E-02 1.20000E-02
 -1      2538 4.44290E-02 3.01170E-02 1.20000E-02
 -1      2539 2.23330E-02 2.79370E-02 1.20000E-02
 -1      2540-4.66160E-02 1.37600E-03 1.20000E-02
 -1      2541-4.58250E-02 2.06970E-02 1.20000E-02
 -1      2542-4.26320E-02 2.17300E-02 1.20000E-02
 -1      2543-4.31850E-02 2.72830E-02 1.20000E-02
 -1      2544-4.42860E-02 2.48650E-02 1.20000E-02
 -1      2545-4.15690E-02 2.47290E-02 1.20000E-02
 -1      2546 4.41500E-02-2.94230E-02 1.20000E-02
 -1      2547 2.50640E-02 2.80930E-02 1.20000E-02
 -1      2548-3.24720E-02-1.86910E-02 1.20000E-02
 -1      2549-3.42510E-02-1.60100E-02 1.20000E-02
 -1      2550-3.58750E-02-1.89480E-02 1.20000E-02
 -1      2551-4.65120E-02-1.41240E-02 1.20000E-02
 -1      2552-3.64270E-02-9.52100E-03 1.20000E-02
 -1      2553-3.55220E-02-1.29230E-02 1.20000E-02
 -1      2554-4.47020E-02-5.03500E-03 1.20000E-02
 -1      2555-4.18320E-02-5.29000E-03 1.20000E-02
 -1      2556-4.38020E-02-2.65900E-03 1.20000E-02
 -1      2557-4.15330E-02 9.24900E-03 1.20000E-02
 -1      2558-3.89460E-02 1.19070E-02 1.20000E-02
 -1      2559-4.17560E-02 1.21720E-02 1.20000E-02
 -1      2560-2.67760E-02 2.82870E-02 1.20000E-02
 -1      2561-2.45190E-02 2.87080E-02 1.20000E-02
 -1      2562-3.92820E-02-4.65700E-03 1.20000E-02
 -1      2563-4.06400E-02-1.46400E-03 1.20000E-02
 -1      2564 3.59050E-02-1.81800E-02 1.20000E-02
 -1      2565 4.62180E-02-1.19190E-02 1.20000E-02
 -1      2566 3.68330E-02-5.32800E-03 1.20000E-02
 -1      2567 3.70140E-02-2.13670E-02 1.20000E-02
 -1      2568 3.94980E-02-1.82210E-02 1.20000E-02
 -1      2569-2.75650E-02-2.86260E-02 1.20000E-02
 -1      2570-2.54700E-02-2.80740E-02 1.20000E-02
 -1      2571-3.18070E-02-2.83710E-02 1.20000E-02
 -1      2572 2.98760E-02 2.84680E-02 1.20000E-02
 -1      2573 2.74790E-02 2.84070E-02 1.20000E-02
 -1      2574 3.40570E-02 1.58110E-02 1.20000E-02
 -1      2575 4.27460E-02-1.64500E-02 1.20000E-02
 -1      2576 4.30650E-02-1.96420E-02 1.20000E-02
 -1      2577 3.68360E-02 5.71500E-03 1.20000E-02
 -1      2578 3.02370E-02 2.11860E-02 1.20000E-02
 -1      2579 3.33100E-02 2.48510E-02 1.20000E-02
 -1      2580 3.05380E-02 2.38450E-02 1.20000E-02
 -1      2581 3.38160E-02 2.17090E-02 1.20000E-02
 -1      2582-3.79260E-02 1.51200E-03 1.20000E-02
 -1      2583 4.59550E-02-2.14340E-02 1.20000E-02
 -1      2584 4.55160E-02 1.65120E-02 1.20000E-02
 -1      2585-3.90530E-02 2.61550E-02 1.20000E-02
 -1      2586 2.74590E-02 2.33600E-02 1.20000E-02
 -1      2587 2.73650E-02 2.58200E-02 1.20000E-02
 -1      2588 3.54030E-02 1.26190E-02 1.20000E-02
 -1      2589-4.70590E-02-6.30700E-03 1.20000E-02
 -1      2590-4.43720E-02-7.40200E-03 1.20000E-02
 -1      2591-3.69640E-02 5.53200E-03 1.20000E-02
 -1      2592-3.65310E-02 9.28900E-03 1.20000E-02
 -1      2593-2.92510E-02 2.81940E-02 1.20000E-02
 -1      2594-4.81850E-02 2.84900E-02 1.20000E-02
 -1      2595-4.65900E-02-1.18900E-03 1.20000E-02
 -1      2596-3.57740E-02 1.27840E-02 1.20000E-02
 -1      2597-3.44250E-02 1.58590E-02 1.20000E-02
 -1      2598-3.14860E-02 2.82050E-02 1.20000E-02
 -1      2599-3.11660E-02 2.59940E-02 1.20000E-02
 -1      2600 2.77600E-02-2.84380E-02 1.20000E-02
 -1      2601 4.38320E-02 2.45500E-03 1.20000E-02
 -1      2602-2.23340E-02 2.81250E-02 1.20000E-02
 -1      2603-4.64070E-02-2.82290E-02 1.20000E-02
 -1      2604-4.67090E-02 1.16540E-02 1.20000E-02
 -1      2605-4.68000E-02 9.05200E-03 1.20000E-02
 -1      2606-4.41490E-02 1.05000E-02 1.20000E-02
 -1      2607-4.37010E-02-2.71830E-02 1.20000E-02
 -1      2608 3.74020E-02 2.07800E-03 1.20000E-02
 -1      2609-3.25750E-02 1.86040E-02 1.20000E-02
 -1      2610-3.91720E-02 7.88400E-03 1.20000E-02
 -1      2611 4.63420E-02-1.93040E-02 1.20000E-02
 -1      2612 4.68790E-02-6.60900E-03 1.20000E-02
 -1      2613 4.65450E-02-9.20400E-03 1.20000E-02
 -1      2614-3.68940E-02-5.96600E-03 1.20000E-02
 -1      2615-2.76270E-02 2.36250E-02 1.20000E-02
 -1      2616-4.69100E-02-3.69300E-03 1.20000E-02
 -1      2617-3.38250E-02-2.71900E-02 1.20000E-02
 -1      2618-3.39560E-02-2.42740E-02 1.20000E-02
 -1      2619-3.61570E-02-2.60710E-02 1.20000E-02
 -1      2620-3.86490E-02-2.57030E-02 1.20000E-02
 -1      2621-3.60450E-02 1.85700E-02 1.20000E-02
 -1      2622-3.66000E-02 2.17520E-02 1.20000E-02
 -1      2623-3.96090E-02 1.91290E-02 1.20000E-02
 -1      2624-3.03260E-02 2.40080E-02 1.20000E-02
 -1      2625-3.85130E-02-1.22600E-02 1.20000E-02
 -1      2626 3.85930E-02-1.13640E-02 1.20000E-02
 -1      2627 3.89980E-02-7.57500E-03 1.20000E-02
 -1      2628-4.10810E-02 2.73590E-02 1.20000E-02
 -1      2629 2.56050E-02-2.79290E-02 1.20000E-02
 -1      2630 3.85910E-02-2.44200E-02 1.20000E-02
 -1      2631 4.33740E-02-1.34320E-02 1.20000E-02
 -1      2632 4.60580E-02 1.38550E-02 1.20000E-02
 -1      2633 4.50270E-02 1.91730E-02 1.20000E-02
 -1      2634 4.71060E-02 6.08800E-03 1.20000E-02
 -1      2635 4.69610E-02 3.52700E-03 1.20000E-02
 -1      2636 3.74080E-02-1.50530E-02 1.20000E-02
 -1      2637 2.84410E-02-2.57630E-02 1.20000E-02
 -1      2638-4.41930E-02 7.77700E-03 1.20000E-02
 -1      2639-4.47100E-02 5.36400E-03 1.20000E-02
 -1      2640 4.38330E-02-1.05090E-02 1.20000E-02
 -1      2641 3.71300E-02 1.54150E-02 1.20000E-02
 -1      2642-4.12660E-02-2.61680E-02 1.20000E-02
 -1      2643-4.56070E-02 2.77000E-02 1.20000E-02
 -1      2644-3.93510E-02-8.32400E-03 1.20000E-02
 -1      2645-3.77840E-02 1.56400E-02 1.20000E-02
 -1      2646-4.64960E-02 1.66060E-02 1.20000E-02
 -1      2647 4.04060E-02-2.17280E-02 1.20000E-02
 -1      2648 3.24280E-02 1.87410E-02 1.20000E-02
 -1      2649 4.67330E-02-3.07450E-02 1.20000E-02
 -1      2650-3.02490E-02-2.10960E-02 1.20000E-02
 -1      2651-3.35640E-02-2.14420E-02 1.20000E-02
 -1      2652 4.00610E-02 1.52690E-02 1.20000E-02
 -1      2653-4.36840E-02-1.30340E-02 1.20000E-02
 -1      2654-4.39490E-02-1.55590E-02 1.20000E-02
 -1      2655-4.08290E-02-1.52530E-02 1.20000E-02
 -1      2656 2.46950E-02 2.56130E-02 1.20000E-02
 -1      2657 4.62350E-02 2.40970E-02 1.20000E-02
 -1      2658 4.65820E-02-2.37770E-02 1.20000E-02
 -1      2659 3.60990E-02-2.47720E-02 1.20000E-02
 -1      2660 4.22780E-02 1.76460E-02 1.20000E-02
 -1      2661 4.31480E-02 1.48810E-02 1.20000E-02
 -1      2662-4.32380E-02-2.38740E-02 1.20000E-02
 -1      2663-3.74560E-02-2.21100E-03 1.20000E-02
 -1      2664-4.36510E-02 1.50000E-04 1.20000E-02
 -1      2665-3.63940E-02 2.53130E-02 1.20000E-02
 -1      2666-2.97040E-02-2.82370E-02 1.20000E-02
 -1      2667-3.69120E-02-2.23890E-02 1.20000E-02
 -1      2668 3.57000E-02 1.86350E-02 1.20000E-02
 -1      2669 3.73910E-02 2.68710E-02 1.20000E-02
 -1      2670 3.47900E-02 2.71320E-02 1.20000E-02
 -1      2671 4.30140E-02 2.36110E-02 1.20000E-02
 -1      2672 3.95790E-02 2.40790E-02 1.20000E-02
 -1      2673 4.15190E-02 2.08580E-02 1.20000E-02
 -1      2674 3.23390E-02 2.78650E-02 1.20000E-02
 -1      2675-4.32670E-02 1.84050E-02 1.20000E-02
 -1      2676-3.34680E-02 2.36680E-02 1.20000E-02
 -1      2677-3.38460E-02 2.08530E-02 1.20000E-02
 -1      2678 4.19640E-02 2.60950E-02 1.20000E-02
 -1      2679 4.37700E-02 1.21480E-02 1.20000E-02
 -1      2680-3.36590E-02 2.67490E-02 1.20000E-02
 -1      2681-2.82600E-02 2.59980E-02 1.20000E-02
 -1      2682-4.39850E-02 3.01200E-03 1.20000E-02
 -1      2683 4.20730E-02 7.85100E-03 1.20000E-02
 -1      2684 4.12980E-02 1.03460E-02 1.20000E-02
 -1      2685 4.34430E-02-2.30860E-02 1.20000E-02
 -1      2686 4.44200E-02 6.98100E-03 1.20000E-02
 -1      2687 4.12520E-02 1.29200E-02 1.20000E-02
 -1      2688-4.00820E-02-2.29000E-02 1.20000E-02
 -1      2689-3.93050E-02 2.28780E-02 1.20000E-02
 -1      2690 3.92440E-02 4.38000E-03 1.20000E-02
 -1      2691 3.39550E-02-2.33060E-02 1.20000E-02
 -1      2692 3.35990E-02-2.07170E-02 1.20000E-02
 -1      2693 4.40340E-02-7.76700E-03 1.20000E-02
 -1      2694 4.03330E-02-1.45750E-02 1.20000E-02
 -1      2695 4.47400E-02 4.75100E-03 1.20000E-02
 -1      2696 4.18240E-02 4.92800E-03 1.20000E-02
 -1      2697-3.75250E-02-1.58120E-02 1.20000E-02
 -1      2698-4.12470E-02-1.14410E-02 1.20000E-02
 -1      2699 3.14990E-02-2.55440E-02 1.20000E-02
 -1      2700 3.11690E-02 2.61870E-02 1.20000E-02
 -1      2701 2.92330E-02 2.64590E-02 1.20000E-02
 -1      2702 3.90350E-02 1.83120E-02 1.20000E-02
 -1      2703-4.41090E-02-1.02220E-02 1.20000E-02
 -1      2704 3.61840E-02 2.41320E-02 1.20000E-02
 -1      2705-4.10270E-02 1.54150E-02 1.20000E-02
 -1      2706 4.52820E-02 2.16710E-02 1.20000E-02
 -1      2707 5.05520E-02-2.68570E-02 1.20000E-02
 -1      2708 3.76750E-02 2.12890E-02 1.20000E-02
 -1      2709-4.20450E-02-8.49000E-03 1.20000E-02
 -1      2710 4.13140E-02-8.99500E-03 1.20000E-02
 -1      2711 4.13720E-02-1.17930E-02 1.20000E-02
 -1      2712-3.93910E-02-1.90720E-02 1.20000E-02
 -1      2713 4.77480E-02-2.63890E-02 1.20000E-02
 -1      2714 4.53440E-02-2.54590E-02 1.20000E-02
 -1      2715 4.38490E-02 2.78640E-02 1.20000E-02
 -1      2716 4.60280E-02-2.80010E-02 1.20000E-02
 -1      2717 4.88050E-02-2.89890E-02 1.20000E-02
 -1      2718 4.89070E-02 2.92020E-02 1.20000E-02
 -1      2719-4.20780E-02-2.09870E-02 1.20000E-02
 -1      2720 5.99000E-02-2.20000E-02 9.29600E-03
 -1      2721 5.99000E-02-2.20010E-02 2.70500E-03
 -1      2722 5.99020E-02-2.19730E-02 4.88400E-03
 -1      2723 5.48990E-02-3.33420E-02 2.00700E-03
 -1      2724 5.32970E-02-3.49390E-02 2.00900E-03
 -1      2725 5.99020E-02-2.19730E-02 7.11700E-03
 -1      2726 4.84550E-02-3.81250E-02 7.96900E-03
 -1      2727 4.62580E-02-3.89960E-02 7.97400E-03
 -1      2728 4.72250E-02-3.86500E-02 6.00000E-03
 -1      2729 4.19760E-02-3.99020E-02 9.30800E-03
 -1      2730 5.15200E-02-3.63490E-02 9.98600E-03
 -1      2731 4.95940E-02-3.75490E-02 9.97800E-03
 -1      2732 5.05080E-02-3.70170E-02 7.98200E-03
 -1      2733 5.75060E-02-2.96710E-02 9.99500E-03
 -1      2734 5.84790E-02-2.76510E-02 9.99400E-03
 -1      2735 5.63080E-02-3.15790E-02 9.99500E-03
 -1      2736 5.69380E-02-3.06360E-02 7.99600E-03
 -1      2737 4.46600E-02-3.94500E-02 6.00000E-03
 -1      2738 4.36140E-02-3.96710E-02 1.67600E-03
 -1      2739 5.92060E-02-2.55800E-02 1.99100E-03
 -1      2740 5.56230E-02-3.24860E-02 7.99600E-03
 -1      2741 5.41050E-02-3.41790E-02 7.99400E-03
 -1      2742 5.48850E-02-3.33580E-02 6.00100E-03
 -1      2743 4.22280E-02-3.98760E-02 4.94100E-03
 -1      2744 5.23950E-02-3.56960E-02 7.99000E-03
 -1      2745 5.14520E-02-3.63970E-02 6.00000E-03
 -1      2746 4.55240E-02-3.92220E-02 1.93700E-03
 -1      2747 4.19760E-02-3.99020E-02 2.69200E-03
 -1      2748 5.48990E-02-3.33430E-02 9.99400E-03
 -1      2749 5.96630E-02-2.36580E-02 1.02500E-02
 -1      2750 5.95590E-02-2.41760E-02 8.09400E-03
 -1      2751 4.40830E-02-3.95790E-02 8.30600E-03
 -1      2752 5.80360E-02-2.86440E-02 7.99500E-03
 -1      2753 5.75150E-02-2.96560E-02 6.00100E-03
 -1      2754 4.75620E-02-3.85150E-02 9.97700E-03
 -1      2755 4.55240E-02-3.92220E-02 1.00620E-02
 -1      2756 5.92060E-02-2.55800E-02 1.00100E-02
 -1      2757 5.95590E-02-2.41760E-02 3.90700E-03
 -1      2758 5.96740E-02-2.35980E-02 6.00100E-03
 -1      2759 5.96630E-02-2.36580E-02 1.75100E-03
 -1      2760 5.89100E-02-2.65140E-02 8.00400E-03
 -1      2761 5.84970E-02-2.76070E-02 6.00100E-03
 -1      2762 5.15210E-02-3.63490E-02 2.01400E-03
 -1      2763 5.23960E-02-3.56950E-02 4.01100E-03
 -1      2764 5.05080E-02-3.70170E-02 4.01800E-03
 -1      2765 5.32970E-02-3.49400E-02 9.99100E-03
 -1      2766 5.84790E-02-2.76510E-02 2.00700E-03
 -1      2767 4.22280E-02-3.98760E-02 7.05800E-03
 -1      2768 5.63060E-02-3.15810E-02 6.00100E-03
 -1      2769 5.41050E-02-3.41790E-02 4.00700E-03
 -1      2770 5.63080E-02-3.15780E-02 2.00600E-03
 -1      2771 4.40830E-02-3.95790E-02 3.69300E-03
 -1      2772 4.95940E-02-3.75490E-02 2.02200E-03
 -1      2773 5.32640E-02-3.49690E-02 6.00000E-03
 -1      2774 5.56230E-02-3.24860E-02 4.00600E-03
 -1      2775 4.75620E-02-3.85150E-02 2.02300E-03
 -1      2776 5.75060E-02-2.96710E-02 2.00700E-03
 -1      2777 5.69380E-02-3.06360E-02 4.00600E-03
 -1      2778 4.36140E-02-3.96710E-02 1.03240E-02
 -1      2779 4.94490E-02-3.76270E-02 6.00000E-03
 -1      2780 4.84550E-02-3.81250E-02 4.03100E-03
 -1      2781 4.62580E-02-3.89960E-02 4.02500E-03
 -1      2782 5.80360E-02-2.86440E-02 4.00700E-03
 -1      2783 5.92310E-02-2.54920E-02 6.00100E-03
 -1      2784 5.89100E-02-2.65140E-02 3.99800E-03
 -1      2785-6.00000E-02-1.25350E-02 6.91600E-03
 -1      2786-6.00000E-02-1.23440E-02 4.36800E-03
 -1      2787-6.00000E-02-9.92800E-03 5.07900E-03
 -1      2788-6.00000E-02-1.36780E-02 2.28700E-03
 -1      2789-6.00000E-02 2.12000E-02 9.52800E-03
 -1      2790-6.00000E-02 1.87490E-02 9.75600E-03
 -1      2791-6.00000E-02 1.37210E-02 2.29300E-03
 -1      2792-6.00000E-02 1.62340E-02 2.51600E-03
 -1      2793-6.00000E-02-1.86160E-02 2.37400E-03
 -1      2794-6.00000E-02-1.61630E-02 2.47600E-03
 -1      2795-6.00000E-02-1.73860E-02 5.07300E-03
 -1      2796-6.00000E-02 3.77100E-03 2.37900E-03
 -1      2797-6.00000E-02 6.20400E-03 2.37000E-03
 -1      2798-6.00000E-02 4.99800E-03 5.03700E-03
 -1      2799-6.00000E-02 1.13080E-02 9.60200E-03
 -1      2800-6.00000E-02 1.32900E-03 9.66400E-03
 -1      2801-6.00000E-02 1.16000E-04 7.64600E-03
 -1      2802-6.00000E-02 2.53200E-03 6.98200E-03
 -1      2803-6.00000E-02 2.26070E-02 4.38900E-03
 -1      2804-6.00000E-02 2.37720E-02 2.35800E-03
 -1      2805-6.00000E-02 2.50280E-02 5.08300E-03
 -1      2806-6.00000E-02 1.62330E-02 9.75500E-03
 -1      2807-6.00000E-02-8.69700E-03 2.47000E-03
 -1      2808-6.00000E-02-1.11280E-02 2.36000E-03
 -1      2809-6.00000E-02 8.76100E-03 2.36300E-03
 -1      2810-6.00000E-02-1.87820E-02 9.65700E-03
 -1      2811-6.00000E-02-2.11570E-02 9.63100E-03
 -1      2812-6.00000E-02-1.98860E-02 6.93000E-03
 -1      2813-6.00000E-02-1.46580E-02 4.77400E-03
 -1      2814-6.00000E-02-2.78160E-02 4.94700E-03
 -1      2815-6.00000E-02-2.51950E-02 4.22500E-03
 -1      2816-6.00000E-02-2.61660E-02 6.19900E-03
 -1      2817-6.00000E-02 2.49000E-03 4.46000E-03
 -1      2818-6.00000E-02-6.24500E-03 2.24300E-03
 -1      2819-6.00000E-02 1.87450E-02 2.52100E-03
 -1      2820-6.00000E-02 1.25200E-02 6.90600E-03
 -1      2821-6.00000E-02 1.00100E-02 7.54100E-03
 -1      2822-6.00000E-02-1.22400E-03 9.70800E-03
 -1      2823-6.00000E-02 2.81570E-02 2.50200E-03
 -1      2824-6.00000E-02 2.76430E-02 4.54400E-03
 -1      2825-6.00000E-02-1.13490E-02 9.63400E-03
 -1      2826-6.00000E-02-8.78000E-03 9.70000E-03
 -1      2827-6.00000E-02-6.25700E-03 9.48500E-03
 -1      2828-6.00000E-02 1.37670E-02 9.52200E-03
 -1      2829-6.00000E-02 2.35920E-02 9.63600E-03
 -1      2830-6.00000E-02-2.79930E-02 7.15800E-03
 -1      2831-6.00000E-02-2.23160E-02 4.86700E-03
 -1      2832-6.00000E-02-2.11660E-02 2.31800E-03
 -1      2833-6.00000E-02-1.98620E-02 4.40000E-03
 -1      2834-6.00000E-02-3.73200E-03 2.24500E-03
 -1      2835-6.00000E-02-1.26800E-03 2.47900E-03
 -1      2836-6.00000E-02-2.37230E-02 9.53600E-03
 -1      2837-6.00000E-02-2.58900E-02 8.23600E-03
 -1      2838-6.00000E-02-2.41390E-02 6.71400E-03
 -1      2839-6.00000E-02-1.62660E-02 9.71600E-03
 -1      2840-6.00000E-02-2.79290E-02 9.36700E-03
 -1      2841-6.00000E-02 2.75020E-02 6.75100E-03
 -1      2842-6.00000E-02 2.60730E-02 2.43200E-03
 -1      2843-6.00000E-02-2.00000E-05 5.09600E-03
 -1      2844-6.00000E-02-3.73900E-03 9.48600E-03
 -1      2845-6.00000E-02 1.52600E-02 7.24300E-03
 -1      2846-6.00000E-02 1.74920E-02 7.74800E-03
 -1      2847-6.00000E-02 1.74910E-02 5.16300E-03
 -1      2848-6.00000E-02 1.97370E-02 7.24900E-03
 -1      2849-6.00000E-02 2.02860E-02 4.81600E-03
 -1      2850-6.00000E-02 2.25390E-02 6.95000E-03
 -1      2851-6.00000E-02-2.58160E-02 1.89200E-03
 -1      2852-6.00000E-02-2.77110E-02 2.77500E-03
 -1      2853-6.00000E-02 6.29600E-03 9.63000E-03
 -1      2854-6.00000E-02-1.52640E-02 7.21800E-03
 -1      2855-6.00000E-02-1.75490E-02 7.63700E-03
 -1      2856-6.00000E-02 8.73000E-03 9.62100E-03
 -1      2857-6.00000E-02 7.50200E-03 6.96300E-03
 -1      2858-6.00000E-02 2.12510E-02 2.30400E-03
 -1      2859-6.00000E-02-1.37930E-02 9.52100E-03
 -1      2860-6.00000E-02 9.96800E-03 5.01800E-03
 -1      2861-6.00000E-02 1.23830E-02 4.35500E-03
 -1      2862-6.00000E-02-2.21000E-03 7.20600E-03
 -1      2863-6.00000E-02 2.77060E-02 9.13900E-03
 -1      2864-6.00000E-02 1.11700E-02 2.33600E-03
 -1      2865-6.00000E-02 1.19200E-03 2.39900E-03
 -1      2866-6.00000E-02-4.99000E-03 6.84300E-03
 -1      2867-6.00000E-02-2.21830E-02 7.50700E-03
 -1      2868-6.00000E-02-2.59910E-02 1.02560E-02
 -1      2869-6.00000E-02-7.20700E-03 4.75500E-03
 -1      2870-6.00000E-02-2.76000E-03 4.76000E-03
 -1      2871-6.00000E-02-2.35600E-02 2.31500E-03
 -1      2872-6.00000E-02 2.58360E-02 1.00900E-02
 -1      2873-6.00000E-02 3.73900E-03 9.63700E-03
 -1      2874-6.00000E-02 5.01600E-03 7.56600E-03
 -1      2875-6.00000E-02 2.52480E-02 7.76300E-03
 -1      2876-6.00000E-02-4.98600E-03 4.25300E-03
 -1      2877-6.00000E-02-7.77300E-03 7.20300E-03
 -1      2878-6.00000E-02-1.01110E-02 7.62400E-03
 -1      2879-6.00000E-02 1.47080E-02 4.79600E-03
 -1      2880-6.00000E-02 7.48500E-03 4.43400E-03
 -1      2881-3.24450E-02 4.00000E-02 5.01600E-03
 -1      2882-3.12520E-02 4.00000E-02 2.35800E-03
 -1      2883-2.99830E-02 4.00000E-02 4.42900E-03
 -1      2884 8.78600E-03 4.00000E-02 2.28500E-03
 -1      2885 6.29000E-03 4.00000E-02 2.48900E-03
 -1      2886 1.30500E-03 4.00000E-02 9.67300E-03
 -1      2887-1.23600E-03 4.00000E-02 9.71000E-03
 -1      2888 9.80000E-05 4.00000E-02 7.65100E-03
 -1      2889-7.23200E-03 4.00000E-02 4.75900E-03
 -1      2890-6.26000E-03 4.00000E-02 2.24600E-03
 -1      2891-5.00000E-03 4.00000E-02 4.25400E-03
 -1      2892-8.77300E-03 4.00000E-02 9.70700E-03
 -1      2893 2.12730E-02 4.00000E-02 9.51600E-03
 -1      2894 2.37670E-02 4.00000E-02 9.71300E-03
 -1      2895-3.61410E-02 4.00000E-02 2.24600E-03
 -1      2896-3.36330E-02 4.00000E-02 2.32100E-03
 -1      2897 1.74550E-02 4.00000E-02 5.02000E-03
 -1      2898 1.49900E-02 4.00000E-02 6.96300E-03
 -1      2899 1.49900E-02 4.00000E-02 4.43000E-03
 -1      2900 2.63130E-02 4.00000E-02 9.64200E-03
 -1      2901-3.38250E-02 4.00000E-02 9.59200E-03
 -1      2902-1.13230E-02 4.00000E-02 9.66400E-03
 -1      2903-1.37270E-02 4.00000E-02 9.63900E-03
 -1      2904-2.99890E-02 4.00000E-02 6.96300E-03
 -1      2905 3.35580E-02 4.00000E-02 2.58200E-03
 -1      2906 3.59220E-02 4.00000E-02 1.79200E-03
 -1      2907 3.58010E-02 4.00000E-02 3.83400E-03
 -1      2908-4.59460E-02 4.00000E-02 1.02580E-02
 -1      2909-4.78210E-02 4.00000E-02 9.31700E-03
 -1      2910-4.54840E-02 4.00000E-02 8.12900E-03
 -1      2911-3.12250E-02 4.00000E-02 9.61800E-03
 -1      2912-3.25050E-02 4.00000E-02 7.53600E-03
 -1      2913-6.25900E-03 4.00000E-02 9.48600E-03
 -1      2914-3.74500E-03 4.00000E-02 9.48600E-03
 -1      2915 3.68800E-03 4.00000E-02 9.67500E-03
 -1      2916-3.88750E-02 4.00000E-02 9.57400E-03
 -1      2917-3.63260E-02 4.00000E-02 9.47600E-03
 -1      2918 1.13270E-02 4.00000E-02 2.33400E-03
 -1      2919 7.79900E-03 4.00000E-02 4.78000E-03
 -1      2920 1.01150E-02 4.00000E-02 4.35100E-03
 -1      2921 1.62620E-02 4.00000E-02 2.36000E-03
 -1      2922 1.86530E-02 4.00000E-02 2.33200E-03
 -1      2923-4.78880E-02 4.00000E-02 7.14000E-03
 -1      2924-2.37840E-02 4.00000E-02 2.28500E-03
 -1      2925-1.62700E-02 4.00000E-02 9.63900E-03
 -1      2926-1.49990E-02 4.00000E-02 7.57100E-03
 -1      2927-4.10840E-02 4.00000E-02 2.43700E-03
 -1      2928-3.85870E-02 4.00000E-02 2.38100E-03
 -1      2929 1.20500E-03 4.00000E-02 2.40700E-03
 -1      2930 3.80800E-03 4.00000E-02 2.40900E-03
 -1      2931-1.37780E-02 4.00000E-02 2.38100E-03
 -1      2932-2.12120E-02 4.00000E-02 9.71500E-03
 -1      2933 3.78900E-02 4.00000E-02 2.68400E-03
 -1      2934-4.28420E-02 4.00000E-02 7.66300E-03
 -1      2935-4.37480E-02 4.00000E-02 9.91600E-03
 -1      2936-3.96030E-02 4.00000E-02 4.80900E-03
 -1      2937-1.86700E-02 4.00000E-02 9.66600E-03
 -1      2938-3.73800E-03 4.00000E-02 2.24700E-03
 -1      2939-2.76800E-03 4.00000E-02 4.75900E-03
 -1      2940-5.00200E-03 4.00000E-02 6.84200E-03
 -1      2941 1.11830E-02 4.00000E-02 9.60000E-03
 -1      2942 1.37710E-02 4.00000E-02 9.62000E-03
 -1      2943-2.61810E-02 4.00000E-02 9.59900E-03
 -1      2944-2.87720E-02 4.00000E-02 9.62000E-03
 -1      2945 1.62190E-02 4.00000E-02 9.62100E-03
 -1      2946-1.74740E-02 4.00000E-02 6.98100E-03
 -1      2947-7.78500E-03 4.00000E-02 7.20500E-03
 -1      2948-3.70530E-02 4.00000E-02 4.70200E-03
 -1      2949-1.62260E-02 4.00000E-02 2.38100E-03
 -1      2950-9.97500E-03 4.00000E-02 5.09400E-03
 -1      2951-1.75150E-02 4.00000E-02 4.46000E-03
 -1      2952-1.50010E-02 4.00000E-02 5.03900E-03
 -1      2953-4.35340E-02 4.00000E-02 2.29300E-03
 -1      2954-1.26700E-03 4.00000E-02 2.48000E-03
 -1      2955 3.75980E-02 4.00000E-02 7.41200E-03
 -1      2956 6.22100E-03 4.00000E-02 9.71800E-03
 -1      2957 2.36380E-02 4.00000E-02 2.47500E-03
 -1      2958 2.48410E-02 4.00000E-02 5.08100E-03
 -1      2959 2.21350E-02 4.00000E-02 4.77600E-03
 -1      2960 9.96600E-03 4.00000E-02 6.90300E-03
 -1      2961 1.25200E-02 4.00000E-02 5.02000E-03
 -1      2962 1.24810E-02 4.00000E-02 7.54100E-03
 -1      2963 7.20600E-03 4.00000E-02 7.22200E-03
 -1      2964 5.03700E-03 4.00000E-02 5.10100E-03
 -1      2965-4.61700E-02 4.00000E-02 6.05500E-03
 -1      2966-4.42890E-02 4.00000E-02 6.11800E-03
 -1      2967-4.13350E-02 4.00000E-02 9.72600E-03
 -1      2968 3.12290E-02 4.00000E-02 9.65800E-03
 -1      2969 1.98460E-02 4.00000E-02 4.34900E-03
 -1      2970 2.11780E-02 4.00000E-02 2.28000E-03
 -1      2971-4.23280E-02 4.00000E-02 4.87400E-03
 -1      2972 2.87430E-02 4.00000E-02 9.52000E-03
 -1      2973 2.74210E-02 4.00000E-02 6.91900E-03
 -1      2974 3.10140E-02 4.00000E-02 2.40200E-03
 -1      2975 3.79300E-02 4.00000E-02 4.97500E-03
 -1      2976 3.81620E-02 4.00000E-02 9.49800E-03
 -1      2977 2.85700E-02 4.00000E-02 2.25500E-03
 -1      2978-3.50180E-02 4.00000E-02 6.88600E-03
 -1      2979-2.75160E-02 4.00000E-02 5.02000E-03
 -1      2980-2.49610E-02 4.00000E-02 6.90300E-03
 -1      2981-2.74790E-02 4.00000E-02 7.54100E-03
 -1      2982 1.88040E-02 4.00000E-02 9.60200E-03
 -1      2983-1.11920E-02 4.00000E-02 2.39900E-03
 -1      2984-8.72900E-03 4.00000E-02 2.47900E-03
 -1      2985 3.01130E-02 4.00000E-02 7.19800E-03
 -1      2986-3.78310E-02 4.00000E-02 7.12400E-03
 -1      2987 2.93810E-02 4.00000E-02 4.72600E-03
 -1      2988 3.17590E-02 4.00000E-02 4.90100E-03
 -1      2989 3.25660E-02 4.00000E-02 7.42900E-03
 -1      2990-2.37050E-02 4.00000E-02 9.51300E-03
 -1      2991-2.21990E-02 4.00000E-02 7.22100E-03
 -1      2992-1.98820E-02 4.00000E-02 7.65000E-03
 -1      2993 2.60550E-02 4.00000E-02 2.34800E-03
 -1      2994-3.48110E-02 4.00000E-02 4.32300E-03
 -1      2995-2.00330E-02 4.00000E-02 5.09700E-03
 -1      2996-2.27950E-02 4.00000E-02 4.77900E-03
 -1      2997-4.04530E-02 4.00000E-02 7.23100E-03
 -1      2998-4.58300E-02 4.00000E-02 1.82600E-03
 -1      2999-4.77400E-02 4.00000E-02 2.72600E-03
 -1      3000 8.71000E-03 4.00000E-02 9.51300E-03
 -1      3001-4.78340E-02 4.00000E-02 4.89500E-03
 -1      3002-2.12910E-02 4.00000E-02 2.48800E-03
 -1      3003-2.22000E-03 4.00000E-02 7.20600E-03
 -1      3004-2.50000E-05 4.00000E-02 5.09700E-03
 -1      3005 2.50100E-03 4.00000E-02 6.99800E-03
 -1      3006 2.50600E-03 4.00000E-02 4.48000E-03
 -1      3007 3.49640E-02 4.00000E-02 7.67900E-03
 -1      3008 3.39800E-02 4.00000E-02 5.31600E-03
 -1      3009-2.63240E-02 4.00000E-02 2.33400E-03
 -1      3010-1.25250E-02 4.00000E-02 6.98100E-03
 -1      3011-1.24900E-02 4.00000E-02 4.46000E-03
 -1      3012-2.87200E-02 4.00000E-02 2.36000E-03
 -1      3013-4.52660E-02 4.00000E-02 4.03500E-03
 -1      3014-1.88160E-02 4.00000E-02 2.40100E-03
 -1      3015 1.37250E-02 4.00000E-02 2.36000E-03
 -1      3016 2.00010E-02 4.00000E-02 6.90600E-03
 -1      3017 2.71960E-02 4.00000E-02 4.34900E-03
 -1      3018 3.61000E-02 4.00000E-02 9.75500E-03
 -1      3019 3.36830E-02 4.00000E-02 9.77700E-03
 -1      3020 2.27430E-02 4.00000E-02 7.22300E-03
 -1      3021 1.74970E-02 4.00000E-02 7.54300E-03
 -1      3022 4.89600E-03 4.00000E-02 7.65600E-03
 -1      3023 2.50520E-02 4.00000E-02 7.63400E-03
 -1      3024 3.60530E-02 4.00000E-02 5.88200E-03
 -1      3025-2.51120E-02 4.00000E-02 4.35000E-03
 -1      3026-1.01110E-02 4.00000E-02 7.64500E-03
 -1      3027 6.00000E-02-1.11120E-02 9.54400E-03
 -1      3028 6.00000E-02-8.64300E-03 9.51400E-03
 -1      3029 6.00000E-02 6.24100E-03 9.72100E-03
 -1      3030 6.00000E-02 1.75420E-02 4.60600E-03
 -1      3031 6.00000E-02-1.78980E-02 2.68200E-03
 -1      3032 6.00000E-02-1.79290E-02 4.97400E-03
 -1      3033 6.00000E-02 1.60250E-02 2.29400E-03
 -1      3034 6.00000E-02-6.22200E-03 2.47300E-03
 -1      3035 6.00000E-02-3.79100E-03 2.39200E-03
 -1      3036 6.00000E-02 2.51100E-03 6.90300E-03
 -1      3037 6.00000E-02 3.77000E-03 9.51700E-03
 -1      3038 6.00000E-02 5.23300E-03 7.22000E-03
 -1      3039 6.00000E-02-4.95900E-03 5.09600E-03
 -1      3040 6.00000E-02-7.63900E-03 4.76400E-03
 -1      3041 6.00000E-02-7.09700E-03 7.22400E-03
 -1      3042 6.00000E-02 1.59760E-02 1.02490E-02
 -1      3043 6.00000E-02 1.79130E-02 9.32700E-03
 -1      3044 6.00000E-02 1.58430E-02 8.22200E-03
 -1      3045 6.00000E-02-1.58150E-02 3.82200E-03
 -1      3046 6.00000E-02-1.39770E-02 5.28400E-03
 -1      3047 6.00000E-02-1.36120E-02 2.54400E-03
 -1      3048 6.00000E-02-1.23900E-03 9.63400E-03
 -1      3049 6.00000E-02 1.11180E-02 9.65200E-03
 -1      3050 6.00000E-02 8.75000E-03 9.66900E-03
 -1      3051 6.00000E-02-2.43900E-03 6.98300E-03
 -1      3052 6.00000E-02 3.20000E-05 7.54800E-03
 -1      3053 6.00000E-02-2.60000E-05 5.01900E-03
 -1      3054 6.00000E-02 6.15200E-03 2.47400E-03
 -1      3055 6.00000E-02 7.34400E-03 5.07900E-03
 -1      3056 6.00000E-02 4.64100E-03 4.77100E-03
 -1      3057 6.00000E-02 1.36860E-02 9.56300E-03
 -1      3058 6.00000E-02 8.59300E-03 2.37300E-03
 -1      3059 6.00000E-02-1.59430E-02 1.78100E-03
 -1      3060 6.00000E-02-1.11480E-02 2.24500E-03
 -1      3061 6.00000E-02-6.17000E-03 9.72100E-03
 -1      3062 6.00000E-02-1.81490E-02 9.49600E-03
 -1      3063 6.00000E-02-1.60670E-02 9.74100E-03
 -1      3064 6.00000E-02 1.48000E-02 4.42600E-03
 -1      3065 6.00000E-02 1.15700E-03 2.33000E-03
 -1      3066 6.00000E-02-1.24000E-03 2.36600E-03
 -1      3067 6.00000E-02-8.65900E-03 2.23600E-03
 -1      3068 6.00000E-02-2.49500E-03 4.45200E-03
 -1      3069 6.00000E-02 1.11360E-02 2.32700E-03
 -1      3070 6.00000E-02 1.35510E-02 2.34800E-03
 -1      3071 6.00000E-02-1.49040E-02 7.65200E-03
 -1      3072 6.00000E-02-1.24320E-02 7.33800E-03
 -1      3073 6.00000E-02-1.36150E-02 9.73500E-03
 -1      3074 6.00000E-02 3.68400E-03 2.27700E-03
 -1      3075 6.00000E-02-3.64000E-03 9.67000E-03
 -1      3076 6.00000E-02 7.50400E-03 7.64800E-03
 -1      3077 6.00000E-02 9.81100E-03 6.95700E-03
 -1      3078 6.00000E-02 1.79300E-02 7.03700E-03
 -1      3079 6.00000E-02 1.32000E-03 9.60600E-03
 -1      3080 6.00000E-02 1.81310E-02 2.51300E-03
 -1      3081 6.00000E-02 1.21600E-02 4.91700E-03
 -1      3082 6.00000E-02 9.78800E-03 4.41200E-03
 -1      3083 6.00000E-02-1.60400E-02 5.87200E-03
 -1      3084 6.00000E-02-1.75770E-02 7.40900E-03
 -1      3085 6.00000E-02-1.18180E-02 4.79400E-03
 -1      3086 6.00000E-02-9.78800E-03 4.25500E-03
 -1      3087 6.00000E-02 1.40040E-02 6.80500E-03
 -1      3088 6.00000E-02-9.77900E-03 6.88700E-03
 -1      3089 6.00000E-02 2.35600E-03 4.34500E-03
 -1      3090 6.00000E-02 1.60280E-02 6.16700E-03
 -1      3091 6.00000E-02-4.82300E-03 7.65500E-03
 -1      3092 6.00000E-02 1.20920E-02 7.55000E-03
 -1      3093 4.20000E-02 3.99000E-02 9.29600E-03
 -1      3094 4.20010E-02 3.99000E-02 2.70500E-03
 -1      3095 4.19730E-02 3.99020E-02 4.88400E-03
 -1      3096 5.33420E-02 3.48990E-02 2.00700E-03
 -1      3097 5.49390E-02 3.32970E-02 2.00900E-03
 -1      3098 4.19730E-02 3.99020E-02 7.11700E-03
 -1      3099 5.92220E-02 2.55240E-02 1.93700E-03
 -1      3100 5.85150E-02 2.75620E-02 2.02300E-03
 -1      3101 5.89960E-02 2.62580E-02 4.02500E-03
 -1      3102 5.99020E-02 2.19760E-02 9.30800E-03
 -1      3103 5.56950E-02 3.23960E-02 7.99000E-03
 -1      3104 5.70170E-02 3.05080E-02 7.98200E-03
 -1      3105 5.63970E-02 3.14520E-02 6.00000E-03
 -1      3106 4.96710E-02 3.75070E-02 9.99400E-03
 -1      3107 4.76510E-02 3.84790E-02 9.99400E-03
 -1      3108 5.15780E-02 3.63080E-02 9.99500E-03
 -1      3109 5.06350E-02 3.69380E-02 7.99600E-03
 -1      3110 5.89960E-02 2.62580E-02 7.97400E-03
 -1      3111 5.94490E-02 2.46600E-02 6.00000E-03
 -1      3112 5.86500E-02 2.72250E-02 6.00000E-03
 -1      3113 5.96710E-02 2.36140E-02 1.67600E-03
 -1      3114 4.55800E-02 3.92060E-02 1.99100E-03
 -1      3115 5.24860E-02 3.56240E-02 7.99600E-03
 -1      3116 5.41790E-02 3.41050E-02 7.99400E-03
 -1      3117 5.33580E-02 3.48850E-02 6.00100E-03
 -1      3118 5.98750E-02 2.22280E-02 4.94200E-03
 -1      3119 5.75490E-02 2.95940E-02 2.02200E-03
 -1      3120 5.99020E-02 2.19760E-02 2.69200E-03
 -1      3121 5.70170E-02 3.05080E-02 4.01800E-03
 -1      3122 5.81250E-02 2.84550E-02 4.03100E-03
 -1      3123 4.36580E-02 3.96630E-02 1.02500E-02
 -1      3124 4.41760E-02 3.95590E-02 8.09400E-03
 -1      3125 5.75490E-02 2.95940E-02 9.97800E-03
 -1      3126 5.33430E-02 3.48990E-02 9.99400E-03
 -1      3127 5.95790E-02 2.40830E-02 8.30600E-03
 -1      3128 4.86440E-02 3.80360E-02 7.99500E-03
 -1      3129 4.96560E-02 3.75150E-02 6.00100E-03
 -1      3130 5.85150E-02 2.75620E-02 9.97700E-03
 -1      3131 5.92220E-02 2.55240E-02 1.00620E-02
 -1      3132 4.55800E-02 3.92060E-02 1.00100E-02
 -1      3133 4.41760E-02 3.95590E-02 3.90700E-03
 -1      3134 4.35980E-02 3.96740E-02 6.00100E-03
 -1      3135 4.36580E-02 3.96630E-02 1.75100E-03
 -1      3136 4.76510E-02 3.84790E-02 2.00700E-03
 -1      3137 4.65140E-02 3.89100E-02 3.99800E-03
 -1      3138 4.96710E-02 3.75060E-02 2.00700E-03
 -1      3139 4.76070E-02 3.84970E-02 6.00100E-03
 -1      3140 5.63490E-02 3.15210E-02 2.01400E-03
 -1      3141 5.63490E-02 3.15200E-02 9.98600E-03
 -1      3142 5.49400E-02 3.32970E-02 9.99100E-03
 -1      3143 5.98760E-02 2.22280E-02 7.05800E-03
 -1      3144 5.15800E-02 3.63060E-02 6.00100E-03
 -1      3145 5.41790E-02 3.41060E-02 4.00700E-03
 -1      3146 5.15780E-02 3.63080E-02 2.00600E-03
 -1      3147 5.95790E-02 2.40830E-02 3.69300E-03
 -1      3148 5.24860E-02 3.56240E-02 4.00600E-03
 -1      3149 5.56950E-02 3.23960E-02 4.01100E-03
 -1      3150 4.65140E-02 3.89100E-02 8.00400E-03
 -1      3151 5.06350E-02 3.69380E-02 4.00600E-03
 -1      3152 5.96710E-02 2.36140E-02 1.03240E-02
 -1      3153 5.49690E-02 3.32640E-02 6.00000E-03
 -1      3154 5.81250E-02 2.84540E-02 7.96900E-03
 -1      3155 4.86440E-02 3.80360E-02 4.00700E-03
 -1      3156 5.76270E-02 2.94490E-02 6.00000E-03
 -1      3157 4.54920E-02 3.92310E-02 6.00100E-03
 -1      3158 2.45000E-03 2.48800E-02 6.96700E-03
 -1      3159 2.45600E-03 2.48790E-02 4.44000E-03
 -1      3160 1.20000E-05 2.50000E-02 5.03500E-03
 -1      3161-8.48900E-03 2.35140E-02 9.48200E-03
 -1      3162-6.14600E-03 2.42330E-02 9.59300E-03
 -1      3163-1.84910E-02 1.68250E-02 2.48800E-03
 -1      3164-1.67480E-02 1.85600E-02 2.29500E-03
 -1      3165-1.29370E-02 2.13920E-02 9.73800E-03
 -1      3166-2.49120E-02 2.09600E-03 7.13400E-03
 -1      3167-2.14420E-02 1.28540E-02 9.63000E-03
 -1      3168-2.01340E-02 1.48200E-02 9.66500E-03
 -1      3169-2.08070E-02 1.38590E-02 6.97800E-03
 -1      3170 2.00670E-02 1.49100E-02 9.64500E-03
 -1      3171-2.46770E-02 4.00300E-03 1.02380E-02
 -1      3172-2.42310E-02 6.15300E-03 9.86400E-03
 -1      3173 2.48740E-02 2.50500E-03 7.30900E-03
 -1      3174-1.05730E-02 2.26540E-02 2.40300E-03
 -1      3175-1.17600E-03 2.49720E-02 2.36800E-03
 -1      3176 2.42230E-02 6.18300E-03 2.01700E-03
 -1      3177 2.47020E-02 3.84600E-03 2.20600E-03
 -1      3178 2.42130E-02 6.22400E-03 9.92600E-03
 -1      3179 2.46980E-02 3.87300E-03 9.76200E-03
 -1      3180 2.44600E-02 5.16900E-03 7.86200E-03
 -1      3181-2.44000E-03 2.48810E-02 6.96400E-03
 -1      3182-1.26300E-03 2.49680E-02 9.62800E-03
 -1      3183 3.00000E-06 2.50000E-02 7.56100E-03
 -1      3184 8.47800E-03 2.35180E-02 2.39900E-03
 -1      3185 4.87800E-03 2.45200E-02 5.03700E-03
 -1      3186 4.86500E-03 2.45220E-02 7.56600E-03
 -1      3187-2.35270E-02 8.45600E-03 9.60800E-03
 -1      3188-2.26220E-02 1.06420E-02 9.61300E-03
 -1      3189-2.31140E-02 9.52500E-03 6.92100E-03
 -1      3190 1.76760E-02 1.76790E-02 5.09400E-03
 -1      3191 1.67810E-02 1.85310E-02 2.48000E-03
 -1      3192 1.56640E-02 1.94840E-02 4.75800E-03
 -1      3193 3.70800E-03 2.47240E-02 2.37300E-03
 -1      3194 6.05400E-03 2.42560E-02 2.37900E-03
 -1      3195 1.28460E-02 2.14470E-02 2.24700E-03
 -1      3196 1.07090E-02 2.25900E-02 2.47900E-03
 -1      3197 1.20190E-02 2.19210E-02 4.75900E-03
 -1      3198-3.64900E-03 2.47320E-02 9.62000E-03
 -1      3199-1.68460E-02 1.84720E-02 9.52200E-03
 -1      3200-1.50060E-02 1.99960E-02 9.64600E-03
 -1      3201-1.59230E-02 1.92740E-02 6.92000E-03
 -1      3202 1.84970E-02 1.68180E-02 2.40400E-03
 -1      3203 1.93510E-02 1.58290E-02 4.46800E-03
 -1      3204-1.74730E-02 1.78800E-02 4.78200E-03
 -1      3205-2.00360E-02 1.49520E-02 2.39900E-03
 -1      3206-4.88300E-03 2.45180E-02 7.53700E-03
 -1      3207-4.82300E-03 2.45300E-02 5.01600E-03
 -1      3208-7.27500E-03 2.39180E-02 6.88800E-03
 -1      3209 2.14450E-02 1.28500E-02 9.68100E-03
 -1      3210 2.25430E-02 1.08070E-02 9.79700E-03
 -1      3211-1.38420E-02 2.08180E-02 5.09900E-03
 -1      3212-1.57600E-02 1.94070E-02 4.37700E-03
 -1      3213 2.48760E-02 2.49000E-03 4.66500E-03
 -1      3214 2.35210E-02 8.47100E-03 1.91300E-03
 -1      3215 2.44660E-02 5.13900E-03 4.07200E-03
 -1      3216 2.40970E-02 6.65700E-03 5.95400E-03
 -1      3217 2.46180E-02 4.35400E-03 5.97000E-03
 -1      3218-2.49060E-02 2.16400E-03 9.30800E-03
 -1      3219 1.60820E-02 1.91400E-02 7.20300E-03
 -1      3220-8.33400E-03 2.35700E-02 2.25300E-03
 -1      3221-9.17900E-03 2.32540E-02 4.71400E-03
 -1      3222-2.45940E-02 4.48600E-03 8.09500E-03
 -1      3223 1.06690E-02 2.26090E-02 9.70700E-03
 -1      3224 1.28470E-02 2.14460E-02 9.48500E-03
 -1      3225-2.42100E-03 2.48820E-02 4.43300E-03
 -1      3226-2.35200E-02 8.47500E-03 2.28200E-03
 -1      3227-2.42090E-02 6.23800E-03 2.24900E-03
 -1      3228-1.27690E-02 2.14930E-02 2.51100E-03
 -1      3229 6.08800E-03 2.42470E-02 9.63700E-03
 -1      3230 8.35200E-03 2.35640E-02 9.66300E-03
 -1      3231-2.46680E-02 4.05800E-03 1.81100E-03
 -1      3232-2.45720E-02 4.60800E-03 4.00700E-03
 -1      3233-2.49090E-02 2.12700E-03 4.89000E-03
 -1      3234-2.49020E-02 2.20900E-03 2.72100E-03
 -1      3235-1.07950E-02 2.25490E-02 9.59400E-03
 -1      3236 2.38230E-02 7.58200E-03 7.90900E-03
 -1      3237-9.86100E-03 2.29730E-02 7.14200E-03
 -1      3238-1.14810E-02 2.22080E-02 4.85600E-03
 -1      3239 2.32060E-02 9.30100E-03 5.91000E-03
 -1      3240 2.20530E-02 1.17760E-02 7.11400E-03
 -1      3241 2.30470E-02 9.68700E-03 8.07600E-03
 -1      3242 1.49050E-02 2.00710E-02 2.24700E-03
 -1      3243 1.49020E-02 2.00730E-02 9.48400E-03
 -1      3244 1.25700E-03 2.49680E-02 9.62900E-03
 -1      3245 2.35010E-02 8.52800E-03 9.99200E-03
 -1      3246-2.38810E-02 7.39500E-03 4.78000E-03
 -1      3247 1.85770E-02 1.67310E-02 9.66100E-03
 -1      3248 1.68090E-02 1.85050E-02 9.70500E-03
 -1      3249-2.14450E-02 1.28500E-02 2.37400E-03
 -1      3250 7.26800E-03 2.39200E-02 4.45900E-03
 -1      3251-5.96500E-03 2.42780E-02 2.32300E-03
 -1      3252-1.47910E-02 2.01550E-02 2.37200E-03
 -1      3253-2.20430E-02 1.17940E-02 5.02500E-03
 -1      3254-2.20630E-02 1.17570E-02 7.54900E-03
 -1      3255-1.21390E-02 2.18550E-02 7.28300E-03
 -1      3256-1.40410E-02 2.06850E-02 7.65100E-03
 -1      3257 2.38390E-02 7.53100E-03 3.98100E-03
 -1      3258-1.85600E-02 1.67490E-02 9.71800E-03
 -1      3259-2.25650E-02 1.07610E-02 2.34500E-03
 -1      3260 2.49330E-02 1.83000E-03 2.52800E-03
 -1      3261 1.93620E-02 1.58150E-02 6.97800E-03
 -1      3262 2.49320E-02 1.84500E-03 9.45800E-03
 -1      3263 7.23000E-03 2.39320E-02 6.98100E-03
 -1      3264 1.38940E-02 2.07840E-02 6.84100E-03
 -1      3265 1.38940E-02 2.07830E-02 4.25400E-03
 -1      3266 2.25730E-02 1.07440E-02 2.06300E-03
 -1      3267 2.14460E-02 1.28480E-02 2.40800E-03
 -1      3268 2.01150E-02 1.48460E-02 2.39300E-03
 -1      3269 2.08020E-02 1.38670E-02 7.60200E-03
 -1      3270-3.66300E-03 2.47300E-02 2.36100E-03
 -1      3271 1.20300E-03 2.49710E-02 2.37100E-03
 -1      3272 3.62800E-03 2.47350E-02 9.63100E-03
 -1      3273 2.21930E-02 1.15100E-02 4.52300E-03
 -1      3274 2.08490E-02 1.37950E-02 5.06400E-03
 -1      3275 2.30980E-02 9.56400E-03 3.73400E-03
 -1      3276-1.79010E-02 1.74510E-02 7.22400E-03
 -1      3277-7.08700E-03 2.39740E-02 4.32700E-03
 -1      3278-2.07760E-02 1.39060E-02 4.45600E-03
 -1      3279-2.30710E-02 9.62900E-03 4.36700E-03
 -1      3280 1.77660E-02 1.75890E-02 7.64200E-03
 -1      3281 9.59100E-03 2.30870E-02 5.09500E-03
 -1      3282-1.93070E-02 1.58830E-02 5.09600E-03
 -1      3283 1.15400E-02 2.21770E-02 7.20500E-03
 -1      3284 9.46600E-03 2.31380E-02 7.64500E-03
 -1      3285-1.94080E-02 1.57590E-02 7.65000E-03
 -1      3286-2.47140E-02 3.77300E-03 6.03500E-03
 -1      3287-2.43640E-02 5.60300E-03 6.07300E-03
 -1      3288-2.39710E-02 7.09900E-03 7.55200E-03
 -1      3289-5.78980E-02 3.61340E-02 1.99500E-03
 -1      3290-5.90890E-02 3.41700E-02 1.75400E-03
 -1      3291-5.87970E-02 3.47550E-02 3.91100E-03
 -1      3292-5.97310E-02 3.23060E-02 4.88500E-03
 -1      3293-5.70710E-02 3.70710E-02 8.00500E-03
 -1      3294-5.47560E-02 3.87970E-02 8.08800E-03
 -1      3295-5.60940E-02 3.79290E-02 5.99900E-03
 -1      3296-5.23300E-02 3.97250E-02 2.70800E-03
 -1      3297-5.78980E-02 3.61340E-02 1.00040E-02
 -1      3298-5.90890E-02 3.41710E-02 1.02460E-02
 -1      3299-5.23060E-02 3.97300E-02 4.88500E-03
 -1      3300-5.97250E-02 3.23300E-02 9.29100E-03
 -1      3301-5.97310E-02 3.23060E-02 7.11400E-03
 -1      3302-5.61340E-02 3.78980E-02 1.99500E-03
 -1      3303-5.41330E-02 3.91060E-02 6.00000E-03
 -1      3304-5.91060E-02 3.41330E-02 5.99900E-03
 -1      3305-5.79290E-02 3.60940E-02 5.99900E-03
 -1      3306-5.23300E-02 3.97250E-02 9.29100E-03
 -1      3307-5.23060E-02 3.97300E-02 7.11400E-03
 -1      3308-5.47560E-02 3.87970E-02 3.91100E-03
 -1      3309-5.70710E-02 3.70710E-02 3.99400E-03
 -1      3310-5.41710E-02 3.90890E-02 1.75400E-03
 -1      3311-5.97250E-02 3.23300E-02 2.70800E-03
 -1      3312-5.61340E-02 3.78980E-02 1.00040E-02
 -1      3313-5.41710E-02 3.90890E-02 1.02460E-02
 -1      3314-5.87970E-02 3.47550E-02 8.08800E-03
 -1      3315 2.34740E-02-8.60000E-03 9.58000E-03
 -1      3316 2.25220E-02-1.08510E-02 9.62700E-03
 -1      3317 2.29270E-02-9.96700E-03 7.20800E-03
 -1      3318 2.26410E-02-1.06010E-02 2.42700E-03
 -1      3319 2.35550E-02-8.37700E-03 2.27800E-03
 -1      3320-3.57300E-03-2.47430E-02 9.48900E-03
 -1      3321-2.14500E-02-1.28400E-02 2.29900E-03
 -1      3322-2.26250E-02-1.06360E-02 2.35500E-03
 -1      3323 2.45360E-02-4.79600E-03 4.04900E-03
 -1      3324 2.47160E-02-3.75900E-03 2.15300E-03
 -1      3325 2.48930E-02-2.31500E-03 4.53100E-03
 -1      3326-3.76700E-03-2.47150E-02 2.26200E-03
 -1      3327 2.49370E-02-1.77700E-03 2.47600E-03
 -1      3328 2.14740E-02-1.28020E-02 2.52400E-03
 -1      3329 2.21820E-02-1.15310E-02 4.88100E-03
 -1      3330-2.35210E-02-8.47200E-03 2.38600E-03
 -1      3331-2.30970E-02-9.56800E-03 5.07900E-03
 -1      3332-2.39310E-02-7.23400E-03 4.49000E-03
 -1      3333 2.41930E-02-6.29900E-03 9.71800E-03
 -1      3334-1.49270E-02-2.00550E-02 9.59400E-03
 -1      3335-1.67980E-02-1.85150E-02 9.52100E-03
 -1      3336-1.58760E-02-1.93120E-02 6.90400E-03
 -1      3337-1.85100E-02-1.68040E-02 9.75500E-03
 -1      3338 2.13820E-02-1.29550E-02 9.75800E-03
 -1      3339-1.85170E-02-1.67960E-02 2.51400E-03
 -1      3340-2.48900E-02-2.34100E-03 4.53600E-03
 -1      3341 2.32370E-02-9.22200E-03 4.78600E-03
 -1      3342-8.37300E-03-2.35560E-02 9.70600E-03
 -1      3343-1.06500E-02-2.26180E-02 9.51100E-03
 -1      3344-9.30000E-03-2.32060E-02 7.21800E-03
 -1      3345-1.10000E-03-2.49760E-02 9.59800E-03
 -1      3346 1.32100E-03-2.49650E-02 9.74700E-03
 -1      3347-1.74780E-02-1.78750E-02 4.79400E-03
 -1      3348-1.57850E-02-1.93870E-02 4.34900E-03
 -1      3349 2.42500E-03-2.48820E-02 5.11200E-03
 -1      3350 3.58500E-03-2.47420E-02 2.40500E-03
 -1      3351 4.85500E-03-2.45240E-02 4.45800E-03
 -1      3352 1.67660E-02-1.85440E-02 9.64100E-03
 -1      3353 1.49520E-02-2.00360E-02 9.66600E-03
 -1      3354 1.58720E-02-1.93150E-02 6.98000E-03
 -1      3355-2.11000E-03-2.49110E-02 7.14400E-03
 -1      3356-3.23000E-04-2.49980E-02 4.85900E-03
 -1      3357 4.16000E-04-2.49970E-02 7.28700E-03
 -1      3358 1.28850E-02-2.14240E-02 9.71500E-03
 -1      3359 1.20460E-02-2.19060E-02 7.21900E-03
 -1      3360 1.39830E-02-2.07240E-02 7.64900E-03
 -1      3361-1.28030E-02-2.14730E-02 9.59300E-03
 -1      3362-1.38850E-02-2.07900E-02 7.52100E-03
 -1      3363-2.14150E-02-1.28990E-02 9.53100E-03
 -1      3364-2.00760E-02-1.48980E-02 9.75800E-03
 -1      3365-2.42300E-02-6.15700E-03 2.16200E-03
 -1      3366-2.49010E-02-2.21900E-03 9.24600E-03
 -1      3367-2.49060E-02-2.17000E-03 7.00100E-03
 -1      3368-2.47100E-02-3.79400E-03 2.17000E-03
 -1      3369-2.45210E-02-4.86800E-03 4.08300E-03
 -1      3370 2.46640E-02-4.08400E-03 1.01700E-02
 -1      3371-1.38920E-02-2.07850E-02 5.00300E-03
 -1      3372-1.29100E-02-2.14090E-02 2.32400E-03
 -1      3373-1.18850E-02-2.19940E-02 4.34400E-03
 -1      3374-2.42040E-02-6.26000E-03 9.75800E-03
 -1      3375-2.35080E-02-8.50800E-03 9.72600E-03
 -1      3376-2.49360E-02-1.79200E-03 2.47900E-03
 -1      3377 1.48380E-02-2.01200E-02 2.39900E-03
 -1      3378 1.68040E-02-1.85100E-02 2.37900E-03
 -1      3379 1.58440E-02-1.93380E-02 4.45800E-03
 -1      3380-2.85300E-03-2.48370E-02 4.71700E-03
 -1      3381-5.05600E-03-2.44830E-02 4.35000E-03
 -1      3382 1.85050E-02-1.68100E-02 2.38100E-03
 -1      3383 1.38600E-02-2.08070E-02 5.09500E-03
 -1      3384-1.17570E-02-2.20630E-02 6.90100E-03
 -1      3385 2.49010E-02-2.22700E-03 9.24200E-03
 -1      3386 2.46990E-02-3.87000E-03 5.92100E-03
 -1      3387 8.50100E-03-2.35100E-02 9.60200E-03
 -1      3388 7.29900E-03-2.39110E-02 7.54500E-03
 -1      3389 9.60800E-03-2.30800E-02 6.90100E-03
 -1      3390-2.38610E-02-7.46100E-03 7.25600E-03
 -1      3391-2.20140E-02-1.18490E-02 6.92400E-03
 -1      3392-2.25470E-02-1.08000E-02 9.63700E-03
 -1      3393-2.30490E-02-9.68200E-03 7.62900E-03
 -1      3394-5.95400E-03-2.42810E-02 9.62900E-03
 -1      3395-8.49100E-03-2.35140E-02 2.47700E-03
 -1      3396-6.21000E-03-2.42160E-02 2.35400E-03
 -1      3397-7.33300E-03-2.39000E-02 5.08100E-03
 -1      3398 1.15100E-03-2.49740E-02 2.51800E-03
 -1      3399 1.07330E-02-2.25790E-02 9.51200E-03
 -1      3400 2.01190E-02-1.48400E-02 2.40800E-03
 -1      3401 2.07860E-02-1.38900E-02 5.11600E-03
 -1      3402 2.42470E-02-6.09000E-03 2.11500E-03
 -1      3403 2.49060E-02-2.16700E-03 6.99800E-03
 -1      3404 6.07200E-03-2.42510E-02 2.37200E-03
 -1      3405-4.82200E-03-2.45300E-02 6.90200E-03
 -1      3406-1.67770E-02-1.85340E-02 2.28900E-03
 -1      3407 8.34300E-03-2.35670E-02 2.33500E-03
 -1      3408 2.38530E-02-7.48700E-03 7.16600E-03
 -1      3409 2.45630E-02-4.65200E-03 7.97000E-03
 -1      3410 2.00070E-02-1.49900E-02 9.68100E-03
 -1      3411 7.23800E-03-2.39290E-02 5.02000E-03
 -1      3412 6.09200E-03-2.42460E-02 9.63100E-03
 -1      3413 3.78300E-03-2.47120E-02 9.67500E-03
 -1      3414 4.92900E-03-2.45090E-02 6.98200E-03
 -1      3415-2.45660E-02-4.63800E-03 7.99500E-03
 -1      3416 2.18240E-02-1.21940E-02 7.30500E-03
 -1      3417 2.06740E-02-1.40560E-02 7.68000E-03
 -1      3418-1.48500E-02-2.01110E-02 2.32700E-03
 -1      3419-1.07280E-02-2.25810E-02 2.27900E-03
 -1      3420 1.85230E-02-1.67900E-02 9.64300E-03
 -1      3421 1.92850E-02-1.59080E-02 6.98500E-03
 -1      3422-2.00810E-02-1.48910E-02 2.51500E-03
 -1      3423-1.34600E-03-2.49640E-02 2.40600E-03
 -1      3424 1.06550E-02-2.26160E-02 2.28400E-03
 -1      3425 1.28160E-02-2.14650E-02 2.48600E-03
 -1      3426 1.15270E-02-2.21840E-02 4.77700E-03
 -1      3427-1.78570E-02-1.74970E-02 7.24200E-03
 -1      3428-1.93180E-02-1.58690E-02 5.15900E-03
 -1      3429-1.93150E-02-1.58720E-02 7.74800E-03
 -1      3430-2.46670E-02-4.06700E-03 1.01840E-02
 -1      3431-2.46950E-02-3.89500E-03 5.93900E-03
 -1      3432-2.06240E-02-1.41300E-02 7.24700E-03
 -1      3433-2.09300E-02-1.36730E-02 4.80000E-03
 -1      3434-2.20890E-02-1.17070E-02 4.37500E-03
 -1      3435-9.85400E-03-2.29760E-02 4.77600E-03
 -1      3436 2.62500E-03-2.48620E-02 7.67300E-03
 -1      3437 9.46300E-03-2.31400E-02 4.34900E-03
 -1      3438 2.39760E-02-7.08300E-03 4.38300E-03
 -1      3439 2.43400E-02-5.70500E-03 5.96600E-03
 -1      3440 1.76670E-02-1.76880E-02 5.03700E-03
 -1      3441 1.76630E-02-1.76920E-02 7.57200E-03
 -1      3442 1.93230E-02-1.58630E-02 4.46400E-03
 -1      3443-7.13400E-03-2.39600E-02 7.62400E-03
 -1      3444-2.43310E-02-5.74300E-03 6.00900E-03
 -1      3445-1.53680E-02-2.26280E-02 8.77500E-03
 -1      3446-4.95010E-02 8.98500E-03 5.70300E-03
 -1      3447-4.70400E-02 3.61880E-02 8.21400E-03
 -1      3448 1.83360E-02 3.83280E-02 5.95500E-03
 -1      3449-5.45340E-02 1.80550E-02 5.65500E-03
 -1      3450-2.46210E-02-3.61480E-02 5.94800E-03
 -1      3451 1.58890E-02 3.62860E-02 3.28800E-03
 -1      3452 6.82500E-03-3.63310E-02 4.14100E-03
 -1      3453-2.69120E-02-3.13410E-02 5.48900E-03
 -1      3454 4.07980E-02 3.61510E-02 3.92100E-03
 -1      3455 3.14050E-02-3.61570E-02 3.56300E-03
 -1      3456 1.58670E-02-3.63660E-02 5.96200E-03
 -1      3457-3.15680E-02-2.25530E-02 6.02700E-03
 -1      3458 1.35520E-02-3.18950E-02 6.18100E-03
 -1      3459 1.15190E-02-2.66800E-02 6.15700E-03
 -1      3460-3.60350E-02-1.33810E-02 6.05500E-03
 -1      3461-1.98380E-02-1.79130E-02 3.41100E-03
 -1      3462-1.36260E-02 2.41920E-02 6.21100E-03
 -1      3463-4.05890E-02-3.60010E-02 8.09000E-03
 -1      3464 2.64730E-02-6.66300E-03 8.74100E-03
 -1      3465 2.68220E-02 9.33600E-03 3.16300E-03
 -1      3466-6.62300E-03-3.62860E-02 8.69100E-03
 -1      3467 5.01520E-02 3.14660E-02 8.39100E-03
 -1      3468-1.13000E-02-2.42370E-02 3.64900E-03
 -1      3469-4.07620E-02-4.48000E-03 5.95400E-03
 -1      3470 2.80000E-05-3.60080E-02 7.96600E-03
 -1      3471-4.27920E-02-3.83300E-02 3.90900E-03
 -1      3472-1.13500E-02-2.63640E-02 7.94200E-03
 -1      3473-2.04060E-02 3.82070E-02 5.90900E-03
 -1      3474 3.38710E-02-3.61000E-02 8.80800E-03
 -1      3475-4.51100E-02 4.52500E-03 5.97200E-03
 -1      3476-1.81200E-02-3.84160E-02 3.75500E-03
 -1      3477 2.05880E-02 3.83010E-02 6.20400E-03
 -1      3478-4.96640E-02 1.34740E-02 5.91400E-03
 -1      3479-2.24510E-02-3.56680E-02 5.91100E-03
 -1      3480-5.45000E-02 2.29500E-02 6.14200E-03
 -1      3481-4.71350E-02-3.83940E-02 7.92800E-03
 -1      3482-2.70220E-02-2.71710E-02 6.01700E-03
 -1      3483-3.61780E-02 3.82640E-02 8.09700E-03
 -1      3484 1.81020E-02-3.57600E-02 5.91500E-03
 -1      3485-2.02600E-03 3.82980E-02 7.91800E-03
 -1      3486 1.59620E-02-3.82480E-02 3.99900E-03
 -1      3487 9.10300E-03 2.69150E-02 3.53500E-03
 -1      3488-3.16200E-02-1.79750E-02 6.21700E-03
 -1      3489 4.93950E-02 3.36130E-02 3.79500E-03
 -1      3490 1.40440E-02-2.71930E-02 6.29500E-03
 -1      3491 4.29800E-03 3.83150E-02 8.21000E-03
 -1      3492 4.06490E-02-3.84390E-02 3.90200E-03
 -1      3493 3.84700E-02 3.82880E-02 8.13500E-03
 -1      3494 1.79630E-02 1.99340E-02 3.53500E-03
 -1      3495-1.13750E-02 2.44700E-02 5.93600E-03
 -1      3496 5.39800E-02 2.71380E-02 8.42800E-03
 -1      3497-3.60790E-02-8.98900E-03 6.00900E-03
 -1      3498 2.66590E-02 1.31860E-02 3.20800E-03
 -1      3499-4.10970E-02-3.30000E-05 5.73700E-03
 -1      3500-1.83220E-02 3.83290E-02 6.00600E-03
 -1      3501-3.37060E-02 3.82880E-02 3.84900E-03
 -1      3502-2.25180E-02 1.50340E-02 8.94200E-03
 -1      3503-9.03300E-03 3.84070E-02 3.83200E-03
 -1      3504-4.50950E-02 8.94500E-03 5.96600E-03
 -1      3505-4.31040E-02 3.60130E-02 8.61800E-03
 -1      3506 2.28380E-02 3.80930E-02 6.15400E-03
 -1      3507-5.39200E-02-3.56340E-02 1.03230E-02
 -1      3508-4.97520E-02 1.82940E-02 5.53800E-03
 -1      3509-2.03110E-02-3.61840E-02 5.91800E-03
 -1      3510-2.21410E-02-3.15300E-02 5.33000E-03
 -1      3511 1.32860E-02 2.43100E-02 8.69800E-03
 -1      3512 2.48390E-02-1.38720E-02 9.14000E-03
 -1      3513-5.45400E-02 2.72350E-02 5.65900E-03
 -1      3514 2.02830E-02-3.62110E-02 5.92100E-03
 -1      3515 6.60300E-03-2.67240E-02 2.88100E-03
 -1      3516-2.70510E-02-2.25590E-02 5.94800E-03
 -1      3517-2.10000E-05 3.81350E-02 3.84600E-03
 -1      3518 1.83780E-02-3.15080E-02 6.20400E-03
 -1      3519 2.51400E-02 3.83080E-02 3.95800E-03
 -1      3520 5.14620E-02-3.10190E-02 1.05120E-02
 -1      3521 5.69590E-02-2.72020E-02 3.23700E-03
 -1      3522-3.15060E-02-1.34370E-02 6.05200E-03
 -1      3523-3.62620E-02-3.60870E-02 8.22100E-03
 -1      3524-2.15100E-03-3.60770E-02 8.03900E-03
 -1      3525 5.38270E-02 3.14330E-02 8.37400E-03
 -1      3526-3.61540E-02-4.46500E-03 5.49300E-03
 -1      3527 4.32900E-03-3.61690E-02 8.60400E-03
 -1      3528-6.57700E-03-2.64540E-02 8.84700E-03
 -1      3529-1.59850E-02 3.83760E-02 6.01200E-03
 -1      3530 3.84440E-02-3.61700E-02 9.09300E-03
 -1      3531-4.07680E-02 4.62400E-03 6.25200E-03
 -1      3532-4.95500E-02 3.61400E-02 4.09600E-03
 -1      3533 2.46510E-02 3.81330E-02 6.14800E-03
 -1      3534-4.51290E-02 1.33300E-02 6.00500E-03
 -1      3535-2.44650E-02 3.60990E-02 3.42200E-03
 -1      3536-1.80140E-02-3.57550E-02 5.77500E-03
 -1      3537-3.36960E-02-3.63130E-02 3.29500E-03
 -1      3538 1.79260E-02 1.98300E-02 8.45900E-03
 -1      3539-4.95330E-02 2.25440E-02 6.37800E-03
 -1      3540-8.93100E-03-3.59410E-02 3.78200E-03
 -1      3541-4.28660E-02-3.82570E-02 8.11400E-03
 -1      3542-2.24590E-02-2.70640E-02 6.24400E-03
 -1      3543-3.16000E-02 3.84100E-02 8.21100E-03
 -1      3544 2.23120E-02-3.56900E-02 5.83800E-03
 -1      3545-5.41280E-02 3.11200E-02 6.32300E-03
 -1      3546 5.30390E-02 2.95920E-02 1.60600E-03
 -1      3547 2.22100E-02-1.52100E-02 3.06900E-03
 -1      3548-2.25340E-02 1.53240E-02 3.67300E-03
 -1      3549-2.70320E-02-1.77130E-02 6.14400E-03
 -1      3550 1.81210E-02-2.69710E-02 5.97300E-03
 -1      3551 9.01800E-03 3.84030E-02 8.14400E-03
 -1      3552 4.27280E-02 3.84780E-02 8.09600E-03
 -1      3553 1.55050E-02-2.22800E-02 6.26700E-03
 -1      3554 8.90500E-03 3.62370E-02 3.97700E-03
 -1      3555-3.14240E-02-8.98300E-03 5.92800E-03
 -1      3556 1.88000E-04-3.60170E-02 4.02600E-03
 -1      3557 3.38500E-02 3.60450E-02 3.30200E-03
 -1      3558 2.46880E-02-3.61800E-02 3.45400E-03
 -1      3559-3.61820E-02 1.40000E-05 5.95300E-03
 -1      3560-1.35980E-02 3.83990E-02 6.01100E-03
 -1      3561 2.61780E-02 6.64000E-03 8.67300E-03
 -1      3562-4.06080E-02 8.90600E-03 5.94500E-03
 -1      3563-3.82110E-02 3.61470E-02 8.76400E-03
 -1      3564 6.61300E-03 2.66550E-02 8.91500E-03
 -1      3565 2.65670E-02 3.82580E-02 5.80900E-03
 -1      3566 2.23820E-02 1.50930E-02 8.46300E-03
 -1      3567-4.51680E-02 1.80810E-02 6.26400E-03
 -1      3568-1.59710E-02-3.62430E-02 6.27800E-03
 -1      3569 4.98500E-02-3.37880E-02 8.32500E-03
 -1      3570 2.06700E-03 3.62020E-02 7.88500E-03
 -1      3571-1.81120E-02-3.16300E-02 5.91400E-03
 -1      3572-4.95340E-02 2.70250E-02 6.30600E-03
 -1      3573-4.93980E-02-3.83350E-02 3.92600E-03
 -1      3574 2.44710E-02-3.62780E-02 6.24700E-03
 -1      3575-2.44790E-02-3.83730E-02 4.03200E-03
 -1      3576-2.24630E-02-2.25650E-02 5.71200E-03
 -1      3577 2.28170E-02-3.14590E-02 5.67100E-03
 -1      3578-5.46640E-02 3.54720E-02 5.72900E-03
 -1      3579-6.41800E-03 2.64880E-02 2.68600E-03
 -1      3580-2.71760E-02-1.34270E-02 5.92300E-03
 -1      3581 1.82190E-02-2.27070E-02 6.08100E-03
 -1      3582-2.45230E-02 1.30410E-02 8.69300E-03
 -1      3583-3.14410E-02-3.59440E-02 8.62000E-03
 -1      3584-3.11770E-02-4.30800E-03 6.10500E-03
 -1      3585 9.13800E-03-3.59370E-02 8.33600E-03
 -1      3586-1.12640E-02 3.84240E-02 6.03500E-03
 -1      3587 4.28360E-02-3.61040E-02 8.42000E-03
 -1      3588-3.61220E-02 4.55800E-03 6.42900E-03
 -1      3589 9.11000E-03-3.84130E-02 3.81700E-03
 -1      3590 4.98800E-02-3.18830E-02 3.87200E-03
 -1      3591 4.44200E-03-2.67320E-02 8.53900E-03
 -1      3592-1.77930E-02 1.98990E-02 8.65900E-03
 -1      3593 2.63530E-02 1.11300E-02 8.29100E-03
 -1      3594 3.35240E-02-3.85150E-02 3.92600E-03
 -1      3595 2.91560E-02 3.84360E-02 5.62800E-03
 -1      3596-4.08370E-02 1.32660E-02 5.80000E-03
 -1      3597-2.67620E-02-1.32980E-02 2.92800E-03
 -1      3598-1.36350E-02-3.57510E-02 5.94400E-03
 -1      3599-4.49460E-02 2.26000E-02 6.11200E-03
 -1      3600-1.81030E-02-1.99410E-02 3.46700E-03
 -1      3601-3.83300E-02-3.82870E-02 8.20100E-03
 -1      3602-1.80160E-02-2.74560E-02 6.25300E-03
 -1      3603-2.65930E-02 3.83710E-02 8.02500E-03
 -1      3604 2.68780E-02-3.58110E-02 6.06500E-03
 -1      3605-4.05320E-02 3.83350E-02 3.90500E-03
 -1      3606-4.95830E-02 3.14480E-02 6.29500E-03
 -1      3607-9.05700E-03-2.69650E-02 3.41100E-03
 -1      3608-1.57790E-02 3.83880E-02 3.84300E-03
 -1      3609-5.18870E-02 3.63000E-02 5.96000E-03
 -1      3610 1.98300E-03-3.82550E-02 7.76700E-03
 -1      3611-2.27800E-02-1.81810E-02 5.97700E-03
 -1      3612 2.27610E-02-2.67940E-02 5.91500E-03
 -1      3613 1.34480E-02 3.84140E-02 8.17200E-03
 -1      3614-2.44850E-02-1.34220E-02 5.76500E-03
 -1      3615-2.72210E-02-8.99100E-03 5.90300E-03
 -1      3616-3.14570E-02 6.60000E-05 6.03300E-03
 -1      3617-8.90400E-03 3.84050E-02 6.06800E-03
 -1      3618 1.81430E-02 3.83240E-02 3.76400E-03
 -1      3619-3.60370E-02 9.00500E-03 5.98400E-03
 -1      3620-3.38110E-02 3.61410E-02 8.76000E-03
 -1      3621 1.11530E-02 2.68730E-02 8.69600E-03
 -1      3622 4.27280E-02 3.84340E-02 3.90200E-03
 -1      3623 3.14180E-02 3.81910E-02 6.15100E-03
 -1      3624-5.36110E-02-3.57200E-02 1.80600E-03
 -1      3625-4.05650E-02 1.80080E-02 6.03500E-03
 -1      3626-1.11180E-02-3.62060E-02 5.70900E-03
 -1      3627 1.13880E-02 2.44270E-02 3.79500E-03
 -1      3628 5.21020E-02 3.14240E-02 3.64000E-03
 -1      3629 6.72900E-03 3.62860E-02 8.91200E-03
 -1      3630-2.69970E-02-8.93300E-03 3.32500E-03
 -1      3631-1.35640E-02-3.19250E-02 6.31100E-03
 -1      3632 1.97820E-02 1.82690E-02 3.13500E-03
 -1      3633-4.47220E-02 2.66570E-02 5.17800E-03
 -1      3634 2.93010E-02-3.62610E-02 6.19900E-03
 -1      3635-1.80880E-02-2.24970E-02 6.27000E-03
 -1      3636 2.69020E-02-3.15970E-02 6.29500E-03
 -1      3637-4.96950E-02 3.57340E-02 6.14900E-03
 -1      3638-2.01800E-02-1.78670E-02 6.10800E-03
 -1      3639 5.19410E-02 3.38080E-02 8.22900E-03
 -1      3640-3.12600E-02 3.62210E-02 3.75700E-03
 -1      3641 2.25050E-02-2.21170E-02 5.82700E-03
 -1      3642-2.66200E-02-3.62220E-02 8.16800E-03
 -1      3643-4.05250E-02-3.60780E-02 3.93200E-03
 -1      3644-6.54500E-03 3.62800E-02 3.19000E-03
 -1      3645 1.97870E-02-1.79410E-02 6.04600E-03
 -1      3646-1.57900E-02-3.62340E-02 3.54200E-03
 -1      3647-2.64610E-02-4.65600E-03 5.79800E-03
 -1      3648-5.13220E-02-3.85070E-02 5.86500E-03
 -1      3649 1.36570E-02-3.63430E-02 8.32200E-03
 -1      3650-6.49100E-03 3.84360E-02 5.87700E-03
 -1      3651 4.82390E-02-3.59650E-02 8.49900E-03
 -1      3652-3.14360E-02 4.29700E-03 5.74000E-03
 -1      3653 1.50890E-02 2.26410E-02 8.70400E-03
 -1      3654 9.09400E-03-2.69580E-02 8.52400E-03
 -1      3655 3.34270E-02 3.83580E-02 6.07200E-03
 -1      3656-3.60020E-02 1.34060E-02 5.95100E-03
 -1      3657-5.15000E-02-3.55940E-02 1.50600E-03
 -1      3658 2.14100E-03 3.61070E-02 3.63800E-03
 -1      3659-8.94400E-03-3.54680E-02 5.74700E-03
 -1      3660 2.71490E-02 3.58860E-02 3.69100E-03
 -1      3661-4.04890E-02 2.30650E-02 5.80100E-03
 -1      3662 1.80060E-02-3.60290E-02 3.51000E-03
 -1      3663 5.39410E-02-2.96490E-02 7.70300E-03
 -1      3664 4.53020E-02 3.52420E-02 1.02160E-02
 -1      3665-2.66220E-02-4.66800E-03 3.17500E-03
 -1      3666-3.39890E-02-3.84130E-02 8.22100E-03
 -1      3667-1.34060E-02-2.72350E-02 6.01700E-03
 -1      3668 4.28220E-02-3.64510E-02 3.90600E-03
 -1      3669-2.27370E-02 3.82070E-02 8.00600E-03
 -1      3670 3.14110E-02-3.57120E-02 5.66100E-03
 -1      3671-4.50570E-02 3.10760E-02 6.12100E-03
 -1      3672-1.53390E-02-2.25350E-02 5.71600E-03
 -1      3673-4.75610E-02 3.62300E-02 6.00100E-03
 -1      3674 6.68600E-03-3.84450E-02 8.21200E-03
 -1      3675 2.71680E-02-2.69660E-02 5.71500E-03
 -1      3676 1.83660E-02 3.83660E-02 8.04500E-03
 -1      3677 2.25930E-02-1.80520E-02 6.04200E-03
 -1      3678-2.00720E-02 1.84120E-02 8.77400E-03
 -1      3679-4.92660E-02-3.84240E-02 6.30300E-03
 -1      3680-2.70310E-02 2.75000E-04 6.08300E-03
 -1      3681-3.15430E-02-3.84700E-02 3.81000E-03
 -1      3682 2.00280E-02 1.81190E-02 8.74700E-03
 -1      3683-3.99900E-03 3.83680E-02 6.02300E-03
 -1      3684-6.63000E-03-3.84300E-02 3.81900E-03
 -1      3685-1.33150E-02 2.69000E-02 3.32400E-03
 -1      3686-3.13670E-02 8.95700E-03 5.99100E-03
 -1      3687-2.92770E-02 3.62800E-02 8.89600E-03
 -1      3688 3.59370E-02 3.84720E-02 6.01100E-03
 -1      3689-1.34560E-02 2.44700E-02 9.06200E-03
 -1      3690-3.59900E-02 1.80780E-02 6.03300E-03
 -1      3691-6.92600E-03-3.62500E-02 5.97300E-03
 -1      3692 1.13170E-02 3.61290E-02 8.64300E-03
 -1      3693-8.86700E-03-3.15500E-02 6.53300E-03
 -1      3694 4.78190E-02 3.59240E-02 1.04250E-02
 -1      3695-4.05020E-02 2.68310E-02 6.03700E-03
 -1      3696-1.08030E-02-2.66340E-02 5.83000E-03
 -1      3697 3.35020E-02-3.62570E-02 6.19100E-03
 -1      3698 2.29100E-03-3.82360E-02 3.95700E-03
 -1      3699 3.14810E-02-3.15140E-02 5.96000E-03
 -1      3700 2.67850E-02-3.84570E-02 3.53000E-03
 -1      3701-4.51640E-02 3.56260E-02 6.09500E-03
 -1      3702 1.43000E-04 2.69830E-02 5.38100E-03
 -1      3703 2.69700E-02-2.25340E-02 5.95900E-03
 -1      3704-2.24220E-02-3.60960E-02 7.99200E-03
 -1      3705-4.70290E-02-3.81850E-02 6.14600E-03
 -1      3706 2.40190E-02 1.35850E-02 8.29500E-03
 -1      3707 1.81070E-02-3.61600E-02 8.17000E-03
 -1      3708-4.71110E-02 3.84080E-02 4.14500E-03
 -1      3709-2.00900E-03 3.81670E-02 5.91800E-03
 -1      3710-2.22620E-02 3.82830E-02 3.64600E-03
 -1      3711-2.65980E-02 4.42300E-03 6.00300E-03
 -1      3712 1.34830E-02-2.66520E-02 8.97000E-03
 -1      3713 3.86810E-02 3.84770E-02 5.92100E-03
 -1      3714-3.13500E-02 1.34930E-02 6.04600E-03
 -1      3715-4.35900E-03-3.57890E-02 6.00100E-03
 -1      3716 2.44060E-02-1.34930E-02 3.73300E-03
 -1      3717-3.60020E-02 2.26600E-02 5.63900E-03
 -1      3718-1.97820E-02 1.80300E-02 3.30900E-03
 -1      3719-2.91310E-02-3.84480E-02 8.21600E-03
 -1      3720-8.65700E-03-2.74350E-02 5.72600E-03
 -1      3721-1.83060E-02 3.83220E-02 8.04300E-03
 -1      3722 3.59420E-02-3.55620E-02 6.05200E-03
 -1      3723-4.04200E-02 3.12600E-02 5.81300E-03
 -1      3724 1.12690E-02 3.83410E-02 3.81100E-03
 -1      3725-2.64690E-02 3.78400E-03 3.64100E-03
 -1      3726-4.27840E-02 3.60990E-02 5.68700E-03
 -1      3727 1.13120E-02-3.83130E-02 8.11600E-03
 -1      3728 3.61180E-02 3.86170E-02 4.03700E-03
 -1      3729 3.14140E-02-2.74030E-02 5.69200E-03
 -1      3730 2.22330E-02 3.82050E-02 8.01700E-03
 -1      3731 3.00000E-06 3.16510E-02 6.14900E-03
 -1      3732 5.18590E-02-3.38570E-02 4.01800E-03
 -1      3733 2.68910E-02-1.78010E-02 5.94400E-03
 -1      3734 2.41120E-02-1.36690E-02 6.25100E-03
 -1      3735-4.52140E-02-3.82450E-02 5.80200E-03
 -1      3736 5.16040E-02-3.19210E-02 8.38200E-03
 -1      3737-1.52980E-02-2.24110E-02 2.92300E-03
 -1      3738-2.72030E-02 8.93600E-03 5.96900E-03
 -1      3739-2.44520E-02 3.61070E-02 8.32000E-03
 -1      3740-3.82210E-02 3.59990E-02 3.25400E-03
 -1      3741 4.06160E-02 3.84710E-02 5.99900E-03
 -1      3742-4.73110E-02-3.60470E-02 3.44700E-03
 -1      3743-1.34940E-02 3.62140E-02 3.65900E-03
 -1      3744-3.14030E-02 1.81870E-02 6.04600E-03
 -1      3745-2.00800E-03-3.62110E-02 5.81300E-03
 -1      3746-2.24630E-02-3.62070E-02 3.85600E-03
 -1      3747 5.41520E-02 3.17220E-02 1.05610E-02
 -1      3748 1.57790E-02 3.65080E-02 8.06400E-03
 -1      3749-4.12300E-03-3.16000E-02 5.74300E-03
 -1      3750-3.60360E-02 2.69650E-02 5.93300E-03
 -1      3751-6.65100E-03-2.67210E-02 6.09600E-03
 -1      3752 3.84270E-02-3.62190E-02 6.44300E-03
 -1      3753 3.60830E-02-3.15720E-02 5.89000E-03
 -1      3754-4.06930E-02 3.55800E-02 6.27400E-03
 -1      3755 1.76120E-02-2.22480E-02 3.59300E-03
 -1      3756 4.24600E-03 2.71780E-02 5.83900E-03
 -1      3757-2.69210E-02 8.96000E-03 3.48900E-03
 -1      3758 3.14880E-02-2.25920E-02 5.97500E-03
 -1      3759-1.81470E-02-3.62450E-02 7.96500E-03
 -1      3760 2.02920E-02 3.61480E-02 3.25100E-03
 -1      3761-3.00000E-05 3.56860E-02 5.91000E-03
 -1      3762 1.13940E-02-3.61740E-02 3.25700E-03
 -1      3763 4.48190E-02 3.57380E-02 3.65200E-03
 -1      3764 2.67830E-02-1.38610E-02 6.13600E-03
 -1      3765-4.31460E-02-3.83140E-02 6.24900E-03
 -1      3766-1.48750E-02 2.24230E-02 8.25100E-03
 -1      3767 3.60690E-02-3.62520E-02 3.59700E-03
 -1      3768 2.24320E-02-3.59710E-02 8.75800E-03
 -1      3769 5.37100E-02 2.99250E-02 3.84600E-03
 -1      3770-2.44160E-02-1.10800E-02 3.64600E-03
 -1      3771 2.22900E-02 1.51700E-02 3.24300E-03
 -1      3772 4.25160E-02 3.82880E-02 5.99800E-03
 -1      3773-2.70510E-02 1.34090E-02 6.03900E-03
 -1      3774-3.14960E-02 2.30030E-02 6.20600E-03
 -1      3775-2.44840E-02-3.83120E-02 8.21000E-03
 -1      3776-3.82980E-02-3.82620E-02 3.85000E-03
 -1      3777-4.10300E-03-2.71980E-02 5.79900E-03
 -1      3778-1.34390E-02 3.84170E-02 8.19100E-03
 -1      3779 4.07170E-02-3.57950E-02 5.89300E-03
 -1      3780-3.59870E-02 3.13490E-02 5.96900E-03
 -1      3781-1.34620E-02-3.84580E-02 3.74500E-03
 -1      3782-3.85880E-02 3.61490E-02 6.09700E-03
 -1      3783 1.58270E-02-3.83570E-02 8.12800E-03
 -1      3784 6.59900E-03 2.65730E-02 6.02200E-03
 -1      3785 3.60520E-02-2.72070E-02 5.95900E-03
 -1      3786 2.66520E-02 3.83540E-02 8.01400E-03
 -1      3787 4.36300E-03 3.18570E-02 6.42200E-03
 -1      3788-2.65990E-02 1.32840E-02 2.98700E-03
 -1      3789 2.08500E-03 3.62090E-02 5.89000E-03
 -1      3790 3.13910E-02-1.80780E-02 6.00600E-03
 -1      3791-4.08720E-02-3.83050E-02 6.21300E-03
 -1      3792 2.73950E-02-8.80100E-03 5.76500E-03
 -1      3793 2.01130E-02-3.81360E-02 3.91500E-03
 -1      3794 1.36130E-02 2.68080E-02 3.83500E-03
 -1      3795-5.45980E-02 3.63000E-02 7.93400E-03
 -1      3796-6.00000E-06-3.82040E-02 5.97300E-03
 -1      3797-2.02430E-02 3.60600E-02 8.76400E-03
 -1      3798-2.66770E-02-1.39070E-02 8.82500E-03
 -1      3799 1.73780E-02-2.24530E-02 9.00400E-03
 -1      3800-2.40140E-02 1.36100E-02 6.08000E-03
 -1      3801-2.69050E-02 1.81470E-02 6.10000E-03
 -1      3802 2.04740E-02 3.60490E-02 8.57000E-03
 -1      3803-3.15550E-02 2.70650E-02 5.60900E-03
 -1      3804 4.27660E-02-3.62680E-02 6.05800E-03
 -1      3805-2.92100E-02 3.84500E-02 3.72300E-03
 -1      3806 4.05410E-02-3.16460E-02 5.91500E-03
 -1      3807-4.27900E-03 3.84300E-02 3.68700E-03
 -1      3808-3.60310E-02 3.57000E-02 6.05200E-03
 -1      3809 9.02800E-03 2.73530E-02 6.00700E-03
 -1      3810 3.59470E-02-2.26780E-02 5.99200E-03
 -1      3811-1.38030E-02-3.56540E-02 7.99900E-03
 -1      3812-1.12690E-02 2.45960E-02 3.83900E-03
 -1      3813 4.08100E-03 3.56950E-02 6.01900E-03
 -1      3814 1.11510E-02-2.43690E-02 8.37800E-03
 -1      3815 3.13160E-02-1.35040E-02 6.02500E-03
 -1      3816-3.85570E-02-3.83640E-02 6.14800E-03
 -1      3817 2.68260E-02-3.62690E-02 8.44500E-03
 -1      3818 1.09190E-02-2.65870E-02 3.66300E-03
 -1      3819 4.13700E-03 3.83580E-02 4.08500E-03
 -1      3820 2.64860E-02-4.12800E-03 6.26700E-03
 -1      3821 1.88900E-03-3.81290E-02 5.67500E-03
 -1      3822-2.22430E-02-1.77120E-02 8.44600E-03
 -1      3823 2.91220E-02 3.83330E-02 3.71800E-03
 -1      3824 4.93820E-02 3.36740E-02 6.07200E-03
 -1      3825 5.63330E-02-2.75610E-02 8.43800E-03
 -1      3826-2.68670E-02-8.99000E-03 8.46800E-03
 -1      3827-2.70010E-02 2.27410E-02 6.35100E-03
 -1      3828-1.99220E-02-3.82910E-02 7.99500E-03
 -1      3829-8.89600E-03 3.85420E-02 8.35500E-03
 -1      3830 4.48530E-02-3.60420E-02 5.91200E-03
 -1      3831-3.15510E-02 3.15010E-02 5.58700E-03
 -1      3832-3.36180E-02 3.62180E-02 6.21600E-03
 -1      3833 2.06160E-02-3.82530E-02 8.00900E-03
 -1      3834-4.48270E-02 3.57870E-02 3.09000E-03
 -1      3835 1.15440E-02 2.67790E-02 6.01600E-03
 -1      3836 4.05700E-02-2.72350E-02 5.95800E-03
 -1      3837 3.13660E-02 3.83180E-02 8.13900E-03
 -1      3838-5.44650E-02-3.59980E-02 3.35000E-03
 -1      3839 8.94500E-03 3.19910E-02 7.02800E-03
 -1      3840-2.02120E-02 3.59430E-02 3.27000E-03
 -1      3841-2.91820E-02-3.62930E-02 3.23500E-03
 -1      3842 5.12000E-02 3.12480E-02 1.45900E-03
 -1      3843 6.64800E-03 3.62030E-02 6.12600E-03
 -1      3844 3.59060E-02-1.80790E-02 5.98800E-03
 -1      3845-4.22000E-03-3.62730E-02 3.67000E-03
 -1      3846 4.10230E-02 3.56050E-02 1.03550E-02
 -1      3847-3.60350E-02-3.83950E-02 5.89000E-03
 -1      3848 4.13970E-02-3.53120E-02 1.69400E-03
 -1      3849 3.13710E-02-8.96100E-03 5.97400E-03
 -1      3850-1.11170E-02 2.68690E-02 8.85700E-03
 -1      3851-1.78870E-02-2.26740E-02 9.40700E-03
 -1      3852 5.39850E-02 2.94580E-02 6.32300E-03
 -1      3853-4.93300E-02 3.61510E-02 8.19300E-03
 -1      3854 3.89400E-03-3.83250E-02 5.96100E-03
 -1      3855 5.16330E-02 3.35290E-02 6.02800E-03
 -1      3856 2.68480E-02 1.87000E-04 6.09300E-03
 -1      3857-1.54840E-02 3.61960E-02 8.24800E-03
 -1      3858 1.34730E-02 3.58000E-02 3.54800E-03
 -1      3859-2.29980E-02 1.81840E-02 6.05500E-03
 -1      3860 4.31700E-03-3.60000E-02 3.68900E-03
 -1      3861 3.83860E-02 3.60040E-02 3.42400E-03
 -1      3862 2.44650E-02 3.59730E-02 8.54400E-03
 -1      3863-2.62620E-02-4.06700E-03 8.40400E-03
 -1      3864 2.91370E-02-3.61250E-02 3.34700E-03
 -1      3865-2.69860E-02 2.71100E-02 5.94300E-03
 -1      3866 4.78970E-02-3.58320E-02 6.42300E-03
 -1      3867 1.53070E-02 2.25550E-02 5.77600E-03
 -1      3868 4.49960E-02-3.15520E-02 5.82700E-03
 -1      3869-3.16220E-02 3.54990E-02 5.99600E-03
 -1      3870 1.35780E-02 2.75120E-02 6.21200E-03
 -1      3871-2.22280E-02-1.75620E-02 3.72700E-03
 -1      3872 4.05500E-02-2.27730E-02 5.95600E-03
 -1      3873-8.92600E-03-3.62350E-02 7.96100E-03
 -1      3874-1.36720E-02-2.43260E-02 3.37600E-03
 -1      3875 9.08700E-03 3.57740E-02 6.29600E-03
 -1      3876 5.32390E-02-2.93950E-02 1.04290E-02
 -1      3877 3.59060E-02-1.33910E-02 6.37900E-03
 -1      3878-3.36890E-02-3.84360E-02 5.98200E-03
 -1      3879-4.49800E-02-3.82950E-02 3.82300E-03
 -1      3880-1.35480E-02-2.66340E-02 8.88000E-03
 -1      3881 3.13720E-02-3.61640E-02 8.12900E-03
 -1      3882-2.05880E-02-3.83840E-02 3.95200E-03
 -1      3883 3.12300E-02-4.41900E-03 6.06700E-03
 -1      3884 6.49700E-03-3.84300E-02 6.02400E-03
 -1      3885 2.63330E-02-1.13500E-02 3.82700E-03
 -1      3886-1.79930E-02 1.98420E-02 3.24000E-03
 -1      3887 2.69480E-02 4.68200E-03 6.05100E-03
 -1      3888 2.22320E-02-1.77470E-02 8.64800E-03
 -1      3889-1.98880E-02 1.81110E-02 6.01100E-03
 -1      3890-4.92390E-02-3.83270E-02 8.30000E-03
 -1      3891-2.25400E-02 2.23300E-02 6.45600E-03
 -1      3892 1.96480E-02 1.82670E-02 5.86500E-03
 -1      3893-4.28700E-03 3.84350E-02 8.13300E-03
 -1      3894 1.36110E-02-3.85080E-02 3.70800E-03
 -1      3895 6.93600E-03 2.64780E-02 3.32200E-03
 -1      3896-2.69060E-02 3.12900E-02 6.15900E-03
 -1      3897 1.77260E-02 2.24640E-02 5.98200E-03
 -1      3898 5.36700E-02-3.14960E-02 3.54000E-03
 -1      3899 3.86050E-02-3.83450E-02 3.46000E-03
 -1      3900-2.91840E-02 3.62030E-02 5.96600E-03
 -1      3901 2.43950E-02-3.83900E-02 8.10200E-03
 -1      3902 4.50080E-02-2.71720E-02 5.94400E-03
 -1      3903 3.62930E-02 3.83960E-02 8.34100E-03
 -1      3904 5.67340E-02 2.68960E-02 3.12700E-03
 -1      3905 1.34190E-02 3.19350E-02 5.92700E-03
 -1      3906 1.12180E-02 3.62560E-02 5.70500E-03
 -1      3907 4.03770E-02-1.81330E-02 6.00600E-03
 -1      3908 2.43990E-02 1.32130E-02 3.37500E-03
 -1      3909-3.13660E-02-3.84210E-02 6.01200E-03
 -1      3910-3.60220E-02 3.84660E-02 3.62000E-03
 -1      3911 3.59430E-02-8.96300E-03 6.10100E-03
 -1      3912-6.42600E-03 2.69140E-02 8.98600E-03
 -1      3913-3.69500E-03-2.70020E-02 2.91400E-03
 -1      3914-1.12620E-02 3.83140E-02 3.90500E-03
 -1      3915-4.51150E-02 3.60560E-02 8.31300E-03
 -1      3916 8.88000E-03-3.83710E-02 6.01600E-03
 -1      3917 3.12190E-02 1.66000E-04 5.40400E-03
 -1      3918-1.12870E-02 3.61660E-02 8.65200E-03
 -1      3919 2.67150E-02-6.92500E-03 3.36500E-03
 -1      3920 4.91160E-02-3.33950E-02 1.76400E-03
 -1      3921 2.72210E-02 9.03700E-03 6.00600E-03
 -1      3922 2.92970E-02 3.63470E-02 8.90100E-03
 -1      3923 2.39480E-02 1.35670E-02 6.04700E-03
 -1      3924-2.44410E-02 1.09190E-02 3.52400E-03
 -1      3925-2.25140E-02 2.70190E-02 5.96700E-03
 -1      3926 2.24260E-02 1.83010E-02 6.20700E-03
 -1      3927 4.16100E-03-2.67790E-02 2.80500E-03
 -1      3928-2.65000E-02 3.76800E-03 8.37500E-03
 -1      3929 2.28800E-02 3.83030E-02 4.02900E-03
 -1      3930 4.92670E-02-3.15090E-02 5.95300E-03
 -1      3931-2.67230E-02 3.56860E-02 5.78600E-03
 -1      3932 1.70620E-02 2.69700E-02 5.85800E-03
 -1      3933 5.41830E-02-2.69250E-02 3.14400E-03
 -1      3934 4.54460E-02-2.26070E-02 5.29900E-03
 -1      3935-4.30200E-03-3.60050E-02 8.74700E-03
 -1      3936 1.35220E-02 3.57870E-02 6.31300E-03
 -1      3937 4.04780E-02-1.33500E-02 6.11100E-03
 -1      3938-2.90080E-02-3.84470E-02 5.98700E-03
 -1      3939-8.84400E-03-2.68610E-02 8.10300E-03
 -1      3940 3.62580E-02-3.59120E-02 8.39100E-03
 -1      3941 3.59350E-02-4.58900E-03 5.51800E-03
 -1      3942 1.12330E-02-3.84110E-02 5.98300E-03
 -1      3943-5.18800E-02 3.63190E-02 3.72500E-03
 -1      3944-2.70590E-02 3.59800E-02 3.20300E-03
 -1      3945 3.11950E-02 4.39400E-03 5.68900E-03
 -1      3946-3.60750E-02-3.61600E-02 3.41100E-03
 -1      3947-2.04500E-03 3.62780E-02 3.68000E-03
 -1      3948-1.12890E-02-3.62410E-02 2.97000E-03
 -1      3949-1.78180E-02 2.26360E-02 6.24900E-03
 -1      3950-4.51630E-02-3.82330E-02 7.81900E-03
 -1      3951 2.70770E-02 1.38140E-02 5.95700E-03
 -1      3952-1.11760E-02-3.84230E-02 8.21700E-03
 -1      3953-2.25550E-02 3.17460E-02 5.82500E-03
 -1      3954 2.23120E-02 2.18110E-02 6.28700E-03
 -1      3955 5.20460E-02-3.15570E-02 6.09700E-03
 -1      3956-2.68820E-02 8.93500E-03 8.43400E-03
 -1      3957-2.47570E-02 3.61460E-02 6.12800E-03
 -1      3958 2.90350E-02-3.83010E-02 8.10400E-03
 -1      3959 4.92850E-02-2.70910E-02 5.56100E-03
 -1      3960 4.04430E-02 3.85410E-02 8.16200E-03
 -1      3961 6.58200E-03 3.62440E-02 3.17100E-03
 -1      3962 1.78040E-02 3.15310E-02 6.18500E-03
 -1      3963 3.14080E-02 3.61450E-02 3.99100E-03
 -1      3964 5.18920E-02 3.14220E-02 1.05130E-02
 -1      3965 1.59490E-02 3.62180E-02 5.73100E-03
 -1      3966 4.51920E-02-1.81880E-02 6.32100E-03
 -1      3967 2.24430E-02-3.60710E-02 3.37400E-03
 -1      3968-5.13660E-02 3.84550E-02 8.19300E-03
 -1      3969-2.64970E-02-3.83520E-02 5.85600E-03
 -1      3970 4.79500E-02-3.64210E-02 3.89700E-03
 -1      3971-2.44070E-02-1.15160E-02 8.48100E-03
 -1      3972 4.05170E-02-8.86800E-03 6.81500E-03
 -1      3973-4.05190E-02 3.58110E-02 8.92200E-03
 -1      3974 1.36250E-02-3.84210E-02 5.93400E-03
 -1      3975 4.19200E-03 2.67480E-02 9.21500E-03
 -1      3976 3.58740E-02-2.10000E-05 5.91700E-03
 -1      3977-6.71900E-03 3.62790E-02 8.53200E-03
 -1      3978 6.30000E-05 3.59760E-02 8.31400E-03
 -1      3979 3.13540E-02 9.02600E-03 5.98400E-03
 -1      3980 3.34830E-02 3.63150E-02 9.03000E-03
 -1      3981 2.68730E-02-1.33430E-02 8.86800E-03
 -1      3982-1.50100E-02 2.22690E-02 6.40000E-03
 -1      3983-5.15730E-02-3.84410E-02 3.61800E-03
 -1      3984-1.79040E-02 2.68560E-02 5.58800E-03
 -1      3985-2.68180E-02-3.84370E-02 3.72300E-03
 -1      3986 2.69630E-02 1.76790E-02 6.49200E-03
 -1      3987-1.80500E-03-3.83220E-02 4.03700E-03
 -1      3988-8.72900E-03 2.68880E-02 3.67800E-03
 -1      3989 5.43060E-02-3.15890E-02 6.05200E-03
 -1      3990-2.26950E-02 3.53780E-02 5.79500E-03
 -1      3991 2.23500E-02 2.70720E-02 6.08100E-03
 -1      3992-2.66730E-02 1.33580E-02 9.03000E-03
 -1      3993 4.95380E-02-2.25890E-02 6.33100E-03
 -1      3994 1.33800E-02-2.44170E-02 3.20600E-03
 -1      3995 1.80450E-02 3.54540E-02 5.74800E-03
 -1      3996 4.51690E-02-1.33990E-02 6.34500E-03
 -1      3997-2.43410E-02-3.82980E-02 6.26800E-03
 -1      3998-4.51700E-03-2.67270E-02 9.39700E-03
 -1      3999 4.04820E-02-3.62710E-02 8.26800E-03
 -1      4000 6.76200E-03-3.84030E-02 3.85400E-03
 -1      4001 4.05130E-02-4.72500E-03 6.06400E-03
 -1      4002 3.12760E-02-3.82490E-02 3.93600E-03
 -1      4003 1.61710E-02-3.83930E-02 6.17400E-03
 -1      4004-5.17420E-02-3.61520E-02 8.37200E-03
 -1      4005 3.58720E-02 4.61900E-03 5.95300E-03
 -1      4006-4.05310E-02-3.82650E-02 8.06700E-03
 -1      4007 3.14920E-02 1.35250E-02 6.01600E-03
 -1      4008-4.31490E-02 3.84630E-02 4.13200E-03
 -1      4009 2.69420E-02-8.85800E-03 8.15300E-03
 -1      4010 2.62720E-02 6.79100E-03 3.76100E-03
 -1      4011-6.64400E-03-3.84340E-02 8.26400E-03
 -1      4012-1.13100E-02-2.66560E-02 3.06600E-03
 -1      4013-1.83070E-02 3.82880E-02 4.01200E-03
 -1      4014-1.78500E-02 3.24820E-02 6.17800E-03
 -1      4015-5.36420E-02 3.56160E-02 1.00790E-02
 -1      4016-2.57000E-04-3.80270E-02 7.98100E-03
 -1      4017 2.72640E-02 2.26820E-02 6.01000E-03
 -1      4018-2.02100E-02 3.55510E-02 5.97800E-03
 -1      4019 3.36420E-02-3.85550E-02 8.21200E-03
 -1      4020 5.40080E-02-2.68890E-02 5.87300E-03
 -1      4021 2.25180E-02 3.13290E-02 5.28500E-03
 -1      4022 2.01800E-02 3.60760E-02 5.83800E-03
 -1      4023 4.96090E-02-1.79610E-02 6.40200E-03
 -1      4024-4.69280E-02 3.84800E-02 8.12600E-03
 -1      4025-2.23470E-02-3.81330E-02 5.85000E-03
 -1      4026 4.51290E-02-8.88600E-03 6.09900E-03
 -1      4027 1.57910E-02 3.83980E-02 3.74100E-03
 -1      4028-3.60710E-02 3.58280E-02 9.03800E-03
 -1      4029 1.84720E-02-3.82810E-02 5.83200E-03
 -1      4030 8.99300E-03 2.71500E-02 8.70700E-03
 -1      4031 4.04260E-02 3.84790E-02 3.83900E-03
 -1      4032 4.05180E-02-7.90000E-05 5.98400E-03
 -1      4033-2.15100E-03 3.60810E-02 8.35600E-03
 -1      4034 5.00080E-02 3.14540E-02 3.62300E-03
 -1      4035 4.92410E-02-3.34410E-02 1.02210E-02
 -1      4036 4.35600E-03 3.56800E-02 8.44600E-03
 -1      4037 3.59970E-02 9.04700E-03 5.98700E-03
 -1      4038 3.85910E-02 3.62090E-02 8.54200E-03
 -1      4039 1.13910E-02-2.43660E-02 6.22700E-03
 -1      4040-1.35460E-02 2.70260E-02 5.76100E-03
 -1      4041 3.17420E-02 1.81470E-02 6.13700E-03
 -1      4042 2.68060E-02-4.13500E-03 8.47300E-03
 -1      4043 2.62090E-02 1.11670E-02 3.84200E-03
 -1      4044-5.11680E-02 3.54810E-02 1.03730E-02
 -1      4045 4.95350E-02 3.36300E-02 8.18000E-03
 -1      4046-1.80570E-02 3.62600E-02 6.05200E-03
 -1      4047 2.69250E-02 2.69990E-02 6.11700E-03
 -1      4048-3.37330E-02 3.60460E-02 3.37800E-03
 -1      4049 5.68080E-02-2.70700E-02 5.77200E-03
 -1      4050-4.30290E-02-3.59710E-02 3.29200E-03
 -1      4051-1.16790E-02-2.42290E-02 8.53900E-03
 -1      4052-8.78200E-03 3.60030E-02 3.70000E-03
 -1      4053 5.41240E-02-2.24630E-02 6.06800E-03
 -1      4054-1.82640E-02-3.62120E-02 3.56000E-03
 -1      4055 2.26220E-02 3.54050E-02 6.31000E-03
 -1      4056 4.97430E-02-1.35040E-02 6.11100E-03
 -1      4057-2.05500E-02-3.81770E-02 6.06300E-03
 -1      4058-1.54620E-02 2.25570E-02 3.48300E-03
 -1      4059 4.55350E-02-3.55690E-02 8.34800E-03
 -1      4060 4.50670E-02-4.75000E-03 5.79100E-03
 -1      4061 2.05780E-02-3.82550E-02 5.99800E-03
 -1      4062-4.72150E-02-3.60390E-02 8.32000E-03
 -1      4063-3.50000E-05 3.61270E-02 3.66600E-03
 -1      4064 4.05390E-02 4.84200E-03 5.88100E-03
 -1      4065 2.48140E-02 3.60660E-02 3.57000E-03
 -1      4066 1.57660E-02-3.61650E-02 3.63500E-03
 -1      4067 1.35030E-02-2.42180E-02 5.90500E-03
 -1      4068-3.61600E-02-3.82410E-02 8.02000E-03
 -1      4069 3.61580E-02 1.34390E-02 6.00700E-03
 -1      4070 4.07420E-02-3.63450E-02 3.68100E-03
 -1      4071-2.27700E-03-3.82330E-02 8.04600E-03
 -1      4072 1.73290E-02 2.26190E-02 2.75200E-03
 -1      4073-1.13570E-02 2.66190E-02 6.34500E-03
 -1      4074 5.40580E-02 2.94590E-02 8.30100E-03
 -1      4075-1.34180E-02 3.16840E-02 6.27200E-03
 -1      4076 3.16070E-02 2.29090E-02 7.05400E-03
 -1      4077 4.28500E-03-3.83920E-02 8.16000E-03
 -1      4078-1.59510E-02 3.56820E-02 6.03500E-03
 -1      4079 3.86090E-02-3.83510E-02 8.59200E-03
 -1      4080 2.69580E-02 3.16360E-02 6.32000E-03
 -1      4081-2.26460E-02 1.83420E-02 8.43800E-03
 -1      4082 2.46820E-02 3.60940E-02 6.06300E-03
 -1      4083 5.44090E-02-1.83260E-02 6.42100E-03
 -1      4084-4.28450E-02 3.81810E-02 8.47000E-03
 -1      4085-1.84120E-02-3.83180E-02 6.07100E-03
 -1      4086-3.36550E-02-3.83720E-02 3.82600E-03
 -1      4087 4.93700E-02-8.99800E-03 6.02700E-03
 -1      4088-8.89200E-03-3.82790E-02 3.96500E-03
 -1      4089-3.15250E-02 3.59510E-02 8.17800E-03
 -1      4090 2.24860E-02-3.80050E-02 6.40200E-03
 -1      4091 1.33270E-02 2.67410E-02 8.70500E-03
 -1      4092 2.45770E-02-1.13280E-02 8.66000E-03
 -1      4093 4.50720E-02-5.10000E-05 5.95300E-03
 -1      4094 2.26400E-02-1.80240E-02 3.50000E-03
 -1      4095 8.80200E-03 3.59780E-02 8.21000E-03
 -1      4096 4.06160E-02 8.88600E-03 6.14000E-03
 -1      4097 4.29050E-02 3.63230E-02 8.76200E-03
 -1      4098 2.90000E-04-3.81040E-02 3.98100E-03
 -1      4099-9.07400E-03 2.73790E-02 6.29100E-03
 -1      4100 3.61770E-02 1.81070E-02 6.04700E-03
 -1      4101 2.46680E-02-3.82440E-02 3.65900E-03
 -1      4102-1.34100E-02 3.57570E-02 6.01500E-03
 -1      4103 3.13770E-02 2.68800E-02 5.66200E-03
 -1      4104 2.63430E-02 4.01900E-03 8.28000E-03
 -1      4105 2.66900E-02 3.54610E-02 5.86500E-03
 -1      4106-4.92460E-02 3.83710E-02 3.83400E-03
 -1      4107 5.42750E-02-1.38620E-02 6.14100E-03
 -1      4108-1.61740E-02-3.83790E-02 5.89600E-03
 -1      4109-2.46820E-02 3.83430E-02 3.84500E-03
 -1      4110 1.77180E-02 2.25970E-02 9.24500E-03
 -1      4111 4.95790E-02-4.43800E-03 6.00600E-03
 -1      4112 2.45260E-02-3.84250E-02 5.96500E-03
 -1      4113-4.30580E-02-3.59100E-02 8.77300E-03
 -1      4114 4.51250E-02 4.70000E-03 6.36800E-03
 -1      4115-2.23950E-02 1.78550E-02 3.63100E-03
 -1      4116-2.44410E-02 1.10390E-02 8.26400E-03
 -1      4117-3.15580E-02-3.84470E-02 8.27000E-03
 -1      4118 4.06360E-02 1.34770E-02 6.32700E-03
 -1      4119-6.45600E-03 2.66860E-02 5.61100E-03
 -1      4120 8.91400E-03 3.85220E-02 3.65200E-03
 -1      4121-9.00800E-03 3.15690E-02 6.10000E-03
 -1      4122 3.61820E-02 2.26540E-02 6.08100E-03
 -1      4123 9.10100E-03-3.84080E-02 8.22900E-03
 -1      4124-5.40660E-02 3.58540E-02 1.22900E-03
 -1      4125 3.37350E-02 3.82340E-02 4.23900E-03
 -1      4126-1.12640E-02 3.63320E-02 6.03000E-03
 -1      4127 4.27000E-02-3.83150E-02 8.58600E-03
 -1      4128 4.94320E-02-3.39170E-02 4.10800E-03
 -1      4129 3.15750E-02 3.14410E-02 6.03900E-03
 -1      4130 2.67830E-02 9.02200E-03 8.91100E-03
 -1      4131 2.92070E-02 3.61830E-02 5.99300E-03
 -1      4132 5.78590E-02-1.83230E-02 5.48800E-03
 -1      4133-3.85210E-02 3.83670E-02 8.09800E-03
 -1      4134-1.37620E-02-3.84460E-02 6.21500E-03
 -1      4135 2.22330E-02 1.78710E-02 8.19900E-03
 -1      4136 5.42500E-02-9.08800E-03 6.36000E-03
 -1      4137 4.97560E-02-3.20330E-02 8.30900E-03
 -1      4138-1.78440E-02-2.24190E-02 3.27800E-03
 -1      4139 2.00700E-03 3.82880E-02 7.88400E-03
 -1      4140-2.68120E-02 3.60710E-02 8.32100E-03
 -1      4141 2.68010E-02-3.82610E-02 6.23700E-03
 -1      4142-4.05380E-02 3.60650E-02 3.97200E-03
 -1      4143 4.95590E-02 9.40000E-05 5.68600E-03
 -1      4144-4.96050E-02-3.56760E-02 3.31100E-03
 -1      4145-1.55310E-02 3.60980E-02 3.52300E-03
 -1      4146-2.43530E-02-3.63210E-02 3.01000E-03
 -1      4147 1.36090E-02 3.63060E-02 8.36300E-03
 -1      4148 4.50430E-02 8.96700E-03 6.68700E-03
 -1      4149 4.78820E-02 3.61080E-02 8.57700E-03
 -1      4150-2.66070E-02-1.11790E-02 5.94600E-03
 -1      4151 1.80590E-02-1.99050E-02 6.10200E-03
 -1      4152-3.72800E-03 2.71840E-02 6.05400E-03
 -1      4153 4.05480E-02 1.81330E-02 5.88400E-03
 -1      4154-5.17970E-02 3.59100E-02 1.45700E-03
 -1      4155 1.51550E-02-2.24970E-02 3.17800E-03
 -1      4156-9.09400E-03 3.56130E-02 6.00300E-03
 -1      4157 3.60610E-02 2.70650E-02 6.04700E-03
 -1      4158 1.80820E-02 3.58120E-02 3.66300E-03
 -1      4159 9.08300E-03-3.59980E-02 3.84700E-03
 -1      4160 1.15490E-02 2.46670E-02 7.98000E-03
 -1      4161 4.27990E-02 3.61600E-02 3.47800E-03
 -1      4162 3.14130E-02 3.57240E-02 6.06300E-03
 -1      4163-1.75040E-02 2.29000E-02 9.29500E-03
 -1      4164 2.65710E-02 1.35540E-02 8.60900E-03
 -1      4165 3.37330E-02-3.61210E-02 3.36500E-03
 -1      4166-1.12440E-02-3.84400E-02 6.00800E-03
 -1      4167-2.67300E-02-1.09720E-02 3.48400E-03
 -1      4168 5.46760E-02-4.42000E-03 6.34800E-03
 -1      4169 2.90080E-02-3.83910E-02 6.01500E-03
 -1      4170-3.84130E-02-3.59770E-02 8.94000E-03
 -1      4171 4.95380E-02 4.67500E-03 6.00400E-03
 -1      4172 5.22110E-02 3.12730E-02 8.38600E-03
 -1      4173-5.14790E-02 3.85360E-02 5.98900E-03
 -1      4174 2.36600E-03-3.62770E-02 8.04100E-03
 -1      4175-2.27090E-02-1.52290E-02 5.92200E-03
 -1      4176-2.65850E-02-3.83910E-02 8.01600E-03
 -1      4177-4.04580E-02-3.83450E-02 3.88100E-03
 -1      4178 4.51230E-02 1.35590E-02 6.01900E-03
 -1      4179 4.74300E-02-3.53580E-02 1.76000E-03
 -1      4180-2.43530E-02-1.15100E-02 5.94100E-03
 -1      4181-1.57820E-02-3.84310E-02 3.68300E-03
 -1      4182-2.62980E-02-6.66600E-03 5.92500E-03
 -1      4183-4.36400E-03 3.11870E-02 6.61600E-03
 -1      4184 4.06400E-02 2.27570E-02 5.72600E-03
 -1      4185 1.34910E-02-3.84560E-02 8.11000E-03
 -1      4186-5.43850E-02-3.53320E-02 5.90600E-03
 -1      4187-6.80500E-03 3.63040E-02 5.72400E-03
 -1      4188 3.59300E-02 3.18300E-02 6.71100E-03
 -1      4189-5.87300E-02-2.63710E-02 5.98700E-03
 -1      4190 3.35040E-02 3.62070E-02 6.27300E-03
 -1      4191-3.39880E-02 3.84230E-02 8.22700E-03
 -1      4192-8.84400E-03-3.83770E-02 6.07400E-03
 -1      4193 1.81260E-02-3.82800E-02 3.82900E-03
 -1      4194 1.11890E-02 2.67730E-02 3.27200E-03
 -1      4195 5.36950E-02-3.17040E-02 7.99100E-03
 -1      4196 5.19260E-02 3.37490E-02 3.96900E-03
 -1      4197 6.44800E-03 3.84110E-02 8.13300E-03
 -1      4198-2.65960E-02-6.91900E-03 3.53500E-03
 -1      4199 4.26890E-02-3.84800E-02 3.58900E-03
 -1      4200-2.22910E-02 3.58860E-02 8.29400E-03
 -1      4201 3.11800E-02-3.83660E-02 5.89600E-03
 -1      4202 5.44890E-02 2.85000E-04 6.23700E-03
 -1      4203 5.67310E-02 2.68760E-02 8.79700E-03
 -1      4204-1.82000E-02-1.95540E-02 6.07400E-03
 -1      4205 1.80120E-02 3.61450E-02 8.10300E-03
 -1      4206 4.95750E-02 9.02400E-03 5.95400E-03
 -1      4207-4.95490E-02 3.84820E-02 6.01500E-03
 -1      4208-3.15390E-02 3.84340E-02 3.78200E-03
 -1      4209 4.51530E-02 1.82150E-02 5.66900E-03
 -1      4210-6.61400E-03 3.84550E-02 3.66700E-03
 -1      4211-5.18270E-02-3.63320E-02 6.01100E-03
 -1      4212-4.36200E-03 3.57660E-02 5.92800E-03
 -1      4213 4.07290E-02 2.76760E-02 5.99400E-03
 -1      4214-5.42800E-02-3.18250E-02 5.85000E-03
 -1      4215-1.32320E-02 2.44500E-02 3.48400E-03
 -1      4216 3.61620E-02 3.57370E-02 5.92900E-03
 -1      4217-6.48700E-03-3.84300E-02 6.05200E-03
 -1      4218 8.77800E-03-2.68980E-02 3.91300E-03
 -1      4219 1.84900E-03 3.82770E-02 4.03100E-03
 -1      4220 2.71950E-02 3.81980E-02 3.79100E-03
 -1      4221 3.32900E-02-3.83430E-02 6.08400E-03
 -1      4222 5.36920E-02-2.73950E-02 8.91900E-03
 -1      4223-3.40940E-02-3.61450E-02 8.73000E-03
 -1      4224-1.34850E-02-2.44010E-02 6.44600E-03
 -1      4225 5.46150E-02 4.57200E-03 6.29600E-03
 -1      4226-4.70710E-02 3.83160E-02 5.90100E-03
 -1      4227 6.67800E-03-3.62420E-02 8.57500E-03
 -1      4228-2.22620E-02-3.82670E-02 7.89600E-03
 -1      4229 4.95490E-02 1.33840E-02 5.32000E-03
 -1      4230 2.24070E-02-1.53740E-02 5.91200E-03
 -1      4231 2.43720E-02 1.16760E-02 7.86000E-03
 -1      4232 1.82190E-02-3.82870E-02 7.85400E-03
 -1      4233 4.51850E-02 2.27260E-02 5.96300E-03
 -1      4234-4.72800E-02 3.62410E-02 3.64000E-03
 -1      4235-4.95070E-02-3.57480E-02 5.96200E-03
 -1      4236-2.14200E-03 3.62460E-02 5.93900E-03
 -1      4237-2.22430E-02 3.57430E-02 3.68700E-03
 -1      4238-3.14530E-02-3.62680E-02 3.91100E-03
 -1      4239 4.06720E-02 3.15050E-02 6.15500E-03
 -1      4240-5.37700E-02-2.70260E-02 5.48300E-03
 -1      4241-6.35500E-03-3.62080E-02 3.21200E-03
 -1      4242 5.32490E-02-2.93480E-02 1.77500E-03
 -1      4243 3.84060E-02 3.62860E-02 6.01600E-03
 -1      4244-2.91790E-02 3.84450E-02 8.22300E-03
 -1      4245-4.01100E-03-3.83290E-02 6.19700E-03
 -1      4246-1.33320E-02 2.66310E-02 8.77000E-03
 -1      4247 1.12620E-02 3.83130E-02 8.09900E-03
 -1      4248-1.78830E-02 3.56080E-02 8.14500E-03
 -1      4249 3.63580E-02-3.85560E-02 5.86300E-03
 -1      4250-1.12190E-02-2.43990E-02 5.98200E-03
 -1      4251 1.11490E-02 3.61690E-02 3.02000E-03
 -1      4252 2.38700E-03-3.62800E-02 4.02300E-03
 -1      4253 3.60640E-02 3.61130E-02 3.62900E-03
 -1      4254 2.25160E-02 3.57040E-02 8.41900E-03
 -1      4255 5.41390E-02 8.92100E-03 5.83400E-03
 -1      4256 2.68590E-02-3.63040E-02 3.57500E-03
 -1      4257-4.47820E-02 3.83180E-02 6.20300E-03
 -1      4258 4.95460E-02 1.80290E-02 5.60000E-03
 -1      4259-4.70700E-02-3.61430E-02 5.78000E-03
 -1      4260 4.52790E-02 2.71820E-02 5.94100E-03
 -1      4261-4.97520E-02-3.19740E-02 5.47400E-03
 -1      4262 5.18740E-02-3.38320E-02 8.05100E-03
 -1      4263-2.63500E-02 6.92800E-03 5.92000E-03
 -1      4264 4.03520E-02 3.57360E-02 6.10700E-03
 -1      4265 1.32480E-02-2.42770E-02 8.79900E-03
 -1      4266-4.69500E-02-3.83130E-02 4.23500E-03
 -1      4267-5.40610E-02-2.26850E-02 6.10600E-03
 -1      4268-2.03400E-03-3.81560E-02 6.13800E-03
 -1      4269-2.24780E-02-3.82060E-02 3.76700E-03
 -1      4270 5.33710E-02 2.93050E-02 1.01180E-02
 -1      4271-4.02700E-03 2.63410E-02 2.89200E-03
 -1      4272 2.45320E-02-1.13690E-02 3.83300E-03
 -1      4273 3.89330E-02-3.85020E-02 6.03600E-03
 -1      4274-2.88060E-02-3.62870E-02 8.67700E-03
 -1      4275-2.61720E-02 6.72700E-03 3.95700E-03
 -1      4276-4.26960E-02 3.83220E-02 6.47600E-03
 -1      4277 1.14880E-02-3.62080E-02 8.82100E-03
 -1      4278-1.75950E-02-3.82800E-02 7.85200E-03
 -1      4279 5.41750E-02 1.35800E-02 5.95900E-03
 -1      4280 4.73940E-02-3.53800E-02 1.03670E-02
 -1      4281 1.12760E-02-3.83260E-02 3.84800E-03
 -1      4282 4.48200E-03 2.71010E-02 2.71300E-03
 -1      4283 5.19930E-02-3.14340E-02 3.66900E-03
 -1      4284 6.86700E-03-2.67730E-02 9.12200E-03
 -1      4285 3.60870E-02-3.85420E-02 3.59000E-03
 -1      4286 2.24740E-02-3.81510E-02 8.37300E-03
 -1      4287 4.96550E-02 2.26200E-02 5.34700E-03
 -1      4288 2.44510E-02-1.14360E-02 5.89700E-03
 -1      4289-4.49140E-02-3.54200E-02 6.27800E-03
 -1      4290 5.41700E-02 2.73060E-02 3.98100E-03
 -1      4291-2.42160E-02-1.32540E-02 3.51100E-03
 -1      4292 4.51760E-02 3.17020E-02 6.06400E-03
 -1      4293-4.94290E-02-2.69430E-02 6.47900E-03
 -1      4294 4.28000E-02 3.61930E-02 6.10300E-03
 -1      4295-2.65230E-02 1.10910E-02 5.91100E-03
 -1      4296-2.46020E-02 3.81420E-02 8.24000E-03
 -1      4297-3.83280E-02 3.82050E-02 3.87500E-03
 -1      4298-8.96400E-03 2.72330E-02 8.88300E-03
 -1      4299-5.41000E-02-1.79210E-02 5.89200E-03
 -1      4300-6.42100E-03-2.69450E-02 2.94300E-03
 -1      4301-1.34220E-02 3.84380E-02 3.82100E-03
 -1      4302 1.58440E-02 3.84240E-02 8.14600E-03
 -1      4303-1.35020E-02 3.62400E-02 8.33900E-03
 -1      4304 4.06110E-02-3.84860E-02 6.01400E-03
 -1      4305 2.70300E-02 3.59210E-02 8.73900E-03
 -1      4306-4.03040E-02 3.83080E-02 6.22600E-03
 -1      4307 1.79040E-02-1.98640E-02 3.18500E-03
 -1      4308-2.66610E-02 1.09600E-02 3.48600E-03
 -1      4309 5.42160E-02 1.78080E-02 6.36300E-03
 -1      4310 2.04500E-02 3.83330E-02 3.75400E-03
 -1      4311-1.37000E-04 3.81440E-02 6.09900E-03
 -1      4312 2.66470E-02-1.12560E-02 5.97000E-03
 -1      4313-4.25180E-02-3.60890E-02 6.06900E-03
 -1      4314 4.96740E-02 2.70010E-02 5.95900E-03
 -1      4315 1.35920E-02 2.46430E-02 3.17300E-03
 -1      4316-4.50310E-02-3.15390E-02 5.98100E-03
 -1      4317 5.41310E-02 3.18930E-02 3.72400E-03
 -1      4318 4.55560E-02 3.55300E-02 6.13000E-03
 -1      4319-2.43220E-02 1.13880E-02 5.95200E-03
 -1      4320 2.20830E-02 1.83710E-02 3.62300E-03
 -1      4321-4.94440E-02-2.24170E-02 5.99800E-03
 -1      4322-5.44290E-02 3.57080E-02 2.99400E-03
 -1      4323-5.47560E-02-1.36010E-02 5.44100E-03
 -1      4324-2.93180E-02 3.63400E-02 3.04900E-03
 -1      4325-2.45000E-02-3.61400E-02 8.91500E-03
 -1      4326-3.83370E-02-3.61030E-02 2.99400E-03
 -1      4327-4.22200E-03 3.61030E-02 3.00100E-03
 -1      4328-1.33920E-02-3.62860E-02 3.71300E-03
 -1      4329-3.83020E-02 3.82270E-02 5.91800E-03
 -1      4330 1.57280E-02-3.63900E-02 7.91000E-03
 -1      4331 1.09490E-02-2.65710E-02 8.59900E-03
 -1      4332 1.99400E-03 3.82760E-02 5.89000E-03
 -1      4333 5.44570E-02 2.25070E-02 5.65700E-03
 -1      4334 2.66810E-02-3.84360E-02 8.00900E-03
 -1      4335-4.05060E-02-3.56070E-02 6.03700E-03
 -1      4336 4.51500E-03 3.62360E-02 3.93200E-03
 -1      4337 2.66630E-02-6.24900E-03 6.19900E-03
 -1      4338 2.91420E-02 3.61740E-02 3.05300E-03
 -1      4339 4.91910E-02 3.16070E-02 6.00900E-03
 -1      4340 2.02640E-02-3.60380E-02 3.55700E-03
 -1      4341-4.50040E-02-2.71730E-02 5.77700E-03
 -1      4342-1.69000E-04-3.57020E-02 6.14800E-03
 -1      4343 4.82880E-02 3.56110E-02 6.30800E-03
 -1      4344 4.52660E-02-3.58910E-02 3.51800E-03
 -1      4345-2.05680E-02 3.82590E-02 8.08000E-03
 -1      4346-2.66570E-02-1.11380E-02 8.42900E-03
 -1      4347 1.75400E-02-1.98540E-02 9.19900E-03
 -1      4348-3.72200E-03 2.70740E-02 8.62700E-03
 -1      4349-4.96040E-02-1.79360E-02 5.68700E-03
 -1      4350 2.03400E-02 3.81360E-02 8.25400E-03
 -1      4351-8.94700E-03 3.63240E-02 8.42900E-03
 -1      4352-5.41210E-02-9.18000E-03 5.80000E-03
 -1      4353 1.12760E-02 2.44600E-02 6.02400E-03
 -1      4354 3.13520E-02 3.62970E-02 8.16500E-03
 -1      4355-3.60890E-02 3.83760E-02 5.90300E-03
 -1      4356-2.92030E-02-3.84920E-02 3.72600E-03
 -1      4357-4.07900E-03-3.84190E-02 4.00100E-03
 -1      4358-1.12090E-02 2.65360E-02 4.25800E-03
 -1      4359 4.92670E-02 3.38500E-02 1.48600E-03
 -1      4360 4.13000E-03 3.83130E-02 6.31400E-03
 -1      4361-1.12210E-02 2.45400E-02 8.51000E-03
 -1      4362-3.82980E-02-3.61490E-02 5.98600E-03
 -1      4363 5.36890E-02 2.65070E-02 6.20300E-03
 -1      4364-4.05050E-02-3.15130E-02 6.07900E-03
 -1      4365 1.14940E-02-2.44120E-02 3.96000E-03
 -1      4366 5.20080E-02 3.13960E-02 6.01100E-03
 -1      4367 1.86300E-03-3.62120E-02 6.02600E-03
 -1      4368-2.21370E-02-1.49820E-02 8.43300E-03
 -1      4369-4.47530E-02-2.25090E-02 6.12500E-03
 -1      4370-3.30000E-05-3.16120E-02 6.06600E-03
 -1      4371-2.23420E-02 1.57080E-02 6.19400E-03
 -1      4372 4.40100E-03-3.82800E-02 3.83600E-03
 -1      4373-2.64670E-02-6.73200E-03 8.52300E-03
 -1      4374 2.92220E-02-3.84130E-02 3.91400E-03
 -1      4375-4.96000E-02-1.34810E-02 5.89400E-03
 -1      4376-5.47770E-02-3.62510E-02 8.16100E-03
 -1      4377-2.03140E-02-3.62450E-02 8.63100E-03
 -1      4378-5.40800E-02-4.46800E-03 5.86900E-03
 -1      4379 1.35580E-02 2.44400E-02 6.06400E-03
 -1      4380-3.37380E-02 3.84170E-02 6.00100E-03
 -1      4381 2.01860E-02-3.61720E-02 8.20900E-03
 -1      4382-4.53450E-02 3.85180E-02 4.06300E-03
 -1      4383-8.97300E-03-3.84410E-02 8.23200E-03
 -1      4384-1.34670E-02-2.66450E-02 3.42400E-03
 -1      4385-2.02430E-02 3.80560E-02 3.75200E-03
 -1      4386 6.46900E-03 3.83910E-02 6.10500E-03
 -1      4387 3.12070E-02-3.84280E-02 8.24400E-03
 -1      4388-3.57230E-02-3.57500E-02 5.96900E-03
 -1      4389 5.68590E-02 2.68600E-02 6.05200E-03
 -1      4390-1.77430E-02-1.99580E-02 8.96300E-03
 -1      4391 5.42360E-02 3.15110E-02 5.71900E-03
 -1      4392 2.67310E-02-1.39040E-02 3.43000E-03
 -1      4393-4.05560E-02-2.72010E-02 5.77500E-03
 -1      4394-4.91880E-02 3.84030E-02 8.23400E-03
 -1      4395 4.31600E-03-3.58210E-02 6.12700E-03
 -1      4396-1.57870E-02 3.83840E-02 8.19100E-03
 -1      4397 1.34180E-02 3.84340E-02 3.76900E-03
 -1      4398-4.50920E-02-1.82190E-02 6.20800E-03
 -1      4399-2.18000E-04-2.70160E-02 6.12600E-03
 -1      4400 3.84180E-02 3.82130E-02 3.90800E-03
 -1      4401 2.43950E-02 3.82470E-02 8.06000E-03
 -1      4402-4.34500E-03 3.61780E-02 8.64700E-03
 -1      4403-4.95360E-02-8.96900E-03 5.92000E-03
 -1      4404 1.77860E-02 1.98290E-02 6.00700E-03
 -1      4405 3.59210E-02 3.57340E-02 8.73700E-03
 -1      4406-5.44330E-02-3.87000E-04 5.24800E-03
 -1      4407-3.14000E-02 3.83900E-02 5.99700E-03
 -1      4408-2.26240E-02-1.52060E-02 2.66500E-03
 -1      4409 2.46110E-02 1.13060E-02 3.83700E-03
 -1      4410 8.89400E-03 3.84150E-02 5.94500E-03
 -1      4411-3.59910E-02 3.61540E-02 3.57000E-03
 -1      4412 1.46150E-02-2.23420E-02 8.52300E-03
 -1      4413-3.34200E-02-3.62790E-02 6.04100E-03
 -1      4414-4.52540E-02-3.60310E-02 3.84100E-03
 -1      4415-1.34300E-02-2.40430E-02 8.85800E-03
 -1      4416-1.13010E-02 3.61580E-02 3.38700E-03
 -1      4417-3.59630E-02-3.15370E-02 6.08900E-03
 -1      4418-2.04050E-02-3.63570E-02 3.20000E-03
 -1      4419 6.59400E-03-3.63430E-02 6.14300E-03
 -1      4420 2.70010E-02-9.44200E-03 3.37400E-03
 -1      4421-1.80090E-02 2.25720E-02 3.52100E-03
 -1      4422-4.05890E-02-2.25730E-02 5.96900E-03
 -1      4423 4.10620E-02-3.53990E-02 1.03770E-02
 -1      4424 4.08300E-03-3.15340E-02 6.37700E-03
 -1      4425 2.64590E-02 6.99200E-03 6.30700E-03
 -1      4426 2.25530E-02-1.52040E-02 8.42900E-03
 -1      4427 2.42430E-02 1.12420E-02 5.74000E-03
 -1      4428-4.51580E-02-1.34060E-02 5.98300E-03
 -1      4429-4.94240E-02-3.61560E-02 8.30000E-03
 -1      4430 2.21780E-02 1.58800E-02 6.12400E-03
 -1      4431-1.60160E-02-3.63980E-02 8.03300E-03
 -1      4432 2.23590E-02 3.59940E-02 3.69400E-03
 -1      4433 4.94860E-02-3.37990E-02 6.54000E-03
 -1      4434-4.95030E-02-4.53700E-03 5.91800E-03
 -1      4435 1.35800E-02-3.59610E-02 3.85000E-03
 -1      4436 5.39740E-02-2.93790E-02 3.77600E-03
 -1      4437 4.80390E-02 3.60460E-02 3.54400E-03
 -1      4438 3.84540E-02-3.61420E-02 3.35600E-03
 -1      4439-2.90010E-02 3.84330E-02 5.96800E-03
 -1      4440 2.48090E-02-3.62810E-02 8.80800E-03
 -1      4441-5.42990E-02 4.39600E-03 6.62700E-03
 -1      4442-4.33100E-03-3.83680E-02 8.23800E-03
 -1      4443 1.49350E-02 2.22490E-02 3.68000E-03
 -1      4444 1.12580E-02 3.84280E-02 5.94900E-03
 -1      4445 3.60410E-02-3.86960E-02 8.13600E-03
 -1      4446-3.14450E-02-3.57380E-02 6.02700E-03
 -1      4447-3.61240E-02-2.71120E-02 6.10400E-03
 -1      4448-4.46770E-02 3.83180E-02 8.26500E-03
 -1      4449 8.67300E-03-3.53710E-02 6.12000E-03
 -1      4450-3.59680E-02-3.85390E-02 3.57400E-03
 -1      4451-1.12830E-02 3.83370E-02 8.16300E-03
 -1      4452 2.64400E-02-4.21800E-03 3.85000E-03
 -1      4453-1.11250E-02-3.84490E-02 3.75200E-03
 -1      4454-4.05760E-02-1.79590E-02 6.07800E-03
 -1      4455 3.98800E-03-2.71580E-02 5.95400E-03
 -1      4456-1.79920E-02 1.98910E-02 5.61400E-03
 -1      4457 2.65340E-02 1.13560E-02 5.76000E-03
 -1      4458 2.91840E-02 3.84490E-02 8.15400E-03
 -1      4459 1.99530E-02-1.83160E-02 3.53800E-03
 -1      4460-4.50770E-02-8.97100E-03 5.46300E-03
 -1      4461-2.42630E-02 1.33900E-02 3.27200E-03
 -1      4462 5.16010E-02-3.36200E-02 6.08600E-03
 -1      4463-2.61700E-02 6.62400E-03 8.13200E-03
 -1      4464 4.08590E-02 3.63370E-02 8.25700E-03
 -1      4465-4.94850E-02-1.35000E-04 5.87100E-03
 -1      4466-2.64820E-02 3.83390E-02 5.80100E-03
 -1      4467-5.41430E-02 8.99100E-03 6.39400E-03
 -1      4468 2.24650E-02-3.83790E-02 4.14800E-03
 -1      4469-5.16730E-02 3.64680E-02 8.16700E-03
 -1      4470 4.92200E-02 3.38930E-02 1.05240E-02
 -1      4471 1.36070E-02 3.84150E-02 5.99500E-03
 -1      4472-2.42000E-02-1.35370E-02 8.09800E-03
 -1      4473-2.94570E-02-3.63000E-02 5.99300E-03
 -1      4474-3.15320E-02-3.15420E-02 5.72000E-03
 -1      4475 1.09690E-02-3.62150E-02 6.04300E-03
 -1      4476-5.14660E-02 3.84130E-02 3.78700E-03
 -1      4477-3.60200E-02-2.25650E-02 6.07500E-03
 -1      4478 8.91200E-03-3.16120E-02 6.14500E-03
 -1      4479-2.68660E-02 3.84070E-02 3.72700E-03
 -1      4480 5.15890E-02-3.10500E-02 1.64000E-03
 -1      4481 6.58300E-03-2.66880E-02 6.06600E-03
 -1      4482-1.88700E-03 3.83640E-02 4.00400E-03
 -1      4483-4.06400E-02-1.33240E-02 6.04000E-03
 -1      4484-4.51150E-02-3.57370E-02 8.38200E-03
 -1      4485-1.12570E-02-3.61800E-02 8.46700E-03
 -1      4486-4.52560E-02-4.48000E-03 6.29800E-03
 -1      4487-2.64450E-02 1.11010E-02 7.81000E-03
 -1      4488-2.42690E-02 3.82580E-02 6.05800E-03
 -1      4489 2.89420E-02-3.61460E-02 8.82900E-03
 -1      4490-4.95130E-02 4.45500E-03 5.91600E-03
 -1      4491 1.30610E-02-2.66890E-02 3.44600E-03
 -1      4492 6.49900E-03 3.83010E-02 3.95300E-03
 -1      4493-2.00440E-02-1.82130E-02 8.95400E-03
 -1      4494 3.13780E-02 3.83310E-02 4.19500E-03
 -1      4495 5.18650E-02 3.38840E-02 1.06240E-02
 -1      4496 1.59970E-02 3.84300E-02 5.95000E-03
 -1      4497-5.41520E-02 1.34970E-02 6.63400E-03
 -1      4498 4.06420E-02-3.84110E-02 8.15300E-03
 -1      4499-2.71430E-02-3.57560E-02 5.87700E-03
 -1      4500 1.99020E-02-1.79810E-02 8.64900E-03
 -1      4501-5.14100E-02-3.83860E-02 8.25900E-03
 -1      4502-3.16510E-02-2.71990E-02 5.82500E-03
 -1      4503-4.08570E-02 3.83370E-02 8.24700E-03
 -1      4504 1.35820E-02-3.58520E-02 6.03800E-03
 -1      4505-6.50500E-03 3.83730E-02 8.04800E-03
 -1      4506-3.61180E-02-1.80230E-02 5.90800E-03
 -1      4507 9.12200E-03-2.73460E-02 6.33800E-03
 -1      4508-3.20000E-05 3.80790E-02 8.24800E-03
 -1      4509-4.25810E-02 3.62000E-02 3.31800E-03
 -1      4510 3.36900E-02 3.85460E-02 8.48700E-03
 -1      4511 2.63920E-02-1.11440E-02 8.22400E-03
 -1      4512 2.62780E-02 4.06500E-03 3.89600E-03
 -1      4513-5.19630E-02-3.63560E-02 3.81300E-03
 -1      4514-1.79450E-02 3.57510E-02 4.18000E-03
 -1      4515-4.06220E-02-8.84900E-03 5.99500E-03
 -1      4516-2.66960E-02-3.60440E-02 3.09400E-03
 -1      4517-2.21800E-03-3.62150E-02 3.52900E-03
 -1      4518 5.37860E-02-2.99050E-02 5.55100E-03
 -1      4519 4.49430E-02 3.60210E-02 8.23100E-03
 -1      4520-4.51820E-02-4.10000E-05 6.03200E-03
 -1      4521-2.23170E-02 3.78850E-02 6.12400E-03
 -1      4522 4.60340E-02 3.74030E-02 9.72000E-03
 -1      4523 4.61200E-02 3.74690E-02 7.40700E-03
 -1      4524 4.41220E-02 3.74040E-02 9.54500E-03
 -1      4525 4.18550E-02 3.77840E-02 9.81100E-03
 -1      4526 4.38880E-02 3.76110E-02 7.09600E-03
 -1      4527 4.16830E-02 3.75330E-02 7.17900E-03
 -1      4528 3.96110E-02 3.75360E-02 9.66000E-03
 -1      4529 3.74510E-02 3.74200E-02 9.83000E-03
 -1      4530 3.95290E-02 3.73100E-02 7.16100E-03
 -1      4531 3.73110E-02 3.74290E-02 7.22400E-03
 -1      4532 3.49320E-02 3.74570E-02 1.01740E-02
 -1      4533 3.24310E-02 3.76450E-02 9.90500E-03
 -1      4534 3.48380E-02 3.74520E-02 7.37100E-03
 -1      4535 3.24890E-02 3.74770E-02 7.30100E-03
 -1      4536 3.01010E-02 3.75320E-02 9.93600E-03
 -1      4537 2.78320E-02 3.76290E-02 9.65400E-03
 -1      4538 3.02740E-02 3.74690E-02 7.17400E-03
 -1      4539 2.79440E-02 3.74150E-02 7.12600E-03
 -1      4540 2.56150E-02 3.73780E-02 9.76700E-03
 -1      4541 2.35470E-02 3.69080E-02 9.57800E-03
 -1      4542 2.56750E-02 3.70930E-02 7.17200E-03
 -1      4543 2.35660E-02 3.69950E-02 7.21500E-03
 -1      4544 2.18160E-02 3.71320E-02 9.78400E-03
 -1      4545 1.94750E-02 3.74180E-02 9.92900E-03
 -1      4546 2.14860E-02 3.70350E-02 7.22800E-03
 -1      4547 1.92910E-02 3.71590E-02 7.12900E-03
 -1      4548 1.73500E-02 3.75260E-02 9.98600E-03
 -1      4549 1.49520E-02 3.71840E-02 9.57200E-03
 -1      4550 1.70780E-02 3.74610E-02 7.07400E-03
 -1      4551 1.47440E-02 3.75060E-02 7.09900E-03
 -1      4552 1.25550E-02 3.76280E-02 9.80300E-03
 -1      4553 1.01580E-02 3.74940E-02 9.89700E-03
 -1      4554 1.24190E-02 3.74920E-02 7.19100E-03
 -1      4555 1.01050E-02 3.74590E-02 7.14600E-03
 -1      4556 7.57700E-03 3.75240E-02 9.92400E-03
 -1      4557 5.26600E-03 3.76080E-02 9.67500E-03
 -1      4558 7.72500E-03 3.74630E-02 7.22900E-03
 -1      4559 5.41100E-03 3.72150E-02 7.26300E-03
 -1      4560 3.00900E-03 3.72790E-02 9.73400E-03
 -1      4561 7.82000E-04 3.71180E-02 9.74500E-03
 -1      4562 3.14700E-03 3.71380E-02 7.11100E-03
 -1      4563 1.00000E-03 3.71060E-02 7.06400E-03
 -1      4564 5.51730E-02 3.04610E-02 9.52800E-03
 -1      4565 5.54780E-02 2.80130E-02 9.65800E-03
 -1      4566 5.53690E-02 3.02680E-02 7.32100E-03
 -1      4567 5.57150E-02 2.84380E-02 7.32400E-03
 -1      4568 5.70520E-02 2.51230E-02 8.11100E-03
 -1      4569 5.58530E-02 2.03280E-02 8.47100E-03
 -1      4570 5.04110E-02 3.51000E-02 9.51500E-03
 -1      4571 5.30290E-02 3.28720E-02 9.63100E-03
 -1      4572 5.08200E-02 3.28260E-02 9.62800E-03
 -1      4573 5.06040E-02 3.50140E-02 7.07000E-03
 -1      4574 5.31430E-02 3.27670E-02 7.08800E-03
 -1      4575 5.09410E-02 3.27930E-02 7.15800E-03
 -1      4576 4.71730E-02 3.34660E-02 8.42800E-03
 -1      4577 5.15960E-02 2.92410E-02 7.61300E-03
 -1      4578 4.77760E-02 2.93570E-02 8.38800E-03
 -1      4579 4.28340E-02 3.37150E-02 8.76100E-03
 -1      4580 3.88200E-02 3.38690E-02 8.65400E-03
 -1      4581 4.34560E-02 2.94450E-02 8.11800E-03
 -1      4582 3.81670E-02 2.91760E-02 9.10700E-03
 -1      4583 5.18150E-02 2.44750E-02 7.82600E-03
 -1      4584 4.74640E-02 2.48540E-02 8.81300E-03
 -1      4585 5.19550E-02 2.04700E-02 8.66100E-03
 -1      4586 4.74820E-02 2.03910E-02 9.03100E-03
 -1      4587 4.29660E-02 2.52730E-02 9.08700E-03
 -1      4588 3.84160E-02 2.51340E-02 9.12000E-03
 -1      4589 4.28080E-02 2.04330E-02 9.21800E-03
 -1      4590 3.85730E-02 2.05590E-02 8.89100E-03
 -1      4591 5.61110E-02 1.51910E-02 8.99700E-03
 -1      4592 5.66920E-02 1.13940E-02 8.30400E-03
 -1      4593 5.66990E-02 6.58100E-03 8.68100E-03
 -1      4594 5.71090E-02 2.28500E-03 8.53000E-03
 -1      4595 5.20280E-02 1.58850E-02 9.15000E-03
 -1      4596 4.73330E-02 1.58010E-02 8.78400E-03
 -1      4597 5.19510E-02 1.09220E-02 8.71000E-03
 -1      4598 4.75000E-02 1.15130E-02 9.16700E-03
 -1      4599 4.28730E-02 1.59110E-02 8.82700E-03
 -1      4600 3.84000E-02 1.59210E-02 8.86400E-03
 -1      4601 4.26940E-02 1.12720E-02 9.07200E-03
 -1      4602 3.82320E-02 1.09580E-02 8.96100E-03
 -1      4603 5.16700E-02 7.04000E-03 8.36200E-03
 -1      4604 4.75900E-02 7.00900E-03 8.81000E-03
 -1      4605 5.15110E-02 2.41900E-03 8.74600E-03
 -1      4606 4.74260E-02 2.25200E-03 8.67300E-03
 -1      4607 4.27830E-02 6.48200E-03 9.12800E-03
 -1      4608 3.82330E-02 7.18300E-03 8.54100E-03
 -1      4609 4.26420E-02 2.40600E-03 9.09400E-03
 -1      4610 3.83230E-02 2.37100E-03 9.18800E-03
 -1      4611 3.32240E-02 3.41130E-02 8.71500E-03
 -1      4612 2.92940E-02 3.41030E-02 8.41800E-03
 -1      4613 3.38340E-02 2.87140E-02 9.08900E-03
 -1      4614 2.90380E-02 2.94080E-02 8.99200E-03
 -1      4615 2.49030E-02 3.36420E-02 8.70200E-03
 -1      4616 1.99610E-02 3.37560E-02 8.46700E-03
 -1      4617 2.42920E-02 2.94440E-02 8.87600E-03
 -1      4618 2.03790E-02 2.96070E-02 9.06200E-03
 -1      4619 3.40750E-02 2.47760E-02 9.10800E-03
 -1      4620 2.90200E-02 2.47920E-02 8.68300E-03
 -1      4621 3.43580E-02 2.04470E-02 8.86200E-03
 -1      4622 2.93750E-02 2.04520E-02 8.99300E-03
 -1      4623 2.50470E-02 2.46130E-02 9.22900E-03
 -1      4624 1.99340E-02 2.46390E-02 9.12500E-03
 -1      4625 2.48760E-02 1.98120E-02 9.10400E-03
 -1      4626 2.00960E-02 2.05260E-02 7.68800E-03
 -1      4627 1.57560E-02 3.42970E-02 8.38000E-03
 -1      4628 1.15460E-02 3.36490E-02 8.81400E-03
 -1      4629 1.51610E-02 2.95010E-02 8.43800E-03
 -1      4630 1.14540E-02 2.91390E-02 8.27000E-03
 -1      4631 6.67800E-03 3.38620E-02 8.73900E-03
 -1      4632 1.66100E-03 3.38090E-02 7.90800E-03
 -1      4633 6.69300E-03 2.92010E-02 8.61800E-03
 -1      4634 2.05700E-03 2.91130E-02 8.79500E-03
 -1      4635 1.57640E-02 2.53180E-02 8.97600E-03
 -1      4636 1.21820E-02 2.57440E-02 9.85100E-03
 -1      4637 1.00420E-02 2.53800E-02 9.74300E-03
 -1      4638 1.22510E-02 2.34910E-02 9.57700E-03
 -1      4639 1.21890E-02 2.57080E-02 7.26800E-03
 -1      4640 1.02150E-02 2.54660E-02 7.07300E-03
 -1      4641 1.67830E-02 2.13000E-02 1.03600E-02
 -1      4642 1.63010E-02 2.09940E-02 7.27000E-03
 -1      4643 8.00800E-03 2.52960E-02 9.69700E-03
 -1      4644 7.93500E-03 2.51640E-02 6.97400E-03
 -1      4645 3.40820E-02 1.56900E-02 9.22300E-03
 -1      4646 2.94210E-02 1.59320E-02 9.01900E-03
 -1      4647 3.37350E-02 1.12420E-02 8.94100E-03
 -1      4648 2.90650E-02 1.12450E-02 8.50900E-03
 -1      4649 2.42980E-02 1.59130E-02 7.69500E-03
 -1      4650 2.11900E-02 1.66860E-02 9.88700E-03
 -1      4651 2.10370E-02 1.65180E-02 7.53300E-03
 -1      4652 2.51210E-02 1.27520E-02 9.75400E-03
 -1      4653 2.31920E-02 1.24350E-02 9.41500E-03
 -1      4654 2.49070E-02 1.01240E-02 9.35900E-03
 -1      4655 2.53940E-02 1.22620E-02 7.10200E-03
 -1      4656 2.51460E-02 1.00680E-02 7.13900E-03
 -1      4657 3.36500E-02 6.97600E-03 9.13200E-03
 -1      4658 2.87970E-02 6.66300E-03 8.66000E-03
 -1      4659 3.32500E-02 2.17100E-03 8.75200E-03
 -1      4660 2.88020E-02 2.51000E-03 8.29700E-03
 -1      4661 2.54380E-02 7.99800E-03 9.97600E-03
 -1      4662 2.53560E-02 8.22700E-03 7.12600E-03
 -1      4663 2.54050E-02 6.00400E-03 6.93700E-03
 -1      4664-1.09300E-03 3.70150E-02 9.60100E-03
 -1      4665-3.16700E-03 3.76080E-02 1.00440E-02
 -1      4666-1.07300E-03 3.70880E-02 7.11000E-03
 -1      4667-3.18800E-03 3.72300E-02 7.14700E-03
 -1      4668-5.24500E-03 3.78600E-02 9.81200E-03
 -1      4669-7.55800E-03 3.75740E-02 9.93100E-03
 -1      4670-5.41400E-03 3.75050E-02 7.11600E-03
 -1      4671-7.77900E-03 3.75100E-02 7.16600E-03
 -1      4672-1.01470E-02 3.75470E-02 9.96500E-03
 -1      4673-1.25650E-02 3.76160E-02 9.82000E-03
 -1      4674-1.01170E-02 3.74950E-02 7.25600E-03
 -1      4675-1.24030E-02 3.74940E-02 7.18400E-03
 -1      4676-1.48430E-02 3.72800E-02 9.66400E-03
 -1      4677-1.71100E-02 3.72940E-02 9.92200E-03
 -1      4678-1.46830E-02 3.74260E-02 7.17200E-03
 -1      4679-1.70140E-02 3.73760E-02 7.12700E-03
 -1      4680-1.93040E-02 3.75250E-02 1.00670E-02
 -1      4681-2.13700E-02 3.69530E-02 9.66200E-03
 -1      4682-1.92390E-02 3.71080E-02 7.16000E-03
 -1      4683-2.14140E-02 3.69540E-02 7.13600E-03
 -1      4684-2.31300E-02 3.72070E-02 9.94000E-03
 -1      4685-2.52870E-02 3.73730E-02 1.00530E-02
 -1      4686-2.35050E-02 3.70270E-02 7.15000E-03
 -1      4687-2.56100E-02 3.71680E-02 7.13900E-03
 -1      4688-2.77700E-02 3.76240E-02 9.65900E-03
 -1      4689-3.01480E-02 3.74700E-02 9.94100E-03
 -1      4690-2.78930E-02 3.74650E-02 7.15400E-03
 -1      4691-3.03030E-02 3.74550E-02 7.17800E-03
 -1      4692-3.25510E-02 3.75510E-02 9.83100E-03
 -1      4693-3.48470E-02 3.75010E-02 9.99500E-03
 -1      4694-3.26350E-02 3.74450E-02 7.22700E-03
 -1      4695-3.49360E-02 3.74290E-02 7.25000E-03
 -1      4696-3.71940E-02 3.74680E-02 1.00210E-02
 -1      4697-3.95940E-02 3.74810E-02 1.02570E-02
 -1      4698-3.72630E-02 3.73870E-02 7.24200E-03
 -1      4699-3.94930E-02 3.71710E-02 7.33600E-03
 -1      4700-4.21070E-02 3.76320E-02 1.01900E-02
 -1      4701-4.43540E-02 3.72590E-02 9.74800E-03
 -1      4702-4.17460E-02 3.71420E-02 7.37200E-03
 -1      4703-4.39230E-02 3.71510E-02 7.26800E-03
 -1      4704-4.61050E-02 3.67880E-02 9.67700E-03
 -1      4705-4.81360E-02 3.74180E-02 9.90100E-03
 -1      4706-4.60200E-02 3.75480E-02 7.15500E-03
 -1      4707-4.82620E-02 3.74820E-02 7.14600E-03
 -1      4708-5.02990E-02 3.72530E-02 9.53300E-03
 -1      4709-5.26870E-02 3.77330E-02 9.65200E-03
 -1      4710-5.05330E-02 3.73230E-02 7.12400E-03
 -1      4711-5.30450E-02 3.76630E-02 6.98000E-03
 -1      4712-1.98500E-03 3.38140E-02 7.89600E-03
 -1      4713-6.56800E-03 3.38770E-02 8.66500E-03
 -1      4714-1.84100E-03 2.95220E-02 8.64300E-03
 -1      4715-7.07200E-03 2.92890E-02 8.53200E-03
 -1      4716-1.11930E-02 3.38990E-02 8.65100E-03
 -1      4717-1.50540E-02 3.39690E-02 8.20700E-03
 -1      4718-1.13480E-02 2.92040E-02 8.34300E-03
 -1      4719-1.55410E-02 2.93710E-02 8.89400E-03
 -1      4720-8.08700E-03 2.57020E-02 9.97000E-03
 -1      4721-7.38300E-03 2.54750E-02 7.53000E-03
 -1      4722-1.02550E-02 2.57520E-02 1.00700E-02
 -1      4723-1.22460E-02 2.58280E-02 1.00430E-02
 -1      4724-1.24690E-02 2.38350E-02 1.01890E-02
 -1      4725-9.63200E-03 2.52800E-02 7.35300E-03
 -1      4726-1.21620E-02 2.54020E-02 7.43200E-03
 -1      4727-1.26380E-02 2.31200E-02 7.71200E-03
 -1      4728-1.57640E-02 2.51300E-02 8.76700E-03
 -1      4729-1.66280E-02 2.14520E-02 1.01260E-02
 -1      4730-1.62930E-02 2.11260E-02 7.60700E-03
 -1      4731-2.03660E-02 3.36950E-02 8.53100E-03
 -1      4732-2.43650E-02 3.37510E-02 8.22000E-03
 -1      4733-2.01630E-02 2.95450E-02 8.87300E-03
 -1      4734-2.42980E-02 2.92920E-02 8.76400E-03
 -1      4735-2.89880E-02 3.38220E-02 8.63500E-03
 -1      4736-3.40270E-02 3.37680E-02 8.42900E-03
 -1      4737-2.96250E-02 2.93460E-02 8.80200E-03
 -1      4738-3.39590E-02 2.90690E-02 8.57600E-03
 -1      4739-2.02160E-02 2.47540E-02 8.97700E-03
 -1      4740-2.48580E-02 2.51110E-02 9.09300E-03
 -1      4741-2.02000E-02 2.06260E-02 7.78500E-03
 -1      4742-2.49910E-02 2.08370E-02 9.08300E-03
 -1      4743-2.88750E-02 2.50550E-02 9.06400E-03
 -1      4744-3.39960E-02 2.50510E-02 8.77300E-03
 -1      4745-2.91890E-02 2.05360E-02 8.71500E-03
 -1      4746-3.37610E-02 2.06350E-02 9.11700E-03
 -1      4747-2.09940E-02 1.69120E-02 9.75000E-03
 -1      4748-2.11060E-02 1.66280E-02 7.12100E-03
 -1      4749-2.50090E-02 1.56960E-02 8.50600E-03
 -1      4750-2.35990E-02 1.21940E-02 9.82700E-03
 -1      4751-2.57080E-02 1.20950E-02 9.73400E-03
 -1      4752-2.57240E-02 1.01560E-02 9.62300E-03
 -1      4753-2.55320E-02 1.20190E-02 7.18700E-03
 -1      4754-2.53270E-02 9.76800E-03 6.95600E-03
 -1      4755-2.88850E-02 1.58490E-02 9.01300E-03
 -1      4756-3.36850E-02 1.58530E-02 9.09700E-03
 -1      4757-2.87400E-02 1.11710E-02 8.60000E-03
 -1      4758-3.35720E-02 1.10930E-02 9.04400E-03
 -1      4759-2.56570E-02 7.77900E-03 9.91300E-03
 -1      4760-2.52530E-02 8.10000E-03 7.29200E-03
 -1      4761-2.89000E-02 6.46600E-03 8.29100E-03
 -1      4762-3.37420E-02 6.93100E-03 9.14100E-03
 -1      4763-2.89710E-02 2.30300E-03 8.27800E-03
 -1      4764-3.34840E-02 2.12600E-03 8.83200E-03
 -1      4765-3.81870E-02 3.34840E-02 8.73900E-03
 -1      4766-4.28840E-02 3.37060E-02 8.69200E-03
 -1      4767-3.82960E-02 2.91430E-02 8.97200E-03
 -1      4768-4.24320E-02 2.85630E-02 8.87500E-03
 -1      4769-4.74880E-02 3.36870E-02 7.87900E-03
 -1      4770-5.17860E-02 3.41030E-02 7.72400E-03
 -1      4771-4.74880E-02 2.88320E-02 8.90200E-03
 -1      4772-5.18480E-02 2.94980E-02 8.52900E-03
 -1      4773-3.79010E-02 2.47770E-02 8.85100E-03
 -1      4774-4.27810E-02 2.45090E-02 8.88300E-03
 -1      4775-3.83720E-02 2.05030E-02 8.89200E-03
 -1      4776-4.30050E-02 2.01260E-02 8.90100E-03
 -1      4777-4.70360E-02 2.46800E-02 8.86700E-03
 -1      4778-5.13210E-02 2.48600E-02 8.97700E-03
 -1      4779-4.73880E-02 2.02690E-02 9.01900E-03
 -1      4780-5.19130E-02 2.01910E-02 9.04400E-03
 -1      4781-5.72600E-02 3.42910E-02 8.22600E-03
 -1      4782-5.54770E-02 2.88970E-02 8.53000E-03
 -1      4783-5.64910E-02 2.54860E-02 8.55800E-03
 -1      4784-5.68920E-02 2.03210E-02 8.51400E-03
 -1      4785-3.79820E-02 1.58430E-02 9.07800E-03
 -1      4786-4.28730E-02 1.53750E-02 9.05600E-03
 -1      4787-3.80150E-02 1.10030E-02 8.70300E-03
 -1      4788-4.28160E-02 1.08730E-02 8.80800E-03
 -1      4789-4.77850E-02 1.55360E-02 8.80700E-03
 -1      4790-5.20140E-02 1.54250E-02 8.72500E-03
 -1      4791-4.75320E-02 1.12200E-02 8.89800E-03
 -1      4792-5.16220E-02 1.10910E-02 9.06800E-03
 -1      4793-3.82580E-02 7.27500E-03 8.52800E-03
 -1      4794-4.27460E-02 6.96700E-03 8.70700E-03
 -1      4795-3.86670E-02 2.71000E-03 9.00300E-03
 -1      4796-4.32120E-02 2.24200E-03 8.76300E-03
 -1      4797-4.72530E-02 6.78300E-03 9.18700E-03
 -1      4798-5.15900E-02 7.21000E-03 8.95100E-03
 -1      4799-4.72780E-02 2.46900E-03 8.83500E-03
 -1      4800-5.17170E-02 1.81100E-03 8.69200E-03
 -1      4801-5.67780E-02 1.57760E-02 8.79300E-03
 -1      4802-5.57770E-02 1.13850E-02 8.91300E-03
 -1      4803-5.64530E-02 6.92300E-03 8.79400E-03
 -1      4804-5.65590E-02 2.47600E-03 8.46000E-03
 -1      4805 5.62740E-02-1.76100E-03 9.12400E-03
 -1      4806 5.67360E-02-7.31200E-03 8.77300E-03
 -1      4807 5.68260E-02-1.20190E-02 8.23900E-03
 -1      4808 5.61100E-02-1.54100E-02 8.97700E-03
 -1      4809 5.16690E-02-2.21000E-03 8.71100E-03
 -1      4810 4.73680E-02-2.12300E-03 8.79000E-03
 -1      4811 5.17650E-02-6.50600E-03 9.11900E-03
 -1      4812 4.74060E-02-6.38500E-03 9.11400E-03
 -1      4813 4.28290E-02-2.33700E-03 8.75900E-03
 -1      4814 3.81880E-02-2.61100E-03 8.95200E-03
 -1      4815 4.30870E-02-6.63900E-03 9.17600E-03
 -1      4816 3.83690E-02-6.89800E-03 9.05100E-03
 -1      4817 5.21430E-02-1.12820E-02 9.22300E-03
 -1      4818 4.72890E-02-1.17290E-02 9.08000E-03
 -1      4819 5.20890E-02-1.59660E-02 8.98200E-03
 -1      4820 4.75650E-02-1.58550E-02 9.14100E-03
 -1      4821 4.27640E-02-1.10390E-02 9.05900E-03
 -1      4822 3.79330E-02-1.12200E-02 8.83300E-03
 -1      4823 4.31300E-02-1.56800E-02 9.46900E-03
 -1      4824 3.81750E-02-1.59660E-02 8.72100E-03
 -1      4825 5.61560E-02-2.03560E-02 9.19300E-03
 -1      4826 5.57950E-02-2.50380E-02 8.12700E-03
 -1      4827 5.52430E-02-2.84500E-02 9.55700E-03
 -1      4828 5.48630E-02-3.07600E-02 9.79400E-03
 -1      4829 5.56030E-02-2.87210E-02 7.09400E-03
 -1      4830 5.53020E-02-3.03590E-02 7.00400E-03
 -1      4831 5.13770E-02-2.00380E-02 8.34300E-03
 -1      4832 4.73900E-02-2.05990E-02 8.89200E-03
 -1      4833 5.18380E-02-2.49290E-02 8.31400E-03
 -1      4834 4.72690E-02-2.49550E-02 8.95300E-03
 -1      4835 4.26960E-02-2.07590E-02 8.75500E-03
 -1      4836 3.80580E-02-2.04770E-02 8.70400E-03
 -1      4837 4.29520E-02-2.51280E-02 8.87800E-03
 -1      4838 3.82950E-02-2.50340E-02 9.30900E-03
 -1      4839 5.18280E-02-2.97630E-02 7.99600E-03
 -1      4840 4.73890E-02-2.93770E-02 8.86900E-03
 -1      4841 5.27490E-02-3.25100E-02 9.59600E-03
 -1      4842 5.07280E-02-3.26660E-02 9.52000E-03
 -1      4843 5.05320E-02-3.48340E-02 9.58100E-03
 -1      4844 5.30380E-02-3.28800E-02 7.07700E-03
 -1      4845 5.08860E-02-3.29480E-02 7.20300E-03
 -1      4846 5.05740E-02-3.50850E-02 7.12400E-03
 -1      4847 4.75030E-02-3.33770E-02 8.48600E-03
 -1      4848 4.26370E-02-2.96000E-02 8.86300E-03
 -1      4849 3.85350E-02-2.96780E-02 8.72100E-03
 -1      4850 4.25430E-02-3.39310E-02 8.17500E-03
 -1      4851 3.86010E-02-3.39000E-02 8.79300E-03
 -1      4852 3.34580E-02-2.27300E-03 8.84000E-03
 -1      4853 2.93810E-02-1.84500E-03 8.69600E-03
 -1      4854 3.37930E-02-6.70000E-03 9.16900E-03
 -1      4855 2.89800E-02-6.53700E-03 8.30200E-03
 -1      4856 2.57940E-02-7.94900E-03 9.90700E-03
 -1      4857 2.50210E-02-7.68400E-03 7.19100E-03
 -1      4858 3.34760E-02-1.09730E-02 8.94300E-03
 -1      4859 2.87850E-02-1.11410E-02 8.60000E-03
 -1      4860 3.36800E-02-1.57780E-02 9.22200E-03
 -1      4861 2.90470E-02-1.57990E-02 8.86600E-03
 -1      4862 2.62110E-02-1.01260E-02 9.83400E-03
 -1      4863 2.62310E-02-1.21670E-02 9.85700E-03
 -1      4864 2.33760E-02-1.29190E-02 9.71400E-03
 -1      4865 2.53340E-02-9.79000E-03 7.19500E-03
 -1      4866 2.54360E-02-1.22540E-02 7.36300E-03
 -1      4867 2.30790E-02-1.27480E-02 7.37000E-03
 -1      4868 2.49320E-02-1.61810E-02 8.43700E-03
 -1      4869 2.11530E-02-1.66930E-02 9.96000E-03
 -1      4870 2.10760E-02-1.64270E-02 7.54300E-03
 -1      4871 3.37300E-02-2.03860E-02 9.12300E-03
 -1      4872 2.90260E-02-2.04500E-02 8.89100E-03
 -1      4873 3.36910E-02-2.49970E-02 8.98900E-03
 -1      4874 2.92990E-02-2.47940E-02 8.82200E-03
 -1      4875 2.44630E-02-2.01550E-02 9.06700E-03
 -1      4876 2.02520E-02-2.04260E-02 8.20800E-03
 -1      4877 2.47320E-02-2.47210E-02 8.64500E-03
 -1      4878 2.04320E-02-2.45030E-02 8.93000E-03
 -1      4879 3.41530E-02-2.92170E-02 9.03900E-03
 -1      4880 2.89220E-02-2.94470E-02 9.05100E-03
 -1      4881 3.34760E-02-3.37180E-02 8.69000E-03
 -1      4882 2.90360E-02-3.37580E-02 8.62900E-03
 -1      4883 2.48020E-02-2.93950E-02 9.04900E-03
 -1      4884 2.05550E-02-2.86920E-02 9.02900E-03
 -1      4885 2.44670E-02-3.40140E-02 8.48900E-03
 -1      4886 2.02210E-02-3.41310E-02 8.18800E-03
 -1      4887 1.65470E-02-2.14440E-02 1.03410E-02
 -1      4888 1.62960E-02-2.10930E-02 7.71500E-03
 -1      4889 1.59170E-02-2.47650E-02 8.84000E-03
 -1      4890 1.25480E-02-2.35460E-02 9.95300E-03
 -1      4891 1.21030E-02-2.54560E-02 9.77000E-03
 -1      4892 1.03570E-02-2.53910E-02 9.82300E-03
 -1      4893 1.21450E-02-2.55450E-02 7.39300E-03
 -1      4894 9.88600E-03-2.54130E-02 7.52000E-03
 -1      4895 8.21800E-03-2.56740E-02 9.80100E-03
 -1      4896 8.02800E-03-2.54170E-02 7.55900E-03
 -1      4897 1.58300E-02-2.93290E-02 9.05800E-03
 -1      4898 1.13650E-02-2.91490E-02 8.52200E-03
 -1      4899 1.60890E-02-3.42500E-02 8.49200E-03
 -1      4900 1.14920E-02-3.38090E-02 8.79500E-03
 -1      4901 6.79900E-03-2.92910E-02 8.62200E-03
 -1      4902 2.07200E-03-2.93560E-02 8.68200E-03
 -1      4903 6.29000E-03-3.39250E-02 8.71700E-03
 -1      4904 1.79700E-03-3.40960E-02 8.09700E-03
 -1      4905 4.58090E-02-3.70870E-02 9.73200E-03
 -1      4906 4.62890E-02-3.73270E-02 7.17600E-03
 -1      4907 4.40290E-02-3.70310E-02 9.92900E-03
 -1      4908 4.18450E-02-3.76780E-02 9.86000E-03
 -1      4909 4.40900E-02-3.76370E-02 7.53400E-03
 -1      4910 4.18170E-02-3.74880E-02 7.15800E-03
 -1      4911 3.97160E-02-3.72930E-02 9.79600E-03
 -1      4912 3.71890E-02-3.71620E-02 1.00220E-02
 -1      4913 3.95960E-02-3.72910E-02 7.28700E-03
 -1      4914 3.73700E-02-3.74630E-02 7.29600E-03
 -1      4915 3.50270E-02-3.74230E-02 9.75100E-03
 -1      4916 3.26430E-02-3.74640E-02 9.97700E-03
 -1      4917 3.48380E-02-3.75040E-02 7.14400E-03
 -1      4918 3.24900E-02-3.74840E-02 7.20800E-03
 -1      4919 3.00810E-02-3.74600E-02 9.95300E-03
 -1      4920 2.77180E-02-3.76250E-02 9.83600E-03
 -1      4921 3.02160E-02-3.74560E-02 7.17200E-03
 -1      4922 2.79310E-02-3.74680E-02 7.22800E-03
 -1      4923 2.56510E-02-3.77930E-02 9.97500E-03
 -1      4924 2.33800E-02-3.77520E-02 1.01190E-02
 -1      4925 2.57020E-02-3.73140E-02 7.24800E-03
 -1      4926 2.34980E-02-3.71890E-02 7.31800E-03
 -1      4927 2.14150E-02-3.71500E-02 9.61100E-03
 -1      4928 1.93920E-02-3.71690E-02 9.69100E-03
 -1      4929 2.14100E-02-3.70950E-02 7.18800E-03
 -1      4930 1.92910E-02-3.71540E-02 7.04400E-03
 -1      4931 1.69310E-02-3.69350E-02 9.62300E-03
 -1      4932 1.47890E-02-3.74850E-02 9.55400E-03
 -1      4933 1.70340E-02-3.72280E-02 7.03800E-03
 -1      4934 1.47680E-02-3.75160E-02 7.09900E-03
 -1      4935 1.26160E-02-3.76650E-02 9.79700E-03
 -1      4936 1.02070E-02-3.75070E-02 9.94700E-03
 -1      4937 1.24390E-02-3.75090E-02 7.16300E-03
 -1      4938 1.01040E-02-3.74250E-02 7.23200E-03
 -1      4939 7.60400E-03-3.75220E-02 9.92400E-03
 -1      4940 5.26500E-03-3.76570E-02 9.64500E-03
 -1      4941 7.75900E-03-3.74440E-02 7.21000E-03
 -1      4942 5.40000E-03-3.74910E-02 7.23200E-03
 -1      4943 3.08900E-03-3.72500E-02 9.73100E-03
 -1      4944 8.67000E-04-3.66520E-02 9.73100E-03
 -1      4945 3.15000E-03-3.72020E-02 7.08400E-03
 -1      4946 9.81000E-04-3.70780E-02 7.01400E-03
 -1      4947-2.53200E-02-8.11600E-03 9.67200E-03
 -1      4948-2.50870E-02-8.02400E-03 7.00600E-03
 -1      4949-2.90460E-02-1.43500E-03 8.40400E-03
 -1      4950-3.40950E-02-2.30200E-03 9.04400E-03
 -1      4951-2.84840E-02-6.85100E-03 7.70600E-03
 -1      4952-3.41590E-02-6.84900E-03 9.22600E-03
 -1      4953-2.53860E-02-1.00510E-02 9.57500E-03
 -1      4954-2.32440E-02-1.27500E-02 9.71200E-03
 -1      4955-2.52240E-02-1.27780E-02 9.91100E-03
 -1      4956-2.53470E-02-1.02370E-02 7.04400E-03
 -1      4957-2.55520E-02-1.22470E-02 7.18700E-03
 -1      4958-2.11620E-02-1.65670E-02 9.87700E-03
 -1      4959-2.10570E-02-1.64330E-02 7.13600E-03
 -1      4960-2.45980E-02-1.59420E-02 7.75400E-03
 -1      4961-2.91230E-02-1.11980E-02 8.43500E-03
 -1      4962-3.37730E-02-1.12370E-02 8.90700E-03
 -1      4963-2.93920E-02-1.58270E-02 9.01900E-03
 -1      4964-3.40500E-02-1.56950E-02 9.21400E-03
 -1      4965-7.96600E-03-2.53110E-02 9.66500E-03
 -1      4966-7.89500E-03-2.54030E-02 7.18100E-03
 -1      4967-1.68540E-02-2.15690E-02 1.05220E-02
 -1      4968-1.64360E-02-2.11490E-02 7.68400E-03
 -1      4969-9.98000E-03-2.54110E-02 9.57000E-03
 -1      4970-1.22980E-02-2.58550E-02 9.93300E-03
 -1      4971-9.75700E-03-2.54140E-02 6.75900E-03
 -1      4972-1.21290E-02-2.55250E-02 7.26200E-03
 -1      4973-1.59820E-02-2.53180E-02 8.76600E-03
 -1      4974-2.00300E-03-2.87260E-02 9.02800E-03
 -1      4975-6.45700E-03-2.93560E-02 8.72900E-03
 -1      4976-2.30000E-03-3.42400E-02 7.80400E-03
 -1      4977-6.75700E-03-3.39390E-02 8.61800E-03
 -1      4978-1.10360E-02-2.88410E-02 8.65700E-03
 -1      4979-1.53880E-02-2.96290E-02 8.57000E-03
 -1      4980-1.09370E-02-3.39400E-02 7.90700E-03
 -1      4981-1.63900E-02-3.41820E-02 8.67000E-03
 -1      4982-2.04750E-02-2.04120E-02 8.33300E-03
 -1      4983-2.45930E-02-2.01340E-02 8.96200E-03
 -1      4984-2.02870E-02-2.48320E-02 9.17100E-03
 -1      4985-2.47710E-02-2.48030E-02 8.79800E-03
 -1      4986-2.91480E-02-2.04540E-02 8.96100E-03
 -1      4987-3.37740E-02-2.03790E-02 8.79200E-03
 -1      4988-2.92510E-02-2.48260E-02 9.19800E-03
 -1      4989-3.36840E-02-2.48750E-02 9.21000E-03
 -1      4990-2.06540E-02-2.90520E-02 8.96100E-03
 -1      4991-2.45520E-02-2.93510E-02 9.11100E-03
 -1      4992-2.03420E-02-3.41620E-02 8.29500E-03
 -1      4993-2.46980E-02-3.38670E-02 8.59500E-03
 -1      4994-2.93250E-02-2.96160E-02 9.25300E-03
 -1      4995-3.38290E-02-2.92520E-02 9.06500E-03
 -1      4996-2.90560E-02-3.40250E-02 8.31800E-03
 -1      4997-3.37290E-02-3.36390E-02 8.52300E-03
 -1      4998-3.86440E-02-2.02900E-03 8.77000E-03
 -1      4999-4.31470E-02-1.97900E-03 8.75400E-03
 -1      5000-3.83590E-02-6.71300E-03 8.77200E-03
 -1      5001-4.32300E-02-6.25200E-03 9.05000E-03
 -1      5002-4.74020E-02-2.27600E-03 8.86000E-03
 -1      5003-5.18630E-02-2.40600E-03 7.73000E-03
 -1      5004-4.74710E-02-6.84200E-03 9.01300E-03
 -1      5005-5.15470E-02-6.74400E-03 8.73000E-03
 -1      5006-3.82870E-02-1.10160E-02 8.94400E-03
 -1      5007-4.28610E-02-1.09240E-02 8.85500E-03
 -1      5008-3.82470E-02-1.56820E-02 9.09000E-03
 -1      5009-4.30040E-02-1.56170E-02 9.01400E-03
 -1      5010-4.74320E-02-1.12520E-02 8.98000E-03
 -1      5011-5.13000E-02-1.11740E-02 8.93900E-03
 -1      5012-4.74530E-02-1.58570E-02 9.02000E-03
 -1      5013-5.18530E-02-1.54870E-02 8.71900E-03
 -1      5014-5.68500E-02-2.21800E-03 8.43100E-03
 -1      5015-5.68190E-02-6.80500E-03 8.42600E-03
 -1      5016-5.70210E-02-1.11070E-02 7.60100E-03
 -1      5017-5.65740E-02-1.54990E-02 8.97400E-03
 -1      5018-3.85480E-02-2.04380E-02 8.96500E-03
 -1      5019-4.27390E-02-1.99500E-02 8.64200E-03
 -1      5020-3.85560E-02-2.48540E-02 9.02300E-03
 -1      5021-4.30660E-02-2.53300E-02 8.72900E-03
 -1      5022-4.75840E-02-2.02270E-02 9.02800E-03
 -1      5023-5.16800E-02-2.02000E-02 8.57500E-03
 -1      5024-4.71770E-02-2.49310E-02 9.01700E-03
 -1      5025-5.11250E-02-2.44480E-02 8.94600E-03
 -1      5026-3.85370E-02-2.97320E-02 8.91200E-03
 -1      5027-4.30460E-02-2.94570E-02 9.05500E-03
 -1      5028-3.82300E-02-3.37440E-02 8.60200E-03
 -1      5029-4.24870E-02-3.36580E-02 8.68100E-03
 -1      5030-4.73690E-02-2.95720E-02 8.74000E-03
 -1      5031-5.17100E-02-2.92290E-02 8.62400E-03
 -1      5032-4.73620E-02-3.39980E-02 8.12200E-03
 -1      5033-5.15870E-02-3.38590E-02 8.33900E-03
 -1      5034-5.69100E-02-2.00270E-02 8.31100E-03
 -1      5035-5.69400E-02-2.43730E-02 8.38000E-03
 -1      5036-5.53700E-02-2.93910E-02 8.06700E-03
 -1      5037-5.67370E-02-3.41180E-02 8.34000E-03
 -1      5038-1.28500E-03-3.67560E-02 9.56600E-03
 -1      5039-3.12000E-03-3.72540E-02 9.79000E-03
 -1      5040-1.12100E-03-3.70540E-02 7.05700E-03
 -1      5041-3.20600E-03-3.71580E-02 7.16600E-03
 -1      5042-5.28100E-03-3.76380E-02 9.68300E-03
 -1      5043-7.58000E-03-3.73860E-02 9.77700E-03
 -1      5044-5.42800E-03-3.74660E-02 7.23500E-03
 -1      5045-7.75600E-03-3.74750E-02 7.18400E-03
 -1      5046-9.95800E-03-3.76360E-02 9.78000E-03
 -1      5047-1.22630E-02-3.73270E-02 1.00180E-02
 -1      5048-1.00420E-02-3.74820E-02 7.12200E-03
 -1      5049-1.25900E-02-3.75320E-02 7.41000E-03
 -1      5050-1.46010E-02-3.73280E-02 9.50200E-03
 -1      5051-1.70530E-02-3.74750E-02 9.82200E-03
 -1      5052-1.52260E-02-3.73710E-02 7.20700E-03
 -1      5053-1.71430E-02-3.71620E-02 6.97100E-03
 -1      5054-1.93840E-02-3.74560E-02 9.87300E-03
 -1      5055-2.14220E-02-3.69860E-02 9.55900E-03
 -1      5056-1.91890E-02-3.72050E-02 7.07300E-03
 -1      5057-2.13420E-02-3.71240E-02 7.06200E-03
 -1      5058-2.32380E-02-3.72210E-02 9.74100E-03
 -1      5059-2.55130E-02-3.74160E-02 9.63400E-03
 -1      5060-2.34400E-02-3.71400E-02 7.13800E-03
 -1      5061-2.56220E-02-3.72210E-02 7.15700E-03
 -1      5062-2.76850E-02-3.74760E-02 9.62300E-03
 -1      5063-3.00150E-02-3.76340E-02 9.97100E-03
 -1      5064-2.78870E-02-3.74850E-02 7.14800E-03
 -1      5065-3.02520E-02-3.75040E-02 7.21900E-03
 -1      5066-3.24970E-02-3.75830E-02 9.99300E-03
 -1      5067-3.49830E-02-3.73530E-02 9.91500E-03
 -1      5068-3.25970E-02-3.74840E-02 7.26300E-03
 -1      5069-3.49210E-02-3.74530E-02 7.14900E-03
 -1      5070-3.71460E-02-3.70900E-02 9.80600E-03
 -1      5071-3.96150E-02-3.70760E-02 9.78900E-03
 -1      5072-3.72410E-02-3.73880E-02 7.17100E-03
 -1      5073-3.95070E-02-3.71500E-02 7.20900E-03
 -1      5074-4.19890E-02-3.69680E-02 9.90500E-03
 -1      5075-4.44050E-02-3.72170E-02 9.63000E-03
 -1      5076-4.17620E-02-3.71070E-02 7.21700E-03
 -1      5077-4.40170E-02-3.70610E-02 7.19500E-03
 -1      5078-4.61860E-02-3.69520E-02 9.71100E-03
 -1      5079-4.82990E-02-3.73100E-02 9.64500E-03
 -1      5080-4.61180E-02-3.70510E-02 7.10900E-03
 -1      5081-4.82630E-02-3.71820E-02 7.14900E-03
 -1      5082-5.04930E-02-3.70980E-02 9.98700E-03
 -1      5083-5.29940E-02-3.74660E-02 9.50800E-03
 -1      5084-5.05050E-02-3.72410E-02 7.19400E-03
 -1      5085-5.30430E-02-3.75850E-02 7.02100E-03
 -1      5086 4.65430E-02 3.74360E-02 4.93000E-03
 -1      5087 4.59800E-02 3.73760E-02 2.47500E-03
 -1      5088 4.40210E-02 3.75630E-02 4.79400E-03
 -1      5089 4.16750E-02 3.74800E-02 4.88100E-03
 -1      5090 4.40440E-02 3.73980E-02 2.40600E-03
 -1      5091 4.18370E-02 3.75830E-02 2.16300E-03
 -1      5092 3.95020E-02 3.72340E-02 4.85800E-03
 -1      5093 3.72520E-02 3.72270E-02 4.83600E-03
 -1      5094 3.96780E-02 3.72400E-02 2.21200E-03
 -1      5095 3.71430E-02 3.70710E-02 2.08700E-03
 -1      5096 3.48600E-02 3.72160E-02 4.91000E-03
 -1      5097 3.25210E-02 3.71900E-02 4.99900E-03
 -1      5098 3.48260E-02 3.72000E-02 2.23400E-03
 -1      5099 3.24280E-02 3.73610E-02 2.47300E-03
 -1      5100 3.02760E-02 3.72050E-02 4.84300E-03
 -1      5101 2.80300E-02 3.71630E-02 4.72000E-03
 -1      5102 3.00560E-02 3.72930E-02 2.22800E-03
 -1      5103 2.77990E-02 3.75610E-02 2.13000E-03
 -1      5104 2.58580E-02 3.70820E-02 4.82000E-03
 -1      5105 2.37110E-02 3.70900E-02 4.92600E-03
 -1      5106 2.59980E-02 3.74270E-02 1.91700E-03
 -1      5107 2.34930E-02 3.75330E-02 1.96700E-03
 -1      5108 2.15480E-02 3.73030E-02 4.88300E-03
 -1      5109 1.93060E-02 3.73450E-02 4.75500E-03
 -1      5110 2.14440E-02 3.70160E-02 2.33700E-03
 -1      5111 1.94000E-02 3.72060E-02 2.16000E-03
 -1      5112 1.70570E-02 3.73990E-02 4.75400E-03
 -1      5113 1.47220E-02 3.74660E-02 4.75800E-03
 -1      5114 1.71890E-02 3.70980E-02 2.13900E-03
 -1      5115 1.47050E-02 3.74870E-02 2.17800E-03
 -1      5116 1.23910E-02 3.74780E-02 4.77800E-03
 -1      5117 1.00990E-02 3.75040E-02 4.75600E-03
 -1      5118 1.24720E-02 3.78310E-02 2.13800E-03
 -1      5119 1.01660E-02 3.75380E-02 2.03000E-03
 -1      5120 7.75800E-03 3.74890E-02 4.86000E-03
 -1      5121 5.38000E-03 3.74380E-02 4.95800E-03
 -1      5122 7.72400E-03 3.73670E-02 1.96700E-03
 -1      5123 5.21100E-03 3.74530E-02 2.42600E-03
 -1      5124 3.14300E-03 3.71880E-02 4.92900E-03
 -1      5125 9.94000E-04 3.71130E-02 4.86600E-03
 -1      5126 3.13900E-03 3.73020E-02 2.33000E-03
 -1      5127 9.79000E-04 3.70420E-02 2.41500E-03
 -1      5128 5.53540E-02 3.03960E-02 4.70100E-03
 -1      5129 5.57080E-02 2.85280E-02 4.84700E-03
 -1      5130 5.50830E-02 3.08300E-02 2.05500E-03
 -1      5131 5.54460E-02 2.83950E-02 2.49100E-03
 -1      5132 5.65670E-02 2.49790E-02 3.80800E-03
 -1      5133 5.60670E-02 2.00750E-02 3.21500E-03
 -1      5134 5.05920E-02 3.50020E-02 5.00600E-03
 -1      5135 5.31570E-02 3.27850E-02 4.90100E-03
 -1      5136 5.08990E-02 3.27870E-02 4.89500E-03
 -1      5137 5.05580E-02 3.48630E-02 2.40700E-03
 -1      5138 5.29320E-02 3.25070E-02 2.36500E-03
 -1      5139 5.06630E-02 3.26710E-02 2.46600E-03
 -1      5140 4.70400E-02 3.34410E-02 4.03000E-03
 -1      5141 5.15640E-02 2.91920E-02 4.34400E-03
 -1      5142 4.73610E-02 2.94180E-02 3.12600E-03
 -1      5143 4.27220E-02 3.36890E-02 4.41400E-03
 -1      5144 3.84000E-02 3.39050E-02 3.69800E-03
 -1      5145 4.31920E-02 2.90890E-02 3.51500E-03
 -1      5146 3.81680E-02 2.93890E-02 3.06000E-03
 -1      5147 5.24110E-02 2.47260E-02 3.68800E-03
 -1      5148 4.76900E-02 2.50480E-02 2.97000E-03
 -1      5149 5.14350E-02 2.02470E-02 3.11000E-03
 -1      5150 4.73540E-02 2.05180E-02 2.94900E-03
 -1      5151 4.30750E-02 2.50820E-02 3.04900E-03
 -1      5152 3.84170E-02 2.47840E-02 2.71700E-03
 -1      5153 4.27530E-02 2.07030E-02 3.17400E-03
 -1      5154 3.82080E-02 2.04310E-02 3.31100E-03
 -1      5155 5.63350E-02 1.56540E-02 3.16200E-03
 -1      5156 5.63670E-02 1.11960E-02 3.40900E-03
 -1      5157 5.64650E-02 7.05700E-03 3.17600E-03
 -1      5158 5.65780E-02 2.32600E-03 3.08800E-03
 -1      5159 5.15970E-02 1.54040E-02 2.74200E-03
 -1      5160 4.73620E-02 1.59840E-02 2.97900E-03
 -1      5161 5.19970E-02 1.09280E-02 2.91300E-03
 -1      5162 4.73950E-02 1.12610E-02 3.06600E-03
 -1      5163 4.31960E-02 1.59780E-02 2.72100E-03
 -1      5164 3.82850E-02 1.58030E-02 3.28800E-03
 -1      5165 4.30490E-02 1.10630E-02 3.26800E-03
 -1      5166 3.85860E-02 1.09950E-02 3.10800E-03
 -1      5167 5.16120E-02 6.79200E-03 3.08200E-03
 -1      5168 4.72250E-02 6.96500E-03 3.32900E-03
 -1      5169 5.17750E-02 2.80400E-03 3.41500E-03
 -1      5170 4.73870E-02 2.41600E-03 3.05400E-03
 -1      5171 4.31690E-02 6.74400E-03 3.60700E-03
 -1      5172 3.80520E-02 6.92400E-03 3.27900E-03
 -1      5173 4.29080E-02 2.24500E-03 3.09200E-03
 -1      5174 3.82350E-02 2.25400E-03 2.91000E-03
 -1      5175 3.35750E-02 3.38180E-02 3.41300E-03
 -1      5176 2.93780E-02 3.41050E-02 3.60200E-03
 -1      5177 3.35410E-02 2.90990E-02 3.06700E-03
 -1      5178 2.90100E-02 2.96050E-02 3.07800E-03
 -1      5179 2.44540E-02 3.38260E-02 3.42600E-03
 -1      5180 2.03420E-02 3.37810E-02 3.79300E-03
 -1      5181 2.50180E-02 2.96070E-02 3.21100E-03
 -1      5182 1.97850E-02 2.97020E-02 2.98700E-03
 -1      5183 3.41440E-02 2.48220E-02 3.24600E-03
 -1      5184 2.90620E-02 2.59880E-02 3.75800E-03
 -1      5185 3.40020E-02 2.05270E-02 3.26800E-03
 -1      5186 2.92300E-02 2.02140E-02 3.41700E-03
 -1      5187 2.41770E-02 2.48490E-02 3.43700E-03
 -1      5188 1.98190E-02 2.47730E-02 2.99400E-03
 -1      5189 2.47530E-02 2.01260E-02 3.05100E-03
 -1      5190 1.98580E-02 2.06490E-02 3.88100E-03
 -1      5191 1.56640E-02 3.36070E-02 3.37800E-03
 -1      5192 1.05970E-02 3.40550E-02 4.07500E-03
 -1      5193 1.54070E-02 2.96130E-02 3.30800E-03
 -1      5194 1.13700E-02 2.94620E-02 3.47100E-03
 -1      5195 6.70800E-03 3.41980E-02 3.99900E-03
 -1      5196 2.29100E-03 3.37380E-02 3.37800E-03
 -1      5197 6.74800E-03 2.90920E-02 3.27700E-03
 -1      5198 2.15800E-03 2.94050E-02 3.31000E-03
 -1      5199 1.59730E-02 2.47890E-02 2.98200E-03
 -1      5200 1.22260E-02 2.57100E-02 4.79300E-03
 -1      5201 9.90900E-03 2.54370E-02 4.57000E-03
 -1      5202 1.25320E-02 2.58620E-02 2.09600E-03
 -1      5203 1.03560E-02 2.52390E-02 2.03000E-03
 -1      5204 1.26530E-02 2.36050E-02 1.99900E-03
 -1      5205 1.66340E-02 2.11970E-02 4.68700E-03
 -1      5206 1.65530E-02 2.08460E-02 2.16900E-03
 -1      5207 8.01800E-03 2.53710E-02 4.55900E-03
 -1      5208 8.20800E-03 2.55950E-02 2.24800E-03
 -1      5209 3.40880E-02 1.56350E-02 2.80500E-03
 -1      5210 2.91490E-02 1.58530E-02 3.12400E-03
 -1      5211 3.37390E-02 1.12020E-02 3.02400E-03
 -1      5212 2.87310E-02 1.12300E-02 3.37100E-03
 -1      5213 2.48160E-02 1.59730E-02 4.01300E-03
 -1      5214 2.09090E-02 1.66800E-02 4.96400E-03
 -1      5215 2.10090E-02 1.70190E-02 2.10600E-03
 -1      5216 2.54860E-02 1.20950E-02 4.74100E-03
 -1      5217 2.51940E-02 9.90500E-03 4.87600E-03
 -1      5218 2.57970E-02 1.19460E-02 2.50400E-03
 -1      5219 2.35560E-02 1.22200E-02 2.37500E-03
 -1      5220 2.52050E-02 1.00810E-02 2.63800E-03
 -1      5221 3.36480E-02 6.96700E-03 2.80400E-03
 -1      5222 2.88580E-02 6.67000E-03 3.52300E-03
 -1      5223 3.35340E-02 2.22200E-03 3.02500E-03
 -1      5224 2.86330E-02 2.28600E-03 3.53000E-03
 -1      5225 2.53560E-02 7.88100E-03 4.72700E-03
 -1      5226 2.55520E-02 5.82700E-03 5.30300E-03
 -1      5227 2.55810E-02 7.83200E-03 1.99200E-03
 -1      5228-1.04500E-03 3.71680E-02 4.86000E-03
 -1      5229-3.12300E-03 3.74340E-02 4.78800E-03
 -1      5230-9.21000E-04 3.74740E-02 2.25000E-03
 -1      5231-3.02800E-03 3.75390E-02 2.35000E-03
 -1      5232-5.38400E-03 3.75000E-02 4.64900E-03
 -1      5233-7.74000E-03 3.74850E-02 4.75400E-03
 -1      5234-5.05300E-03 3.75520E-02 2.09500E-03
 -1      5235-7.55900E-03 3.75280E-02 2.03700E-03
 -1      5236-1.01070E-02 3.74550E-02 4.85700E-03
 -1      5237-1.23980E-02 3.74900E-02 4.82000E-03
 -1      5238-1.01590E-02 3.75010E-02 2.08700E-03
 -1      5239-1.25660E-02 3.76240E-02 2.19800E-03
 -1      5240-1.46790E-02 3.74290E-02 4.86700E-03
 -1      5241-1.70210E-02 3.73750E-02 4.89400E-03
 -1      5242-1.47530E-02 3.74490E-02 2.37100E-03
 -1      5243-1.70930E-02 3.72220E-02 2.29200E-03
 -1      5244-1.92130E-02 3.70690E-02 4.87700E-03
 -1      5245-2.13400E-02 3.69180E-02 4.78500E-03
 -1      5246-1.93090E-02 3.71180E-02 2.26800E-03
 -1      5247-2.14170E-02 3.68450E-02 2.32400E-03
 -1      5248-2.34780E-02 3.70430E-02 4.79300E-03
 -1      5249-2.56760E-02 3.71860E-02 4.73500E-03
 -1      5250-2.34220E-02 3.73550E-02 1.92700E-03
 -1      5251-2.56420E-02 3.76040E-02 1.99700E-03
 -1      5252-2.79520E-02 3.74680E-02 4.71300E-03
 -1      5253-3.02820E-02 3.74860E-02 4.75700E-03
 -1      5254-2.78860E-02 3.76440E-02 2.25800E-03
 -1      5255-3.01460E-02 3.75080E-02 2.03200E-03
 -1      5256-3.25750E-02 3.74430E-02 4.85300E-03
 -1      5257-3.48720E-02 3.74430E-02 4.77700E-03
 -1      5258-3.24890E-02 3.75730E-02 2.17200E-03
 -1      5259-3.48700E-02 3.73690E-02 2.04100E-03
 -1      5260-3.71760E-02 3.73930E-02 4.78000E-03
 -1      5261-3.94540E-02 3.73540E-02 4.91000E-03
 -1      5262-3.70630E-02 3.71330E-02 2.15000E-03
 -1      5263-3.95330E-02 3.71130E-02 2.24800E-03
 -1      5264-4.17110E-02 3.73830E-02 4.95900E-03
 -1      5265-4.39370E-02 3.71790E-02 4.85400E-03
 -1      5266-4.17450E-02 3.71410E-02 2.24600E-03
 -1      5267-4.43200E-02 3.72080E-02 2.05500E-03
 -1      5268-4.61490E-02 3.72350E-02 4.89500E-03
 -1      5269-4.83340E-02 3.74510E-02 4.93400E-03
 -1      5270-4.63420E-02 3.75470E-02 2.61800E-03
 -1      5271-4.83050E-02 3.72630E-02 2.32900E-03
 -1      5272-5.06080E-02 3.73020E-02 4.91100E-03
 -1      5273-5.33290E-02 3.75480E-02 4.83100E-03
 -1      5274-5.04210E-02 3.72290E-02 2.32900E-03
 -1      5275-5.30450E-02 3.75300E-02 2.50900E-03
 -1      5276-2.24100E-03 3.38010E-02 3.49700E-03
 -1      5277-6.55700E-03 3.37850E-02 3.23100E-03
 -1      5278-2.10100E-03 2.94200E-02 2.95800E-03
 -1      5279-6.73800E-03 2.92360E-02 3.47900E-03
 -1      5280-1.13060E-02 3.39790E-02 3.47800E-03
 -1      5281-1.49140E-02 3.34690E-02 3.68100E-03
 -1      5282-1.11540E-02 2.89400E-02 3.38000E-03
 -1      5283-1.53820E-02 2.93640E-02 3.33800E-03
 -1      5284-8.02400E-03 2.54080E-02 4.92300E-03
 -1      5285-7.94500E-03 2.53130E-02 2.26600E-03
 -1      5286-1.02050E-02 2.55980E-02 4.97800E-03
 -1      5287-1.21510E-02 2.56360E-02 4.89600E-03
 -1      5288-1.00800E-02 2.53810E-02 2.41800E-03
 -1      5289-1.22860E-02 2.60820E-02 2.27200E-03
 -1      5290-1.21030E-02 2.38690E-02 1.99600E-03
 -1      5291-1.55690E-02 2.52750E-02 3.47800E-03
 -1      5292-1.64710E-02 2.10710E-02 4.96000E-03
 -1      5293-1.68600E-02 2.14230E-02 1.89700E-03
 -1      5294-2.02940E-02 3.36040E-02 3.04200E-03
 -1      5295-2.46990E-02 3.40630E-02 3.54400E-03
 -1      5296-2.02680E-02 2.92260E-02 2.83900E-03
 -1      5297-2.46390E-02 2.92140E-02 2.99300E-03
 -1      5298-2.93030E-02 3.40530E-02 3.59100E-03
 -1      5299-3.35920E-02 3.36910E-02 3.32100E-03
 -1      5300-2.92260E-02 2.95360E-02 2.96700E-03
 -1      5301-3.37700E-02 2.89010E-02 3.02800E-03
 -1      5302-2.04930E-02 2.44520E-02 3.04100E-03
 -1      5303-2.46390E-02 2.47610E-02 3.38700E-03
 -1      5304-2.04400E-02 2.04770E-02 4.00200E-03
 -1      5305-2.45260E-02 2.04010E-02 3.05200E-03
 -1      5306-2.95080E-02 2.48020E-02 2.95100E-03
 -1      5307-3.37860E-02 2.49910E-02 3.26200E-03
 -1      5308-2.91180E-02 2.05580E-02 3.11800E-03
 -1      5309-3.37970E-02 2.04600E-02 2.96400E-03
 -1      5310-2.11290E-02 1.64960E-02 4.55000E-03
 -1      5311-2.11970E-02 1.67450E-02 2.11200E-03
 -1      5312-2.48200E-02 1.57430E-02 4.24400E-03
 -1      5313-2.55120E-02 1.20150E-02 4.68300E-03
 -1      5314-2.53080E-02 9.81900E-03 4.69500E-03
 -1      5315-2.34910E-02 1.26330E-02 2.21700E-03
 -1      5316-2.55580E-02 1.20460E-02 2.23100E-03
 -1      5317-2.54820E-02 1.02940E-02 2.04600E-03
 -1      5318-2.89330E-02 1.58420E-02 3.24300E-03
 -1      5319-3.38090E-02 1.57630E-02 2.75900E-03
 -1      5320-2.90590E-02 1.11670E-02 3.50800E-03
 -1      5321-3.37040E-02 1.12310E-02 3.04800E-03
 -1      5322-2.57570E-02 8.30500E-03 5.06400E-03
 -1      5323-2.53700E-02 8.28000E-03 2.55300E-03
 -1      5324-2.89000E-02 6.47900E-03 3.65400E-03
 -1      5325-3.38840E-02 6.87300E-03 2.76800E-03
 -1      5326-2.88290E-02 2.17800E-03 3.65500E-03
 -1      5327-3.40530E-02 2.31300E-03 2.93500E-03
 -1      5328-3.81870E-02 3.39430E-02 3.42800E-03
 -1      5329-4.25380E-02 3.34320E-02 3.48700E-03
 -1      5330-3.84120E-02 2.89050E-02 3.11400E-03
 -1      5331-4.30240E-02 2.90990E-02 3.23100E-03
 -1      5332-4.73800E-02 3.36780E-02 3.63700E-03
 -1      5333-5.18640E-02 3.37860E-02 3.97300E-03
 -1      5334-4.74450E-02 2.90590E-02 2.95400E-03
 -1      5335-5.16330E-02 2.95560E-02 3.76600E-03
 -1      5336-3.81420E-02 2.46800E-02 3.08300E-03
 -1      5337-4.26550E-02 2.45530E-02 4.37800E-03
 -1      5338-3.81250E-02 1.99230E-02 3.44600E-03
 -1      5339-4.24960E-02 2.07320E-02 2.96800E-03
 -1      5340-4.74680E-02 2.45600E-02 2.98600E-03
 -1      5341-5.17920E-02 2.50330E-02 3.16800E-03
 -1      5342-4.71170E-02 2.06370E-02 3.17700E-03
 -1      5343-5.23710E-02 2.07000E-02 3.25100E-03
 -1      5344-5.72020E-02 3.41020E-02 3.66900E-03
 -1      5345-5.57340E-02 2.89450E-02 3.63700E-03
 -1      5346-5.66830E-02 2.50860E-02 3.22700E-03
 -1      5347-5.63510E-02 2.02980E-02 2.83600E-03
 -1      5348-3.83540E-02 1.56830E-02 3.05400E-03
 -1      5349-4.29680E-02 1.59120E-02 3.02800E-03
 -1      5350-3.85360E-02 1.08660E-02 3.19100E-03
 -1      5351-4.28810E-02 1.05430E-02 3.42900E-03
 -1      5352-4.74900E-02 1.58120E-02 2.80100E-03
 -1      5353-5.20280E-02 1.59710E-02 3.08100E-03
 -1      5354-4.73560E-02 1.11140E-02 2.80000E-03
 -1      5355-5.17820E-02 1.12070E-02 2.90600E-03
 -1      5356-3.85210E-02 6.73200E-03 3.03800E-03
 -1      5357-4.30110E-02 6.55800E-03 2.91000E-03
 -1      5358-3.84450E-02 2.00900E-03 3.01700E-03
 -1      5359-4.31050E-02 2.27900E-03 3.22000E-03
 -1      5360-4.72490E-02 6.70900E-03 2.83800E-03
 -1      5361-5.14670E-02 6.65900E-03 2.98000E-03
 -1      5362-4.72700E-02 2.26500E-03 3.05000E-03
 -1      5363-5.18100E-02 1.89200E-03 3.02500E-03
 -1      5364-5.66010E-02 1.57520E-02 3.28500E-03
 -1      5365-5.65940E-02 1.14370E-02 4.07600E-03
 -1      5366-5.66520E-02 6.40500E-03 3.33400E-03
 -1      5367-5.66990E-02 1.98200E-03 3.10700E-03
 -1      5368 5.68840E-02-2.09100E-03 3.55600E-03
 -1      5369 5.64360E-02-6.31600E-03 3.54500E-03
 -1      5370 5.65030E-02-1.14040E-02 3.60100E-03
 -1      5371 5.63250E-02-1.57900E-02 3.60500E-03
 -1      5372 5.19610E-02-2.05600E-03 3.06100E-03
 -1      5373 4.72530E-02-2.54300E-03 3.06400E-03
 -1      5374 5.18340E-02-6.71800E-03 2.91600E-03
 -1      5375 4.77360E-02-6.68700E-03 3.06500E-03
 -1      5376 4.27290E-02-2.62400E-03 2.88900E-03
 -1      5377 3.83060E-02-2.59900E-03 3.01600E-03
 -1      5378 4.24870E-02-6.87300E-03 3.48200E-03
 -1      5379 3.82110E-02-7.18200E-03 3.59700E-03
 -1      5380 5.23140E-02-1.13420E-02 3.13900E-03
 -1      5381 4.74710E-02-1.09600E-02 3.06200E-03
 -1      5382 5.22450E-02-1.57760E-02 3.42600E-03
 -1      5383 4.75050E-02-1.57370E-02 2.97300E-03
 -1      5384 4.28950E-02-1.09210E-02 3.18200E-03
 -1      5385 3.82810E-02-1.07680E-02 3.24800E-03
 -1      5386 4.29870E-02-1.57530E-02 2.78300E-03
 -1      5387 3.80250E-02-1.54650E-02 2.98500E-03
 -1      5388 5.57170E-02-2.05680E-02 3.66800E-03
 -1      5389 5.68930E-02-2.49220E-02 4.03700E-03
 -1      5390 5.57530E-02-2.89240E-02 4.46800E-03
 -1      5391 5.52850E-02-3.05830E-02 4.80600E-03
 -1      5392 5.52290E-02-2.81220E-02 2.06800E-03
 -1      5393 5.50860E-02-3.04170E-02 2.49800E-03
 -1      5394 5.15780E-02-2.05980E-02 3.79400E-03
 -1      5395 4.75570E-02-1.99030E-02 3.31900E-03
 -1      5396 5.14370E-02-2.48580E-02 3.90200E-03
 -1      5397 4.72950E-02-2.48400E-02 2.99600E-03
 -1      5398 4.28310E-02-2.07050E-02 3.13700E-03
 -1      5399 3.80420E-02-2.04300E-02 3.26000E-03
 -1      5400 4.28190E-02-2.51200E-02 3.18100E-03
 -1      5401 3.82520E-02-2.49600E-02 2.68500E-03
 -1      5402 5.15060E-02-2.93750E-02 4.11300E-03
 -1      5403 4.71960E-02-2.97580E-02 3.11500E-03
 -1      5404 5.30600E-02-3.28580E-02 4.93700E-03
 -1      5405 5.08840E-02-3.29080E-02 5.01300E-03
 -1      5406 5.05120E-02-3.51350E-02 5.11700E-03
 -1      5407 5.26630E-02-3.30250E-02 2.37300E-03
 -1      5408 5.07030E-02-3.26850E-02 2.56700E-03
 -1      5409 5.04680E-02-3.48910E-02 2.49700E-03
 -1      5410 4.72380E-02-3.35670E-02 4.45500E-03
 -1      5411 4.27200E-02-2.95020E-02 3.14700E-03
 -1      5412 3.84330E-02-2.94080E-02 2.70400E-03
 -1      5413 4.28670E-02-3.38610E-02 3.86700E-03
 -1      5414 3.84190E-02-3.38540E-02 3.19600E-03
 -1      5415 3.33070E-02-2.12100E-03 3.07100E-03
 -1      5416 2.85060E-02-1.97400E-03 3.68200E-03
 -1      5417 3.36750E-02-6.89200E-03 2.85000E-03
 -1      5418 2.92160E-02-7.01100E-03 3.59300E-03
 -1      5419 2.55240E-02-5.63000E-03 4.73300E-03
 -1      5420 2.55650E-02-7.90600E-03 4.99000E-03
 -1      5421 2.57720E-02-5.41800E-03 2.37800E-03
 -1      5422 2.55650E-02-8.24000E-03 2.34000E-03
 -1      5423 3.34650E-02-1.10230E-02 3.14300E-03
 -1      5424 2.89100E-02-1.13610E-02 3.25100E-03
 -1      5425 3.36390E-02-1.57920E-02 2.79200E-03
 -1      5426 2.91860E-02-1.58140E-02 3.17600E-03
 -1      5427 2.55690E-02-1.01320E-02 4.62600E-03
 -1      5428 2.55720E-02-1.22700E-02 4.85600E-03
 -1      5429 2.52340E-02-1.04240E-02 2.34600E-03
 -1      5430 2.61020E-02-1.22280E-02 2.32300E-03
 -1      5431 2.35800E-02-1.24750E-02 2.32400E-03
 -1      5432 2.45570E-02-1.56860E-02 4.18600E-03
 -1      5433 2.10200E-02-1.65610E-02 4.95400E-03
 -1      5434 2.11180E-02-1.70120E-02 2.14300E-03
 -1      5435 3.37420E-02-2.03650E-02 2.88200E-03
 -1      5436 2.91110E-02-2.02000E-02 3.32600E-03
 -1      5437 3.37900E-02-2.48170E-02 3.05200E-03
 -1      5438 2.94500E-02-2.43500E-02 2.85500E-03
 -1      5439 2.48520E-02-2.03360E-02 2.94000E-03
 -1      5440 2.00490E-02-2.04250E-02 3.60300E-03
 -1      5441 2.47670E-02-2.45670E-02 3.24300E-03
 -1      5442 2.03780E-02-2.43280E-02 2.83400E-03
 -1      5443 3.38660E-02-2.92830E-02 2.93000E-03
 -1      5444 2.93730E-02-2.98850E-02 3.05500E-03
 -1      5445 3.37980E-02-3.37380E-02 3.13100E-03
 -1      5446 2.91630E-02-3.39420E-02 3.47300E-03
 -1      5447 2.52140E-02-2.87360E-02 2.87400E-03
 -1      5448 2.05580E-02-2.90160E-02 2.85700E-03
 -1      5449 2.43980E-02-3.41410E-02 3.35500E-03
 -1      5450 2.03210E-02-3.36900E-02 3.36400E-03
 -1      5451 1.64700E-02-2.10250E-02 4.98700E-03
 -1      5452 1.66140E-02-2.13470E-02 1.87000E-03
 -1      5453 1.58770E-02-2.50940E-02 3.40800E-03
 -1      5454 1.21760E-02-2.55650E-02 4.87700E-03
 -1      5455 1.02000E-02-2.53490E-02 5.10600E-03
 -1      5456 1.24980E-02-2.34840E-02 2.26900E-03
 -1      5457 1.22340E-02-2.55430E-02 2.31700E-03
 -1      5458 1.01160E-02-2.50960E-02 2.46700E-03
 -1      5459 7.94000E-03-2.51440E-02 5.12900E-03
 -1      5460 8.09200E-03-2.54670E-02 2.33400E-03
 -1      5461 1.56800E-02-2.90480E-02 3.21800E-03
 -1      5462 1.11800E-02-2.92620E-02 3.65400E-03
 -1      5463 1.60480E-02-3.39640E-02 3.51100E-03
 -1      5464 1.10720E-02-3.38520E-02 3.41800E-03
 -1      5465 6.58400E-03-2.93170E-02 3.52300E-03
 -1      5466 1.95900E-03-2.86530E-02 3.46800E-03
 -1      5467 6.42700E-03-3.39860E-02 3.78800E-03
 -1      5468 2.15300E-03-3.42620E-02 4.29900E-03
 -1      5469 4.63170E-02-3.74670E-02 4.85200E-03
 -1      5470 4.60550E-02-3.72700E-02 2.20100E-03
 -1      5471 4.37070E-02-3.79150E-02 5.05400E-03
 -1      5472 4.17220E-02-3.76830E-02 4.95000E-03
 -1      5473 4.42850E-02-3.77530E-02 2.75000E-03
 -1      5474 4.19530E-02-3.78410E-02 2.31900E-03
 -1      5475 3.96180E-02-3.73010E-02 4.84600E-03
 -1      5476 3.73540E-02-3.74770E-02 4.79700E-03
 -1      5477 3.97770E-02-3.73060E-02 2.28200E-03
 -1      5478 3.71760E-02-3.72030E-02 2.02700E-03
 -1      5479 3.48280E-02-3.76690E-02 4.87100E-03
 -1      5480 3.24500E-02-3.74460E-02 4.82400E-03
 -1      5481 3.49720E-02-3.74630E-02 2.29900E-03
 -1      5482 3.25970E-02-3.72760E-02 2.21100E-03
 -1      5483 3.02390E-02-3.72530E-02 4.79300E-03
 -1      5484 2.79300E-02-3.75060E-02 4.81600E-03
 -1      5485 3.00960E-02-3.74450E-02 2.06200E-03
 -1      5486 2.78640E-02-3.77610E-02 2.00900E-03
 -1      5487 2.57600E-02-3.76300E-02 4.79300E-03
 -1      5488 2.35230E-02-3.71820E-02 4.86600E-03
 -1      5489 2.55890E-02-3.74370E-02 2.28100E-03
 -1      5490 2.35190E-02-3.72030E-02 2.23000E-03
 -1      5491 2.13860E-02-3.71030E-02 4.87700E-03
 -1      5492 1.92410E-02-3.71320E-02 4.80200E-03
 -1      5493 2.15610E-02-3.71370E-02 2.38400E-03
 -1      5494 1.93500E-02-3.71530E-02 2.21700E-03
 -1      5495 1.70710E-02-3.73860E-02 4.85200E-03
 -1      5496 1.47550E-02-3.74710E-02 4.88000E-03
 -1      5497 1.71460E-02-3.70850E-02 2.21000E-03
 -1      5498 1.47810E-02-3.74200E-02 2.42300E-03
 -1      5499 1.24210E-02-3.74810E-02 4.79000E-03
 -1      5500 1.00880E-02-3.74300E-02 4.85600E-03
 -1      5501 1.25640E-02-3.76220E-02 2.20200E-03
 -1      5502 1.01840E-02-3.75260E-02 2.09000E-03
 -1      5503 7.78700E-03-3.74580E-02 4.91800E-03
 -1      5504 5.45700E-03-3.74330E-02 4.94300E-03
 -1      5505 7.81800E-03-3.76430E-02 2.29600E-03
 -1      5506 5.73400E-03-3.69200E-02 2.32900E-03
 -1      5507 3.20300E-03-3.71630E-02 4.88900E-03
 -1      5508 1.09500E-03-3.70930E-02 4.93000E-03
 -1      5509 3.25700E-03-3.70270E-02 2.23700E-03
 -1      5510 1.22600E-03-3.68450E-02 2.45300E-03
 -1      5511-2.53180E-02-5.86300E-03 4.52400E-03
 -1      5512-2.52820E-02-7.88300E-03 4.23900E-03
 -1      5513-2.58410E-02-7.85300E-03 1.75500E-03
 -1      5514-2.84970E-02-1.34500E-03 3.72200E-03
 -1      5515-3.36620E-02-2.08800E-03 3.13700E-03
 -1      5516-2.89220E-02-6.79600E-03 3.72900E-03
 -1      5517-3.37430E-02-6.87300E-03 2.82400E-03
 -1      5518-2.53950E-02-9.94500E-03 4.70000E-03
 -1      5519-2.55950E-02-1.20470E-02 4.67700E-03
 -1      5520-2.55320E-02-1.00780E-02 2.16500E-03
 -1      5521-2.35820E-02-1.24230E-02 2.16900E-03
 -1      5522-2.56220E-02-1.20140E-02 2.26700E-03
 -1      5523-2.11240E-02-1.61550E-02 4.72900E-03
 -1      5524-2.11030E-02-1.68200E-02 2.06600E-03
 -1      5525-2.50610E-02-1.58180E-02 3.48000E-03
 -1      5526-2.91680E-02-1.11640E-02 3.48300E-03
 -1      5527-3.37690E-02-1.11910E-02 3.13200E-03
 -1      5528-2.90830E-02-1.54900E-02 3.20100E-03
 -1      5529-3.37360E-02-1.55560E-02 3.01800E-03
 -1      5530-7.55800E-03-2.54480E-02 4.60600E-03
 -1      5531-8.12000E-03-2.56080E-02 2.03200E-03
 -1      5532-1.65350E-02-2.10320E-02 4.87500E-03
 -1      5533-1.68830E-02-2.13600E-02 1.81500E-03
 -1      5534-1.25910E-02-2.31350E-02 5.08000E-03
 -1      5535-9.69900E-03-2.51480E-02 4.49200E-03
 -1      5536-1.21440E-02-2.53610E-02 4.73900E-03
 -1      5537-1.25790E-02-2.33910E-02 2.36700E-03
 -1      5538-1.02840E-02-2.52000E-02 1.85500E-03
 -1      5539-1.25020E-02-2.57220E-02 2.03300E-03
 -1      5540-1.58650E-02-2.51830E-02 3.41800E-03
 -1      5541-2.10000E-03-2.95530E-02 3.36300E-03
 -1      5542-6.70800E-03-2.94590E-02 3.37300E-03
 -1      5543-2.02000E-03-3.40720E-02 4.27200E-03
 -1      5544-6.32400E-03-3.39560E-02 3.39700E-03
 -1      5545-1.10460E-02-2.92480E-02 3.34100E-03
 -1      5546-1.56270E-02-2.95690E-02 3.14400E-03
 -1      5547-1.15150E-02-3.37430E-02 3.23900E-03
 -1      5548-1.60970E-02-3.39520E-02 3.23600E-03
 -1      5549-2.04370E-02-2.01420E-02 3.94100E-03
 -1      5550-2.46060E-02-2.02570E-02 3.02400E-03
 -1      5551-2.00880E-02-2.47210E-02 2.99100E-03
 -1      5552-2.48020E-02-2.51920E-02 2.67800E-03
 -1      5553-2.96060E-02-1.98590E-02 3.02500E-03
 -1      5554-3.37810E-02-2.02340E-02 3.46600E-03
 -1      5555-2.93650E-02-2.49430E-02 3.00900E-03
 -1      5556-3.37500E-02-2.49970E-02 3.08500E-03
 -1      5557-2.01500E-02-2.91550E-02 3.07400E-03
 -1      5558-2.42350E-02-2.92770E-02 2.96100E-03
 -1      5559-2.04020E-02-3.41050E-02 3.41700E-03
 -1      5560-2.46640E-02-3.41620E-02 3.27100E-03
 -1      5561-2.96230E-02-2.94830E-02 3.03800E-03
 -1      5562-3.38560E-02-2.93550E-02 3.69800E-03
 -1      5563-2.91710E-02-3.37800E-02 3.34300E-03
 -1      5564-3.37780E-02-3.40360E-02 3.55000E-03
 -1      5565-3.86290E-02-2.25700E-03 2.87400E-03
 -1      5566-4.29680E-02-2.97300E-03 3.25100E-03
 -1      5567-3.85120E-02-6.85800E-03 3.10300E-03
 -1      5568-4.29990E-02-6.79300E-03 2.99300E-03
 -1      5569-4.72790E-02-2.40500E-03 3.38500E-03
 -1      5570-5.12520E-02-2.43400E-03 3.02100E-03
 -1      5571-4.73480E-02-6.79700E-03 3.18600E-03
 -1      5572-5.19370E-02-6.71000E-03 2.86800E-03
 -1      5573-3.81070E-02-1.11220E-02 3.45600E-03
 -1      5574-4.29820E-02-1.10310E-02 3.04000E-03
 -1      5575-3.83370E-02-1.53620E-02 2.85300E-03
 -1      5576-4.27660E-02-1.57940E-02 3.21500E-03
 -1      5577-4.74390E-02-1.11370E-02 2.86000E-03
 -1      5578-5.17960E-02-1.10690E-02 2.88000E-03
 -1      5579-4.76310E-02-1.58450E-02 2.87400E-03
 -1      5580-5.18850E-02-1.56950E-02 2.94600E-03
 -1      5581-5.71110E-02-2.03900E-03 3.36900E-03
 -1      5582-5.59790E-02-6.73300E-03 3.51000E-03
 -1      5583-5.60510E-02-1.15840E-02 3.31800E-03
 -1      5584-5.67810E-02-1.53460E-02 3.02500E-03
 -1      5585-3.84160E-02-2.03210E-02 3.30700E-03
 -1      5586-4.23950E-02-2.01750E-02 3.04800E-03
 -1      5587-3.80140E-02-2.44980E-02 3.07800E-03
 -1      5588-4.24770E-02-2.51210E-02 3.01900E-03
 -1      5589-4.73710E-02-2.01470E-02 2.73000E-03
 -1      5590-5.20470E-02-2.02470E-02 3.14900E-03
 -1      5591-4.70410E-02-2.46060E-02 3.10700E-03
 -1      5592-5.14910E-02-2.46590E-02 3.21800E-03
 -1      5593-3.83210E-02-2.93450E-02 3.20700E-03
 -1      5594-4.27880E-02-2.94340E-02 4.12800E-03
 -1      5595-3.80980E-02-3.38950E-02 3.39400E-03
 -1      5596-4.26050E-02-3.36230E-02 3.41400E-03
 -1      5597-4.73370E-02-2.91650E-02 3.15900E-03
 -1      5598-5.16880E-02-2.93030E-02 3.07700E-03
 -1      5599-4.72020E-02-3.36400E-02 3.36600E-03
 -1      5600-5.20610E-02-3.43230E-02 4.00800E-03
 -1      5601-5.68290E-02-2.02840E-02 3.42100E-03
 -1      5602-5.62140E-02-2.44710E-02 3.38200E-03
 -1      5603-5.57200E-02-2.96540E-02 4.21800E-03
 -1      5604-5.68580E-02-3.40360E-02 3.68000E-03
 -1      5605-9.76000E-04-3.71260E-02 4.91200E-03
 -1      5606-3.13600E-03-3.72310E-02 4.87500E-03
 -1      5607-6.78000E-04-3.72750E-02 2.28000E-03
 -1      5608-3.11200E-03-3.76510E-02 1.98600E-03
 -1      5609-5.36500E-03-3.74860E-02 4.83100E-03
 -1      5610-7.73600E-03-3.74370E-02 4.83900E-03
 -1      5611-5.11100E-03-3.76630E-02 2.17600E-03
 -1      5612-7.54400E-03-3.75040E-02 2.08200E-03
 -1      5613-1.00750E-02-3.74400E-02 4.76900E-03
 -1      5614-1.24280E-02-3.75250E-02 4.77900E-03
 -1      5615-1.01490E-02-3.75040E-02 2.05000E-03
 -1      5616-1.25390E-02-3.76790E-02 2.13500E-03
 -1      5617-1.47800E-02-3.74970E-02 4.81700E-03
 -1      5618-1.70650E-02-3.74550E-02 4.77900E-03
 -1      5619-1.47560E-02-3.75170E-02 2.30900E-03
 -1      5620-1.72080E-02-3.73860E-02 1.99200E-03
 -1      5621-1.93300E-02-3.74470E-02 4.77900E-03
 -1      5622-2.14420E-02-3.72000E-02 4.79900E-03
 -1      5623-1.93640E-02-3.76670E-02 1.90500E-03
 -1      5624-2.16090E-02-3.76220E-02 2.05400E-03
 -1      5625-2.34680E-02-3.71840E-02 4.80200E-03
 -1      5626-2.56490E-02-3.72540E-02 4.71800E-03
 -1      5627-2.34330E-02-3.74980E-02 1.88900E-03
 -1      5628-2.56810E-02-3.78050E-02 1.83900E-03
 -1      5629-2.79660E-02-3.74980E-02 4.71900E-03
 -1      5630-3.02990E-02-3.75420E-02 4.80500E-03
 -1      5631-2.79730E-02-3.77100E-02 1.96100E-03
 -1      5632-3.02860E-02-3.76890E-02 2.16100E-03
 -1      5633-3.25320E-02-3.75310E-02 4.85700E-03
 -1      5634-3.47970E-02-3.75180E-02 4.71800E-03
 -1      5635-3.24730E-02-3.76790E-02 2.17400E-03
 -1      5636-3.47430E-02-3.76840E-02 1.98400E-03
 -1      5637-3.71460E-02-3.74600E-02 4.73200E-03
 -1      5638-3.94700E-02-3.73890E-02 4.86500E-03
 -1      5639-3.70750E-02-3.74160E-02 1.95400E-03
 -1      5640-3.95080E-02-3.72030E-02 2.20000E-03
 -1      5641-4.17290E-02-3.73660E-02 4.92400E-03
 -1      5642-4.39900E-02-3.73130E-02 4.91100E-03
 -1      5643-4.17290E-02-3.71470E-02 2.24600E-03
 -1      5644-4.42170E-02-3.71490E-02 2.23500E-03
 -1      5645-4.61050E-02-3.71310E-02 4.90300E-03
 -1      5646-4.82570E-02-3.73290E-02 4.88300E-03
 -1      5647-4.61270E-02-3.73000E-02 2.50600E-03
 -1      5648-4.82440E-02-3.71440E-02 2.22800E-03
 -1      5649-5.05760E-02-3.72520E-02 4.84400E-03
 -1      5650-5.32940E-02-3.75620E-02 4.84200E-03
 -1      5651-5.04460E-02-3.73560E-02 2.26200E-03
 -1      5652-5.27710E-02-3.77160E-02 2.24900E-03
 -1      5653 4.92620E-02-2.64950E-02 1.01040E-02
 -1      5654 4.67940E-02-2.72730E-02 1.06710E-02
 -1      5655-3.12750E-02-9.15900E-03 2.13700E-03
 -1      5656-5.47250E-02-3.36170E-02 1.69000E-03
 -1      5657-2.30030E-02 2.30810E-02 1.01400E-02
 -1      5658-5.05900E-02-3.21820E-02 2.05900E-03
 -1      5659 4.72970E-02-2.20580E-02 1.53400E-03
 -1      5660-4.93910E-02-1.36820E-02 9.94600E-03
 -1      5661-5.66420E-02 3.17620E-02 8.07500E-03
 -1      5662-5.41820E-02-3.38070E-02 3.42600E-03
 -1      5663-5.58730E-02-3.58400E-02 1.85700E-03
 -1      5664-4.08400E-02 1.78240E-02 9.74200E-03
 -1      5665-5.14800E-02-3.86640E-02 1.85300E-03
 -1      5666-4.51370E-02-3.46340E-02 2.00300E-03
 -1      5667 5.48310E-02 8.71700E-03 9.32000E-03
 -1      5668-5.45640E-02-3.40030E-02 8.58100E-03
 -1      5669 3.61610E-02-3.53850E-02 2.08100E-03
 -1      5670 3.23070E-02-2.69880E-02 1.72000E-03
 -1      5671 3.80590E-02-3.14410E-02 1.15900E-03
 -1      5672 3.54190E-02-2.67460E-02 1.02350E-02
 -1      5673-2.19100E-02-2.70430E-02 2.24900E-03
 -1      5674 2.99120E-02-3.17980E-02 1.06430E-02
 -1      5675 4.03090E-02-3.20970E-02 9.84300E-03
 -1      5676 3.79400E-02-3.13340E-02 1.06600E-02
 -1      5677-5.04360E-02-3.12970E-02 9.95500E-03
 -1      5678-2.49000E-02-3.16810E-02 1.06550E-02
 -1      5679 4.04760E-02-3.36880E-02 1.04310E-02
 -1      5680 3.38150E-02-3.14570E-02 1.06020E-02
 -1      5681-3.61670E-02 9.04000E-03 3.01700E-03
 -1      5682 3.60320E-02-3.48720E-02 1.00950E-02
 -1      5683-4.40700E-02-5.43700E-03 1.27500E-03
 -1      5684-2.67640E-02-2.28030E-02 9.85100E-03
 -1      5685 4.53620E-02-3.39920E-02 7.37200E-03
 -1      5686 4.45620E-02-2.88840E-02 1.09560E-02
 -1      5687 4.98330E-02-3.08190E-02 1.02850E-02
 -1      5688 4.52770E-02-2.69860E-02 2.19900E-03
 -1      5689-4.86530E-02-4.81300E-03 1.75200E-03
 -1      5690 4.98650E-02-2.37900E-02 1.00620E-02
 -1      5691-3.02850E-02-4.57600E-03 2.27000E-03
 -1      5692 4.79650E-02-2.26280E-02 1.07580E-02
 -1      5693-4.83950E-02-3.48710E-02 1.79400E-03
 -1      5694-5.00310E-02-3.38880E-02 2.08300E-03
 -1      5695-5.04920E-02-2.19080E-02 1.86700E-03
 -1      5696 4.08430E-02-2.75200E-02 1.00180E-02
 -1      5697-4.52360E-02 2.25330E-02 1.00100E-02
 -1      5698 4.79440E-02-3.19950E-02 1.03660E-02
 -1      5699 4.23640E-02-3.27330E-02 1.05680E-02
 -1      5700 5.41480E-02-2.31000E-02 2.68500E-03
 -1      5701 5.62650E-02-2.38390E-02 1.04990E-02
 -1      5702-4.04200E-02-3.47340E-02 1.95400E-03
 -1      5703 5.45380E-02-2.59830E-02 1.00860E-02
 -1      5704-4.64410E-02-5.04000E-03 1.02840E-02
 -1      5705-4.52620E-02-1.92400E-03 1.06330E-02
 -1      5706-4.91080E-02 3.03820E-02 1.00610E-02
 -1      5707-5.63910E-02 2.32330E-02 1.00030E-02
 -1      5708-5.00800E-02 2.82180E-02 1.00520E-02
 -1      5709-4.51590E-02-3.47330E-02 9.95800E-03
 -1      5710 2.28710E-02 2.70550E-02 1.02180E-02
 -1      5711 5.50310E-02 1.71910E-02 1.03000E-02
 -1      5712 5.16130E-02-2.57190E-02 1.05450E-02
 -1      5713-5.76060E-02-3.10980E-02 8.81000E-03
 -1      5714 3.00920E-02 2.76370E-02 1.71900E-03
 -1      5715-5.81970E-02-2.87500E-02 7.30400E-03
 -1      5716-5.38580E-02-2.68670E-02 9.39000E-03
 -1      5717-5.52510E-02-3.34710E-02 1.05840E-02
 -1      5718-5.85150E-02-3.21670E-02 1.05350E-02
 -1      5719-4.53080E-02-2.22370E-02 9.73100E-03
 -1      5720 4.78040E-02 3.40360E-02 1.78600E-03
 -1      5721 4.87080E-02 3.18320E-02 1.83200E-03
 -1      5722-5.85850E-02-2.39500E-02 4.91300E-03
 -1      5723 3.60760E-02 2.69620E-02 1.00450E-02
 -1      5724 2.43190E-02 3.16660E-02 1.81400E-03
 -1      5725-5.39430E-02-2.97230E-02 1.03950E-02
 -1      5726 2.20600E-02 2.21160E-02 2.13100E-03
 -1      5727-5.66190E-02-3.32330E-02 6.75000E-03
 -1      5728-5.77670E-02-3.11100E-02 5.09100E-03
 -1      5729-2.36820E-02 1.71580E-02 1.88000E-03
 -1      5730-5.47110E-02-3.08140E-02 1.59400E-03
 -1      5731-5.32610E-02-3.19940E-02 3.01500E-03
 -1      5732-5.74950E-02-2.23640E-02 5.49600E-03
 -1      5733-5.50830E-02-2.16120E-02 1.00690E-02
 -1      5734-4.39550E-02-2.85530E-02 1.80100E-03
 -1      5735-4.54280E-02-2.92940E-02 1.06300E-02
 -1      5736-4.53540E-02-3.21970E-02 9.55700E-03
 -1      5737 5.69730E-02-1.67010E-02 1.06470E-02
 -1      5738-4.82280E-02-3.26070E-02 1.00420E-02
 -1      5739-5.42990E-02-3.17860E-02 9.28600E-03
 -1      5740 4.95250E-02-4.16400E-03 9.96300E-03
 -1      5741 9.28200E-03-2.79830E-02 1.01860E-02
 -1      5742-3.54780E-02-3.17210E-02 2.16000E-03
 -1      5743-3.61080E-02-2.69970E-02 1.92100E-03
 -1      5744-3.55980E-02-3.10980E-02 1.01660E-02
 -1      5745-4.13080E-02-3.10030E-02 1.00770E-02
 -1      5746-3.74160E-02-2.76470E-02 1.03170E-02
 -1      5747 5.83800E-02-2.02540E-02 9.68000E-03
 -1      5748 4.05380E-02-8.66600E-03 2.45300E-03
 -1      5749-4.86560E-02-2.73960E-02 1.01180E-02
 -1      5750-5.08170E-02-2.70410E-02 1.02030E-02
 -1      5751-2.92430E-02-2.72620E-02 1.08220E-02
 -1      5752-4.07290E-02-3.48400E-02 9.90200E-03
 -1      5753-5.33220E-02-2.30440E-02 1.79900E-03
 -1      5754-5.58170E-02-1.32420E-02 1.77800E-03
 -1      5755-5.70890E-02 4.25000E-04 1.02680E-02
 -1      5756-5.83020E-02-1.50150E-02 6.09700E-03
 -1      5757-5.13940E-02-4.80000E-03 1.07900E-03
 -1      5758-1.73010E-02-3.48410E-02 1.08830E-02
 -1      5759-3.25590E-02-2.98910E-02 1.53000E-03
 -1      5760-5.19450E-02-3.84480E-02 1.03790E-02
 -1      5761-2.99500E-03-3.23910E-02 2.05000E-03
 -1      5762 4.58600E-02-3.31450E-02 1.82000E-03
 -1      5763-3.60330E-02-3.45780E-02 1.00620E-02
 -1      5764-3.15500E-02-2.77180E-02 1.03580E-02
 -1      5765-4.47080E-02-3.11890E-02 1.96000E-03
 -1      5766-1.84320E-02-3.18250E-02 2.47800E-03
 -1      5767-3.12200E-02-3.28020E-02 1.00840E-02
 -1      5768-2.74620E-02-2.78110E-02 2.22700E-03
 -1      5769-2.24100E-02-3.16450E-02 9.93600E-03
 -1      5770-1.30090E-02-3.40440E-02 1.00880E-02
 -1      5771-2.74600E-03-2.67260E-02 1.48100E-03
 -1      5772-5.81970E-02-5.06600E-03 2.85600E-03
 -1      5773-4.99150E-02-4.13700E-03 1.00620E-02
 -1      5774-8.93300E-03-3.21560E-02 2.56900E-03
 -1      5775-5.68040E-02-3.05540E-02 1.82100E-03
 -1      5776-5.58740E-02-3.19980E-02 3.15800E-03
 -1      5777-1.55660E-02-3.03420E-02 1.08250E-02
 -1      5778-1.62070E-02-2.82840E-02 1.06950E-02
 -1      5779-5.73080E-02-1.78000E-02 1.91400E-03
 -1      5780-2.67860E-02-1.75810E-02 9.79400E-03
 -1      5781-8.87300E-03-3.05850E-02 1.02480E-02
 -1      5782-2.62600E-03-3.47800E-02 1.03990E-02
 -1      5783-4.15510E-02-3.06890E-02 2.03100E-03
 -1      5784 1.13540E-02-3.19480E-02 1.08160E-02
 -1      5785-3.78700E-03-3.23870E-02 9.86000E-03
 -1      5786-4.37700E-03-3.41370E-02 1.01780E-02
 -1      5787-8.95000E-04-2.68100E-02 2.70200E-03
 -1      5788-4.06000E-03-2.84150E-02 1.06650E-02
 -1      5789 4.94180E-02-3.11290E-02 1.80400E-03
 -1      5790-7.25300E-03-3.17470E-02 1.01910E-02
 -1      5791-2.79400E-03-2.66840E-02 1.03240E-02
 -1      5792-1.48860E-02-3.22510E-02 1.03790E-02
 -1      5793-1.48660E-02-2.69000E-02 1.74500E-03
 -1      5794-1.02760E-02-3.23340E-02 1.01350E-02
 -1      5795-1.84040E-02-3.10800E-02 9.75100E-03
 -1      5796-1.36250E-02-3.52340E-02 1.77800E-03
 -1      5797-2.69770E-02-3.17660E-02 1.00440E-02
 -1      5798-3.18210E-02-3.10450E-02 9.52300E-03
 -1      5799-3.55340E-02-2.26500E-02 1.87200E-03
 -1      5800-2.23620E-02-3.48810E-02 9.96200E-03
 -1      5801-1.86290E-02-3.54000E-02 1.00210E-02
 -1      5802-5.73580E-02-1.78160E-02 1.03690E-02
 -1      5803-4.88970E-02-2.27620E-02 1.02370E-02
 -1      5804-2.72950E-02-1.78000E-02 1.87200E-03
 -1      5805-4.08060E-02-1.31960E-02 9.98800E-03
 -1      5806-4.52180E-02-1.70500E-02 1.98100E-03
 -1      5807-5.42120E-02-1.19320E-02 9.77300E-03
 -1      5808 4.98320E-02-2.02840E-02 1.41300E-03
 -1      5809-2.68850E-02-3.51580E-02 1.01360E-02
 -1      5810-4.51250E-02-3.70300E-03 9.99800E-03
 -1      5811-1.80830E-02-2.52090E-02 1.07400E-02
 -1      5812-5.84390E-02-6.44300E-03 5.16200E-03
 -1      5813 6.86000E-04-2.71880E-02 1.04620E-02
 -1      5814 5.64700E-02-2.02770E-02 6.39000E-03
 -1      5815 5.82430E-02-2.17390E-02 4.42700E-03
 -1      5816 4.44100E-03-2.93910E-02 1.00970E-02
 -1      5817-2.24410E-02-2.24500E-02 9.98400E-03
 -1      5818-3.19890E-02-2.25710E-02 1.70700E-03
 -1      5819-4.07280E-02-7.84000E-03 1.01380E-02
 -1      5820-3.62630E-02 3.26000E-04 9.94400E-03
 -1      5821-3.23560E-02-1.13000E-04 1.01860E-02
 -1      5822-2.75590E-02-4.58600E-03 1.00920E-02
 -1      5823-5.85640E-02-2.66900E-02 8.91900E-03
 -1      5824 3.58370E-02-3.16070E-02 2.02500E-03
 -1      5825-3.11820E-02-8.42600E-03 9.46900E-03
 -1      5826-3.12510E-02-1.91300E-03 9.75400E-03
 -1      5827-4.52740E-02-1.24570E-02 1.02150E-02
 -1      5828-5.35380E-02-3.99100E-03 1.00000E-02
 -1      5829-5.38790E-02-8.99200E-03 2.04300E-03
 -1      5830-3.59690E-02-1.31940E-02 3.09200E-03
 -1      5831-2.38760E-02-1.68750E-02 1.01360E-02
 -1      5832-4.94560E-02-8.94700E-03 9.94500E-03
 -1      5833 4.27470E-02-2.72350E-02 1.37700E-03
 -1      5834-3.12670E-02-1.34880E-02 9.95000E-03
 -1      5835-5.03710E-02 1.74250E-02 1.64700E-03
 -1      5836-2.24180E-02-2.97760E-02 1.06560E-02
 -1      5837-2.36620E-02-2.67690E-02 1.01440E-02
 -1      5838 4.42500E-02-3.56900E-02 1.69000E-03
 -1      5839-2.08560E-02-2.13720E-02 1.73600E-03
 -1      5840 4.42360E-02-3.15500E-02 1.88700E-03
 -1      5841 4.31800E-02-3.33110E-02 1.29400E-03
 -1      5842 4.05680E-02-3.17010E-02 1.81200E-03
 -1      5843-2.83090E-02-3.89800E-03 6.96500E-03
 -1      5844 4.47860E-02-2.71420E-02 9.75100E-03
 -1      5845 4.09410E-02-2.29750E-02 2.28100E-03
 -1      5846-4.98100E-02 5.45000E-04 1.66700E-03
 -1      5847-5.44380E-02-1.78680E-02 2.20300E-03
 -1      5848 3.62160E-02-2.78770E-02 2.00800E-03
 -1      5849-5.73540E-02-1.76490E-02 5.35600E-03
 -1      5850-5.68810E-02-1.26640E-02 1.03960E-02
 -1      5851 4.05330E-02-3.36000E-02 1.56400E-03
 -1      5852-4.51490E-02-1.35900E-02 1.80500E-03
 -1      5853-4.95820E-02-2.59460E-02 1.03110E-02
 -1      5854-4.51790E-02-1.04670E-02 1.71200E-03
 -1      5855-4.87110E-02-1.83650E-02 1.00780E-02
 -1      5856-2.18220E-02-2.01180E-02 1.04890E-02
 -1      5857-5.82500E-02-1.21880E-02 5.13600E-03
 -1      5858 5.09760E-02-2.79430E-02 1.88600E-03
 -1      5859 5.26590E-02-2.52190E-02 1.39500E-03
 -1      5860-2.19560E-02-2.72740E-02 9.95800E-03
 -1      5861 5.60760E-02-2.55480E-02 1.68000E-03
 -1      5862-2.67950E-02-2.71110E-02 1.02220E-02
 -1      5863-2.58350E-02-1.52690E-02 1.03940E-02
 -1      5864-4.58250E-02 2.62190E-02 1.70100E-03
 -1      5865-5.39320E-02 2.41040E-02 1.01300E-02
 -1      5866-1.98290E-02-2.13750E-02 1.05470E-02
 -1      5867-5.82890E-02-1.46300E-03 6.02000E-03
 -1      5868-2.64170E-02-1.91400E-03 3.98500E-03
 -1      5869-3.15430E-02-2.24520E-02 9.76200E-03
 -1      5870-2.23050E-02 2.71810E-02 9.82200E-03
 -1      5871 5.81680E-02-1.98420E-02 2.57400E-03
 -1      5872-1.78910E-02 2.55540E-02 1.05890E-02
 -1      5873-2.30800E-02-1.47790E-02 1.01340E-02
 -1      5874 5.82450E-02-1.78910E-02 1.63900E-03
 -1      5875 5.82330E-02-1.60230E-02 6.83300E-03
 -1      5876-3.12880E-02-1.33960E-02 2.11400E-03
 -1      5877 5.83170E-02-1.72500E-02 3.09400E-03
 -1      5878 5.86320E-02-1.59820E-02 4.72500E-03
 -1      5879-3.04510E-02-5.10400E-03 9.75300E-03
 -1      5880 5.70580E-02-2.27150E-02 6.23300E-03
 -1      5881 5.62460E-02-2.30880E-02 3.79900E-03
 -1      5882-2.83930E-02 2.25760E-02 1.01160E-02
 -1      5883-2.70290E-02-1.68000E-03 9.10600E-03
 -1      5884-5.29130E-02 5.04800E-03 1.02890E-02
 -1      5885-5.13760E-02 1.71520E-02 1.02350E-02
 -1      5886-4.07220E-02-4.63400E-03 2.16300E-03
 -1      5887-5.35240E-02 1.18590E-02 1.02880E-02
 -1      5888-4.59390E-02 1.68070E-02 1.04750E-02
 -1      5889-4.95810E-02-8.83200E-03 1.97700E-03
 -1      5890-3.61790E-02-9.05700E-03 8.97000E-03
 -1      5891-5.76680E-02-8.98100E-03 5.08800E-03
 -1      5892-5.63480E-02 3.04240E-02 1.04790E-02
 -1      5893-4.05660E-02 2.29240E-02 9.31600E-03
 -1      5894-4.96890E-02 2.68740E-02 2.17400E-03
 -1      5895 5.84280E-02-2.23470E-02 1.42300E-03
 -1      5896-5.41920E-02-8.34400E-03 9.92900E-03
 -1      5897-5.40890E-02-1.49010E-02 1.07610E-02
 -1      5898-4.03560E-02-2.27220E-02 2.31200E-03
 -1      5899-4.48630E-02-9.15500E-03 9.97600E-03
 -1      5900-4.10360E-02-4.33300E-03 9.95700E-03
 -1      5901-5.72870E-02-9.86800E-03 1.00060E-02
 -1      5902-5.37420E-02-2.39660E-02 1.02280E-02
 -1      5903-5.83900E-02-2.19420E-02 9.12500E-03
 -1      5904-4.04610E-02-1.79410E-02 3.09200E-03
 -1      5905 9.25600E-03 3.16020E-02 2.25500E-03
 -1      5906-4.08720E-02-2.75640E-02 9.98700E-03
 -1      5907-3.57060E-02-2.26340E-02 1.01840E-02
 -1      5908-3.60980E-02-1.81950E-02 8.98400E-03
 -1      5909-1.85870E-02 3.49370E-02 1.02890E-02
 -1      5910-4.20520E-02-2.27380E-02 9.74200E-03
 -1      5911-4.09340E-02-1.81380E-02 9.96800E-03
 -1      5912-4.51850E-02-1.84740E-02 1.00080E-02
 -1      5913-5.04420E-02-1.75700E-02 1.02310E-02
 -1      5914-5.35010E-02-1.82720E-02 1.02480E-02
 -1      5915-2.87470E-02 3.16400E-02 1.03190E-02
 -1      5916-4.49670E-02-1.55750E-02 1.08520E-02
 -1      5917-4.56560E-02-2.71190E-02 1.00690E-02
 -1      5918-5.63800E-02-2.71790E-02 6.15000E-03
 -1      5919-5.86540E-02-2.03910E-02 5.93400E-03
 -1      5920-4.07060E-02 2.80530E-02 1.07520E-02
 -1      5921-5.85540E-02-9.45600E-03 7.31600E-03
 -1      5922-5.85550E-02-4.65800E-03 8.98100E-03
 -1      5923-5.77990E-02-4.21400E-03 5.61600E-03
 -1      5924-5.26440E-02 3.27700E-02 1.01740E-02
 -1      5925-5.39900E-02 2.88960E-02 1.05410E-02
 -1      5926-5.81700E-02-1.33250E-02 7.71600E-03
 -1      5927-5.82050E-02 1.03430E-02 7.21600E-03
 -1      5928-5.80480E-02 9.87200E-03 9.75100E-03
 -1      5929-5.87150E-02 8.17800E-03 9.51900E-03
 -1      5930-5.82940E-02 6.00600E-03 6.35800E-03
 -1      5931-4.99270E-02 2.20080E-02 2.21400E-03
 -1      5932-5.80710E-02 7.44000E-04 6.45200E-03
 -1      5933-5.41040E-02 2.29300E-03 1.02210E-02
 -1      5934-5.51230E-02 4.08600E-03 1.02590E-02
 -1      5935-5.39050E-02-4.35000E-04 9.82600E-03
 -1      5936-5.79760E-02 1.36590E-02 6.40800E-03
 -1      5937-5.83200E-02 4.62200E-03 7.66800E-03
 -1      5938-5.47430E-02 1.78160E-02 1.00690E-02
 -1      5939-5.81240E-02 1.26120E-02 9.44600E-03
 -1      5940-5.81290E-02 2.37090E-02 7.44000E-03
 -1      5941-5.81280E-02 2.97310E-02 8.67900E-03
 -1      5942-5.82700E-02 2.23980E-02 1.01600E-02
 -1      5943-5.79920E-02 2.69610E-02 7.86900E-03
 -1      5944-5.57960E-02 3.34190E-02 1.04300E-02
 -1      5945-5.38910E-02 2.66150E-02 9.72900E-03
 -1      5946-4.49160E-02 3.33020E-02 1.85500E-03
 -1      5947-5.37210E-02 2.61360E-02 1.60200E-03
 -1      5948-5.44210E-02 8.93600E-03 1.02470E-02
 -1      5949-5.56570E-02 1.33310E-02 1.02330E-02
 -1      5950-4.65480E-02 3.18240E-02 1.01060E-02
 -1      5951-5.38290E-02 1.59980E-02 1.37300E-03
 -1      5952-5.33690E-02 2.82900E-02 1.79400E-03
 -1      5953-4.94180E-02 2.65660E-02 1.03360E-02
 -1      5954-4.91220E-02 1.83320E-02 1.01260E-02
 -1      5955-3.93370E-02 3.16510E-02 1.85400E-03
 -1      5956-5.83990E-02 2.19260E-02 5.07300E-03
 -1      5957-5.39000E-02 2.36240E-02 1.90900E-03
 -1      5958-4.47570E-02 2.71480E-02 9.63700E-03
 -1      5959-5.82790E-02 1.78130E-02 9.80500E-03
 -1      5960-4.43550E-02 2.36330E-02 2.47700E-03
 -1      5961-4.23460E-02 2.64880E-02 1.06300E-02
 -1      5962 5.83340E-02-3.50700E-03 7.11800E-03
 -1      5963 5.81450E-02-5.82400E-03 6.87600E-03
 -1      5964-5.00170E-02 2.18230E-02 1.01880E-02
 -1      5965-4.03870E-02 2.59220E-02 9.76800E-03
 -1      5966 5.85780E-02-1.46400E-02 3.06200E-03
 -1      5967-3.52280E-02 3.11330E-02 9.93800E-03
 -1      5968-5.41840E-02 1.32890E-02 1.89700E-03
 -1      5969-4.95890E-02 1.34870E-02 9.80300E-03
 -1      5970-4.83930E-02 2.27840E-02 1.03030E-02
 -1      5971 5.85100E-02-1.21710E-02 5.45900E-03
 -1      5972-4.53990E-02 9.97300E-03 1.00420E-02
 -1      5973-5.37610E-02 2.21710E-02 1.00410E-02
 -1      5974 5.82830E-02 8.92000E-04 4.74800E-03
 -1      5975-5.74940E-02 9.48100E-03 2.04100E-03
 -1      5976 5.34590E-02 9.82000E-04 1.73500E-03
 -1      5977 5.55100E-02-4.37000E-04 1.94000E-03
 -1      5978-5.38780E-02 1.50240E-02 1.03960E-02
 -1      5979 5.79620E-02-8.01900E-03 2.32700E-03
 -1      5980-5.38980E-02 2.12240E-02 1.64200E-03
 -1      5981-4.52760E-02 2.23400E-03 1.06370E-02
 -1      5982-4.50280E-02 4.50800E-03 1.00760E-02
 -1      5983-4.88560E-02 8.69000E-03 2.04200E-03
 -1      5984-5.84560E-02 1.41950E-02 2.69500E-03
 -1      5985-5.87360E-02 1.45110E-02 9.39800E-03
 -1      5986-5.06190E-02-1.31100E-03 1.02390E-02
 -1      5987 5.39480E-02-1.72600E-03 1.39000E-03
 -1      5988 4.95890E-02-4.41100E-03 2.26700E-03
 -1      5989 5.36290E-02-3.62400E-03 1.03090E-02
 -1      5990 5.42340E-02-3.96800E-03 2.14000E-03
 -1      5991-4.56450E-02 1.36000E-04 9.90900E-03
 -1      5992 5.00680E-02-9.60500E-03 2.10000E-03
 -1      5993-4.87520E-02 4.44000E-04 1.02420E-02
 -1      5994-3.12190E-02 1.95700E-03 2.26800E-03
 -1      5995 5.81580E-02-4.39300E-03 4.34000E-03
 -1      5996-3.99750E-02 1.27650E-02 1.02410E-02
 -1      5997-2.64740E-02 5.69900E-03 1.81400E-03
 -1      5998 5.72960E-02-4.52800E-03 1.72300E-03
 -1      5999-2.39200E-02 1.78020E-02 1.03850E-02
 -1      6000 5.75440E-02-9.61500E-03 1.93300E-03
 -1      6001-3.11410E-02 1.35120E-02 9.97200E-03
 -1      6002-3.11900E-02 1.82280E-02 2.16000E-03
 -1      6003-2.24180E-02 3.46560E-02 1.99200E-03
 -1      6004-4.50630E-02 1.30320E-02 1.00400E-02
 -1      6005 5.49160E-02-8.79200E-03 2.58400E-03
 -1      6006 4.49690E-02-4.85200E-03 1.80100E-03
 -1      6007 5.01640E-02-1.26270E-02 1.87700E-03
 -1      6008 4.51180E-02-8.02300E-03 2.09400E-03
 -1      6009-2.84680E-02-3.50800E-03 3.89600E-03
 -1      6010 4.91140E-02-2.27830E-02 2.65100E-03
 -1      6011 3.59870E-02-8.98000E-03 3.16100E-03
 -1      6012 4.08790E-02-4.62000E-03 9.92800E-03
 -1      6013-4.68840E-02 1.28050E-02 1.08230E-02
 -1      6014 4.02210E-02-5.87200E-03 1.97000E-03
 -1      6015-4.74850E-02 4.65900E-03 1.07720E-02
 -1      6016-2.66330E-02 2.32930E-02 2.05300E-03
 -1      6017-4.94920E-02 9.01100E-03 9.97800E-03
 -1      6018-2.66590E-02-6.02500E-03 1.49400E-03
 -1      6019 4.70090E-02-5.17700E-03 1.16100E-03
 -1      6020-4.10600E-02 8.65300E-03 1.99800E-03
 -1      6021-3.07290E-02 2.77120E-02 1.68300E-03
 -1      6022 4.87740E-02-4.93000E-04 1.67200E-03
 -1      6023-4.01770E-02 6.20100E-03 1.02160E-02
 -1      6024-4.17460E-02 3.05550E-02 1.82700E-03
 -1      6025-4.21680E-02 4.61000E-03 1.03960E-02
 -1      6026-3.07090E-02 4.44100E-03 9.86000E-03
 -1      6027-2.79150E-02 1.71000E-04 1.86900E-03
 -1      6028-2.67680E-02 1.15600E-03 8.66900E-03
 -1      6029 4.54780E-02-1.30030E-02 1.96900E-03
 -1      6030-4.37300E-03 2.89660E-02 1.00590E-02
 -1      6031-2.65220E-02 5.63800E-03 1.02390E-02
 -1      6032-2.74390E-02 3.58700E-03 1.02450E-02
 -1      6033 4.51040E-02-1.08950E-02 1.33000E-03
 -1      6034 5.74440E-02-1.31250E-02 2.38600E-03
 -1      6035-2.71480E-02 2.68790E-02 1.71300E-03
 -1      6036-4.14700E-02 1.28980E-02 1.93400E-03
 -1      6037-3.59710E-02 3.46660E-02 1.94400E-03
 -1      6038-3.58410E-02 1.33320E-02 8.97300E-03
 -1      6039-3.57800E-02 2.30440E-02 9.66000E-03
 -1      6040-3.19450E-02 2.96410E-02 1.08010E-02
 -1      6041-3.15660E-02 2.66810E-02 9.55000E-03
 -1      6042-3.61080E-02 2.71670E-02 9.96800E-03
 -1      6043-4.12930E-02 2.70460E-02 2.42500E-03
 -1      6044-2.16650E-02 1.93100E-02 1.04440E-02
 -1      6045-2.72260E-02 2.76710E-02 9.71800E-03
 -1      6046-1.92040E-02 2.17590E-02 1.05200E-02
 -1      6047-3.16660E-02 3.50090E-02 1.01440E-02
 -1      6048 5.50290E-02-1.87090E-02 1.00320E-02
 -1      6049 5.30460E-02-1.89630E-02 1.96900E-03
 -1      6050 5.83030E-02-2.03170E-02 7.49100E-03
 -1      6051-1.65500E-03 2.64760E-02 2.57100E-03
 -1      6052-9.71500E-03 2.91980E-02 1.04040E-02
 -1      6053-1.78130E-02 2.78190E-02 9.98700E-03
 -1      6054-2.18690E-02 3.22780E-02 1.01360E-02
 -1      6055 5.71860E-02-1.41400E-02 5.38800E-03
 -1      6056-1.47660E-02 2.26760E-02 1.00650E-02
 -1      6057 5.80840E-02-2.37050E-02 2.30200E-03
 -1      6058 5.06870E-02-2.17610E-02 1.02060E-02
 -1      6059 4.50480E-02-2.36130E-02 1.69700E-03
 -1      6060 4.51900E-02-2.10220E-02 1.70700E-03
 -1      6061 4.53930E-02-1.85420E-02 2.13800E-03
 -1      6062-2.61240E-02 1.79650E-02 2.56100E-03
 -1      6063-2.62870E-02 1.62730E-02 1.04760E-02
 -1      6064 3.05160E-02 3.20620E-02 2.00800E-03
 -1      6065-2.63190E-02 1.82000E-02 9.58000E-03
 -1      6066 4.05820E-02-1.29690E-02 2.04500E-03
 -1      6067 5.52310E-02-1.73610E-02 1.74600E-03
 -1      6068-3.11750E-02 2.34930E-02 9.94200E-03
 -1      6069 4.77540E-02-1.84370E-02 1.34800E-03
 -1      6070 3.14200E-02 3.00800E-02 1.61900E-03
 -1      6071 4.99130E-02-2.54380E-02 1.78300E-03
 -1      6072 5.58720E-02-2.44760E-02 5.46700E-03
 -1      6073 5.11930E-02-2.32040E-02 1.49600E-03
 -1      6074 5.62720E-02-1.84370E-02 2.80200E-03
 -1      6075 4.99790E-02-1.70910E-02 1.80100E-03
 -1      6076 4.11360E-02 3.11370E-02 2.30600E-03
 -1      6077 5.46430E-02-1.37230E-02 2.76700E-03
 -1      6078 1.39270E-02 3.13610E-02 1.95600E-03
 -1      6079 6.01700E-03 3.25440E-02 1.66900E-03
 -1      6080 4.09590E-02-2.30160E-02 9.69900E-03
 -1      6081 3.58300E-02-2.28330E-02 2.23000E-03
 -1      6082 3.52500E-02-2.66410E-02 1.82300E-03
 -1      6083 4.22800E-03 3.32730E-02 1.00160E-02
 -1      6084 2.71620E-02-2.70000E-02 1.01680E-02
 -1      6085-3.11900E-02 1.84440E-02 9.99300E-03
 -1      6086 3.11280E-02-1.37450E-02 2.30200E-03
 -1      6087 1.50760E-02 2.69200E-02 2.08400E-03
 -1      6088 2.29330E-02-2.27830E-02 1.00830E-02
 -1      6089-3.60280E-02 9.10000E-03 8.89500E-03
 -1      6090 3.06100E-03 2.74290E-02 1.50400E-03
 -1      6091 1.79730E-02-2.76510E-02 1.95800E-03
 -1      6092 2.29240E-02-2.29300E-02 2.09100E-03
 -1      6093 2.21220E-02-2.04830E-02 1.90400E-03
 -1      6094 2.21220E-02 3.03880E-02 1.07100E-02
 -1      6095-3.10500E-02 1.34000E-03 9.92000E-03
 -1      6096 5.71280E-02 1.27890E-02 1.03730E-02
 -1      6097-2.77090E-02 5.70000E-05 1.00980E-02
 -1      6098-1.48270E-02 2.70710E-02 1.03950E-02
 -1      6099 2.84790E-02-4.24900E-03 9.93700E-03
 -1      6100-4.49790E-02 2.94110E-02 1.01250E-02
 -1      6101 5.39210E-02-1.38280E-02 9.70100E-03
 -1      6102 2.62440E-02-1.75700E-02 2.60000E-03
 -1      6103 5.06370E-02 1.25410E-02 1.73600E-03
 -1      6104-5.65630E-02 2.75550E-02 1.02450E-02
 -1      6105 2.70090E-02-2.28400E-02 1.84000E-03
 -1      6106 4.97850E-02-8.40000E-05 1.03520E-02
 -1      6107 2.67800E-02-2.60240E-02 1.72000E-03
 -1      6108 4.94500E-02 8.98200E-03 2.05600E-03
 -1      6109 3.11130E-02-1.81370E-02 2.02500E-03
 -1      6110-4.34360E-02 3.13650E-02 9.98900E-03
 -1      6111 5.81070E-02 2.18830E-02 1.63300E-03
 -1      6112 5.83570E-02 2.01000E-02 2.67400E-03
 -1      6113 5.77710E-02 1.42830E-02 6.06800E-03
 -1      6114 5.75390E-02 2.61570E-02 9.55500E-03
 -1      6115 3.17990E-02-2.25970E-02 1.81600E-03
 -1      6116 5.58710E-02 4.34800E-03 1.01040E-02
 -1      6117 5.66340E-02 2.29450E-02 7.91800E-03
 -1      6118 3.11920E-02 1.34640E-02 2.05200E-03
 -1      6119 4.75800E-02 1.35650E-02 1.75300E-03
 -1      6120 1.96520E-02 2.12080E-02 1.01510E-02
 -1      6121-5.79790E-02 3.20160E-02 1.01530E-02
 -1      6122 4.55290E-02 2.26870E-02 1.94800E-03
 -1      6123-1.42090E-02 3.21800E-02 1.00450E-02
 -1      6124 3.63200E-03 2.81120E-02 1.04880E-02
 -1      6125 2.55400E-03 3.20920E-02 1.02510E-02
 -1      6126-4.50000E-05 3.14400E-02 9.60600E-03
 -1      6127-1.19020E-02 3.12820E-02 1.04750E-02
 -1      6128-1.91420E-02 3.16690E-02 9.96100E-03
 -1      6129 2.71410E-02 3.23540E-02 2.42100E-03
 -1      6130-2.66620E-02 2.61600E-02 1.07930E-02
 -1      6131-2.48250E-02 2.74320E-02 1.07210E-02
 -1      6132-2.99310E-02 2.73870E-02 1.06360E-02
 -1      6133 4.96790E-02 2.17340E-02 1.88200E-03
 -1      6134 2.60590E-02-1.54060E-02 1.55600E-03
 -1      6135-2.35860E-02 3.48600E-02 1.02760E-02
 -1      6136 4.50210E-02 2.48550E-02 1.05650E-02
 -1      6137 2.39340E-02-1.68220E-02 1.64600E-03
 -1      6138 5.09940E-02 2.93840E-02 1.02630E-02
 -1      6139 3.60780E-02 3.32960E-02 1.02450E-02
 -1      6140 2.80070E-02-5.01900E-03 2.03900E-03
 -1      6141 3.60910E-02 1.81640E-02 3.12700E-03
 -1      6142 4.37770E-02 3.34770E-02 2.02600E-03
 -1      6143-2.62090E-02 3.42310E-02 1.03180E-02
 -1      6144 3.72440E-02 3.12400E-02 1.02860E-02
 -1      6145-2.14640E-02 3.47740E-02 1.01650E-02
 -1      6146-1.35890E-02 3.05220E-02 1.00380E-02
 -1      6147 3.05080E-02-4.56100E-03 2.38400E-03
 -1      6148 2.63900E-02-1.21100E-03 3.05200E-03
 -1      6149-4.86500E-03 2.63490E-02 1.02290E-02
 -1      6150-5.71200E-03 3.16120E-02 1.04320E-02
 -1      6151 3.11820E-02-9.12900E-03 2.10500E-03
 -1      6152 9.61800E-03 2.95990E-02 1.00950E-02
 -1      6153 1.21000E-04 3.18200E-02 2.09600E-03
 -1      6154 3.06270E-02 3.20880E-02 1.00500E-02
 -1      6155 9.27900E-03 2.78680E-02 1.80400E-03
 -1      6156 3.22130E-02 8.40000E-05 1.75100E-03
 -1      6157 2.74910E-02 1.30000E-05 1.93300E-03
 -1      6158 2.67440E-02-3.10900E-03 1.78900E-03
 -1      6159 3.59680E-02 6.50000E-05 1.81800E-03
 -1      6160 2.84920E-02-4.33300E-03 5.49000E-03
 -1      6161 2.68820E-02-1.85700E-03 7.90000E-03
 -1      6162 2.86390E-02-4.03300E-03 7.87300E-03
 -1      6163 3.60350E-02 2.77070E-02 1.83300E-03
 -1      6164-1.74310E-02 3.45300E-02 2.07700E-03
 -1      6165 2.43140E-02 3.16630E-02 1.07730E-02
 -1      6166 1.66330E-02 3.56260E-02 9.99000E-03
 -1      6167 1.54150E-02 3.02170E-02 1.07310E-02
 -1      6168 1.34670E-02 3.51630E-02 1.03190E-02
 -1      6169-3.49900E-03 3.43600E-02 1.03210E-02
 -1      6170-4.39500E-03 3.40850E-02 1.48400E-03
 -1      6171 1.42610E-02 3.23550E-02 1.03240E-02
 -1      6172-2.86600E-03 2.69380E-02 1.03680E-02
 -1      6173-2.83300E-03 3.20330E-02 1.01350E-02
 -1      6174 2.08400E-03 3.48820E-02 1.01440E-02
 -1      6175-1.74500E-02 3.16320E-02 1.92500E-03
 -1      6176-8.88600E-03 3.16760E-02 9.60000E-03
 -1      6177-1.39200E-02 3.47970E-02 1.74100E-03
 -1      6178 4.85140E-02 1.84820E-02 1.70800E-03
 -1      6179-8.87500E-03 3.53690E-02 1.00510E-02
 -1      6180-1.39260E-02 3.47380E-02 1.02230E-02
 -1      6181 4.95550E-02 8.96300E-03 9.87300E-03
 -1      6182 4.51880E-02 1.79900E-02 9.94200E-03
 -1      6183-1.70270E-02 3.27750E-02 9.87800E-03
 -1      6184 5.21700E-02 5.23500E-03 1.20100E-03
 -1      6185 4.47610E-02-3.44320E-02 1.00340E-02
 -1      6186-2.38260E-02 3.13860E-02 1.00230E-02
 -1      6187-1.62920E-02 3.51530E-02 1.00550E-02
 -1      6188 3.17080E-02 2.63840E-02 2.00500E-03
 -1      6189-2.59840E-02 3.17260E-02 1.01020E-02
 -1      6190-3.13590E-02 2.01050E-02 1.30700E-03
 -1      6191-2.25340E-02 3.03760E-02 1.00730E-02
 -1      6192-5.50500E-02 3.31370E-02 5.09400E-03
 -1      6193 3.12320E-02 3.51170E-02 1.86800E-03
 -1      6194-2.65750E-02 2.96250E-02 1.03770E-02
 -1      6195-2.20970E-02 3.28520E-02 2.93200E-03
 -1      6196-3.18580E-02 3.23480E-02 9.19800E-03
 -1      6197-2.75490E-02 3.27790E-02 1.95100E-03
 -1      6198 1.54420E-02 2.79460E-02 1.04240E-02
 -1      6199 2.39700E-02 1.69240E-02 1.64700E-03
 -1      6200 3.11600E-02 9.16500E-03 2.09400E-03
 -1      6201 4.35440E-02 4.12300E-03 1.07350E-02
 -1      6202 4.02580E-02 5.48400E-03 1.01920E-02
 -1      6203 4.72790E-02 5.44800E-03 9.39000E-04
 -1      6204 2.61680E-02 1.54580E-02 1.48000E-03
 -1      6205 2.68490E-02 1.78820E-02 2.12400E-03
 -1      6206 5.29230E-02 5.65600E-03 1.03580E-02
 -1      6207 3.81600E-03-2.87280E-02 1.46600E-03
 -1      6208 2.15660E-02-3.05580E-02 1.08500E-02
 -1      6209 5.59860E-02 2.49990E-02 1.00860E-02
 -1      6210 5.83740E-02 6.01200E-03 5.58600E-03
 -1      6211 5.43740E-02-2.21850E-02 9.34800E-03
 -1      6212 5.34550E-02-4.01000E-04 1.01110E-02
 -1      6213 4.48980E-02-1.96950E-02 1.02670E-02
 -1      6214 4.54330E-02-2.27500E-02 9.99700E-03
 -1      6215 4.99920E-02-1.65080E-02 1.04090E-02
 -1      6216 5.79760E-02-2.30070E-02 8.60300E-03
 -1      6217-4.84850E-02 3.48410E-02 9.99800E-03
 -1      6218 1.76810E-02-3.13440E-02 1.85900E-03
 -1      6219-4.06230E-02 3.09950E-02 1.00170E-02
 -1      6220-4.04270E-02 3.34230E-02 1.05180E-02
 -1      6221 5.56590E-02-9.79300E-03 9.79500E-03
 -1      6222 3.10280E-02-2.72740E-02 1.00190E-02
 -1      6223-4.72900E-03-2.66020E-02 1.52900E-03
 -1      6224 3.10890E-02-1.33330E-02 9.94600E-03
 -1      6225 5.69600E-03-3.17930E-02 1.03380E-02
 -1      6226-5.82760E-02 2.72130E-02 1.52300E-03
 -1      6227-5.63190E-02 2.75350E-02 1.48400E-03
 -1      6228-5.79790E-02 2.90450E-02 2.70800E-03
 -1      6229 2.69970E-02-3.14600E-03 1.02460E-02
 -1      6230-3.84320E-02 2.72010E-02 1.06590E-02
 -1      6231-4.80540E-02 2.71610E-02 1.27200E-03
 -1      6232 1.46500E-03-2.65050E-02 8.19300E-03
 -1      6233 4.56380E-02-1.38790E-02 9.36200E-03
 -1      6234 5.11200E-02-2.81320E-02 1.01260E-02
 -1      6235 1.35830E-02-3.16670E-02 1.73300E-03
 -1      6236 9.20600E-03-2.82120E-02 1.92200E-03
 -1      6237-3.56800E-02 2.39210E-02 1.82900E-03
 -1      6238 5.67900E-02-2.63830E-02 1.02180E-02
 -1      6239 6.61000E-04-3.20340E-02 2.17100E-03
 -1      6240-5.13000E-04-3.47830E-02 2.05400E-03
 -1      6241 8.66600E-03-3.54900E-02 2.14500E-03
 -1      6242 2.31200E-03-3.47430E-02 1.86800E-03
 -1      6243 1.40440E-02-3.21680E-02 1.02690E-02
 -1      6244 1.35610E-02-3.49480E-02 2.12200E-03
 -1      6245 2.75260E-02-3.15360E-02 1.02530E-02
 -1      6246 3.14160E-02-2.26890E-02 1.03030E-02
 -1      6247 1.72920E-02-2.69570E-02 9.49200E-03
 -1      6248-4.67810E-02 3.13650E-02 1.86800E-03
 -1      6249 2.20220E-02-3.18440E-02 9.73300E-03
 -1      6250-3.55000E-04-3.18210E-02 9.47800E-03
 -1      6251-4.99750E-02 3.23850E-02 1.00060E-02
 -1      6252-4.55090E-02 3.43830E-02 1.00880E-02
 -1      6253-5.16120E-02 2.77030E-02 1.06110E-02
 -1      6254 3.33890E-02-2.69150E-02 1.07450E-02
 -1      6255-5.65000E-02 2.94020E-02 6.67300E-03
 -1      6256 2.65070E-02-3.16270E-02 2.12000E-03
 -1      6257 4.60340E-02-3.40470E-02 9.45500E-03
 -1      6258-5.16220E-02 3.01390E-02 1.07410E-02
 -1      6259 4.51200E-02-3.20920E-02 9.77400E-03
 -1      6260-5.48540E-02 3.37120E-02 8.16800E-03
 -1      6261 3.99830E-02-1.29810E-02 1.00570E-02
 -1      6262-5.59160E-02 3.56700E-02 9.90200E-03
 -1      6263-5.14080E-02 3.86680E-02 1.00800E-02
 -1      6264 3.58680E-02-1.80590E-02 2.99200E-03
 -1      6265-5.69870E-02 3.36050E-02 6.34900E-03
 -1      6266 2.56470E-02-3.21080E-02 1.00840E-02
 -1      6267 5.87260E-02-1.38170E-02 7.81400E-03
 -1      6268 1.82580E-02-3.13820E-02 1.02680E-02
 -1      6269 2.36740E-02-2.66340E-02 1.94300E-03
 -1      6270 5.84370E-02-5.82000E-04 6.86800E-03
 -1      6271 4.49640E-02-1.19700E-02 1.02690E-02
 -1      6272-5.78420E-02 3.12310E-02 5.49100E-03
 -1      6273-5.82330E-02 2.87910E-02 5.79700E-03
 -1      6274-5.81240E-02 2.66410E-02 5.45600E-03
 -1      6275 8.94200E-03-3.53370E-02 1.00720E-02
 -1      6276-5.53510E-02 3.33240E-02 1.93600E-03
 -1      6277-5.57980E-02 3.09050E-02 1.35000E-03
 -1      6278-5.64110E-02 3.15820E-02 3.37200E-03
 -1      6279 3.32780E-02-3.11650E-02 1.26100E-03
 -1      6280 3.16300E-02-2.90970E-02 1.73400E-03
 -1      6281 3.14620E-02-3.16900E-02 2.24400E-03
 -1      6282 3.12130E-02-3.48540E-02 1.77700E-03
 -1      6283 2.69150E-02-3.47990E-02 1.68500E-03
 -1      6284-4.97850E-02 3.47390E-02 2.04000E-03
 -1      6285 3.96130E-02-9.99500E-03 1.03880E-02
 -1      6286-5.60740E-02 3.60750E-02 1.72800E-03
 -1      6287 2.92550E-02-2.72390E-02 2.14200E-03
 -1      6288 1.40100E-02-2.65760E-02 1.73600E-03
 -1      6289 5.15900E-03-2.59550E-02 1.67400E-03
 -1      6290 2.30230E-02-3.11040E-02 1.71400E-03
 -1      6291 2.02240E-02-3.14310E-02 1.27100E-03
 -1      6292 8.66900E-03-3.22400E-02 2.88600E-03
 -1      6293-4.47360E-02 3.09750E-02 1.92300E-03
 -1      6294 1.77220E-02-2.44590E-02 1.55200E-03
 -1      6295-3.23260E-02 3.06820E-02 1.73200E-03
 -1      6296 2.15100E-02-2.14010E-02 1.02420E-02
 -1      6297 2.93190E-02-3.22870E-02 1.34000E-03
 -1      6298-5.19220E-02 3.82830E-02 1.63000E-03
 -1      6299 1.36820E-02-3.04430E-02 1.00550E-02
 -1      6300 2.17180E-02-3.50170E-02 1.97500E-03
 -1      6301-3.60700E-02 3.13540E-02 2.15500E-03
 -1      6302 1.68490E-02-3.51980E-02 1.85100E-03
 -1      6303-4.04530E-02 3.46370E-02 1.99100E-03
 -1      6304-5.16270E-02 3.01920E-02 1.19200E-03
 -1      6305-5.13620E-02 3.22000E-02 1.36000E-03
 -1      6306-4.51580E-02 2.83940E-02 1.56800E-03
 -1      6307-3.94210E-02 2.22440E-02 1.75000E-03
 -1      6308-4.95790E-02 3.15370E-02 2.36600E-03
 -1      6309 4.80250E-02-2.70760E-02 1.63100E-03
 -1      6310-5.37830E-02 3.15620E-02 2.36100E-03
 -1      6311-5.02400E-02 2.88180E-02 1.31500E-03
 -1      6312 4.06810E-02-3.20000E-04 2.00200E-03
 -1      6313 3.06190E-02 4.57300E-03 2.06300E-03
 -1      6314-5.78590E-02 3.19570E-02 1.75200E-03
 -1      6315-5.00230E-02 9.18300E-03 2.05100E-03
 -1      6316-5.83560E-02 2.27230E-02 2.45200E-03
 -1      6317-4.92100E-02 4.19300E-03 1.90400E-03
 -1      6318-4.35000E-02 2.59760E-02 1.78000E-03
 -1      6319-5.53930E-02 1.77080E-02 1.84000E-03
 -1      6320-4.18380E-02-4.33000E-04 2.07000E-03
 -1      6321-4.48890E-02-4.40000E-04 2.25600E-03
 -1      6322-4.29300E-02 9.04200E-03 1.36100E-03
 -1      6323 5.64670E-02-2.21270E-02 1.55100E-03
 -1      6324 4.99700E-03-3.40760E-02 1.58400E-03
 -1      6325 6.08200E-03-3.14900E-02 1.41100E-03
 -1      6326-2.74140E-02-3.32720E-02 1.44600E-03
 -1      6327-5.44510E-02 8.08400E-03 2.21500E-03
 -1      6328-4.67890E-02 5.08900E-03 1.12300E-03
 -1      6329-3.61920E-02-3.45510E-02 1.75000E-03
 -1      6330-5.68020E-02-2.76290E-02 9.92300E-03
 -1      6331-5.38760E-02-1.28000E-03 1.89700E-03
 -1      6332-4.85320E-02-5.65000E-04 1.73500E-03
 -1      6333-5.81310E-02 3.91700E-03 4.95900E-03
 -1      6334-5.83950E-02-3.16970E-02 1.29200E-03
 -1      6335-5.41860E-02 4.38300E-03 2.00800E-03
 -1      6336-5.39010E-02 1.15700E-03 1.59200E-03
 -1      6337-5.58980E-02-3.18000E-04 1.75700E-03
 -1      6338-5.82550E-02-5.00000E-05 2.01300E-03
 -1      6339 1.02330E-02-3.13270E-02 1.53800E-03
 -1      6340-5.00730E-02 4.44800E-03 9.34400E-03
 -1      6341-5.72920E-02 4.49600E-03 1.67400E-03
 -1      6342 1.83260E-02-3.47340E-02 1.83400E-03
 -1      6343-4.92830E-02-2.67540E-02 1.82100E-03
 -1      6344-5.25160E-02-3.36690E-02 1.64300E-03
 -1      6345-5.82550E-02 1.69620E-02 6.29200E-03
 -1      6346-5.41590E-02-1.47470E-02 1.56500E-03
 -1      6347-4.96020E-02-1.35460E-02 1.94700E-03
 -1      6348-5.72670E-02 1.25960E-02 1.65500E-03
 -1      6349-4.54660E-02-4.07300E-03 1.97100E-03
 -1      6350-5.83500E-02 1.88390E-02 4.47600E-03
 -1      6351-4.05420E-02-6.70600E-03 1.30300E-03
 -1      6352-5.58340E-02 2.27550E-02 1.81500E-03
 -1      6353-3.60980E-02-5.28000E-04 2.24500E-03
 -1      6354-4.11990E-02 2.43140E-02 1.91900E-03
 -1      6355-4.06510E-02 1.77450E-02 2.31600E-03
 -1      6356-4.51530E-02 1.84020E-02 1.74300E-03
 -1      6357-3.59730E-02 1.82450E-02 9.02900E-03
 -1      6358-4.87890E-02-1.80180E-02 1.89800E-03
 -1      6359-4.82990E-02 1.87150E-02 1.53100E-03
 -1      6360-4.50490E-02 1.54280E-02 1.26900E-03
 -1      6361-4.44740E-02-2.19820E-02 1.67000E-03
 -1      6362-3.89020E-02-3.17820E-02 1.81400E-03
 -1      6363-5.04820E-02 1.93310E-02 1.75000E-03
 -1      6364-4.98560E-02 1.37390E-02 2.19600E-03
 -1      6365-4.45120E-02 1.31380E-02 2.24700E-03
 -1      6366-5.86210E-02 7.90400E-03 2.46700E-03
 -1      6367-4.49550E-02-2.50030E-02 1.06530E-02
 -1      6368-4.57670E-02-6.09600E-03 1.23000E-03
 -1      6369-4.48480E-02 8.84700E-03 2.13900E-03
 -1      6370-4.02330E-02 9.28500E-03 9.74200E-03
 -1      6371-2.73970E-02 3.60100E-03 1.75300E-03
 -1      6372-3.23020E-02 1.41000E-04 1.86800E-03
 -1      6373-4.08950E-02 3.35000E-04 9.87900E-03
 -1      6374-3.08860E-02 9.05500E-03 9.61600E-03
 -1      6375-4.51310E-02 2.07200E-03 1.35100E-03
 -1      6376-4.09830E-02 4.09000E-03 2.05300E-03
 -1      6377-3.65500E-02 4.37600E-03 2.01700E-03
 -1      6378-1.86550E-02-3.54060E-02 1.88300E-03
 -1      6379 2.36580E-02-2.67970E-02 9.98100E-03
 -1      6380-2.66980E-02 1.02200E-03 3.33900E-03
 -1      6381-2.30970E-02-3.20610E-02 1.93800E-03
 -1      6382-3.07110E-02 4.55000E-03 2.09100E-03
 -1      6383-3.78500E-03-3.47690E-02 1.87200E-03
 -1      6384-2.68000E-02 2.30400E-03 6.00700E-03
 -1      6385-2.89580E-02 4.36300E-03 5.93600E-03
 -1      6386-3.11220E-02 1.34860E-02 2.08300E-03
 -1      6387-3.64230E-02 1.29970E-02 2.01500E-03
 -1      6388-3.12140E-02 9.17200E-03 2.12600E-03
 -1      6389-3.17970E-02 2.25880E-02 1.81800E-03
 -1      6390-2.16330E-02 1.91880E-02 1.59100E-03
 -1      6391-1.51160E-02-3.04780E-02 1.02400E-03
 -1      6392-1.74790E-02-2.74550E-02 2.01100E-03
 -1      6393-1.17230E-02-3.12800E-02 1.36600E-03
 -1      6394-2.66640E-02 2.30600E-02 9.96800E-03
 -1      6395-4.43500E-03-2.96770E-02 1.86800E-03
 -1      6396-1.97700E-02 2.14900E-02 1.74200E-03
 -1      6397-2.29590E-02 1.49780E-02 1.81600E-03
 -1      6398-3.59530E-02 1.80420E-02 3.05400E-03
 -1      6399-3.64040E-02 2.68800E-02 1.67500E-03
 -1      6400-2.57820E-02 1.54480E-02 1.58600E-03
 -1      6401-2.22950E-02 2.21700E-02 1.94200E-03
 -1      6402-1.78700E-02 2.51280E-02 1.97900E-03
 -1      6403-4.81100E-03 2.61330E-02 1.21600E-03
 -1      6404-3.09700E-02-2.74820E-02 1.80200E-03
 -1      6405-3.25080E-02-3.19890E-02 1.80200E-03
 -1      6406-2.35290E-02 2.68820E-02 1.99200E-03
 -1      6407-2.22010E-02 3.07770E-02 1.78900E-03
 -1      6408-2.79050E-02-2.24810E-02 1.77400E-03
 -1      6409-2.72510E-02-3.07180E-02 1.77700E-03
 -1      6410-2.20340E-02-3.05430E-02 1.68500E-03
 -1      6411-3.12890E-02 3.50940E-02 1.80200E-03
 -1      6412-1.21280E-02 3.16330E-02 1.91500E-03
 -1      6413-8.90900E-03 3.53600E-02 1.97500E-03
 -1      6414-3.46000E-04 3.47780E-02 1.64300E-03
 -1      6415-4.60500E-03 3.14450E-02 1.79200E-03
 -1      6416 6.50000E-04 2.74890E-02 1.91200E-03
 -1      6417-9.10800E-03 3.24740E-02 2.90100E-03
 -1      6418-2.68550E-02 3.02300E-02 1.63800E-03
 -1      6419-4.05600E-03 2.82290E-02 1.48600E-03
 -1      6420-2.35990E-02 3.19870E-02 1.94100E-03
 -1      6421-2.05980E-02-3.16000E-02 1.83300E-03
 -1      6422-2.24140E-02-3.50260E-02 1.90500E-03
 -1      6423-2.02910E-02 3.15920E-02 1.40900E-03
 -1      6424-3.22550E-02 2.67480E-02 2.06700E-03
 -1      6425-3.04790E-02 3.21240E-02 1.89500E-03
 -1      6426-1.48200E-02 3.21550E-02 1.41500E-03
 -1      6427-1.56050E-02 3.02530E-02 1.12300E-03
 -1      6428-3.00860E-02-3.19170E-02 1.69500E-03
 -1      6429-3.14390E-02-3.48780E-02 1.69700E-03
 -1      6430-1.71350E-02 2.82850E-02 1.82900E-03
 -1      6431-1.47280E-02 2.70240E-02 1.76600E-03
 -1      6432 1.84780E-02-3.47760E-02 1.00290E-02
 -1      6433-9.39200E-03 3.04950E-02 1.47800E-03
 -1      6434 1.54490E-02 3.17820E-02 1.53900E-03
 -1      6435 1.88210E-02 3.49070E-02 1.77700E-03
 -1      6436 2.16780E-02 1.92440E-02 1.01430E-02
 -1      6437 3.16860E-02 2.99390E-02 1.03690E-02
 -1      6438 2.67500E-02-3.47930E-02 1.03380E-02
 -1      6439 2.21860E-02 2.20730E-02 1.01250E-02
 -1      6440 3.30960E-02 3.13420E-02 1.81900E-03
 -1      6441 2.19870E-02 3.22970E-02 1.74200E-03
 -1      6442 2.66620E-02 2.73900E-02 1.91100E-03
 -1      6443 2.70160E-02 2.98520E-02 1.52700E-03
 -1      6444 2.70430E-02 3.49900E-02 1.96800E-03
 -1      6445-8.89000E-03-3.53260E-02 1.93100E-03
 -1      6446 1.98150E-02 3.17800E-02 1.58500E-03
 -1      6447 2.15380E-02 3.48220E-02 1.82600E-03
 -1      6448 2.32900E-02 3.47460E-02 1.61800E-03
 -1      6449 8.72300E-03 3.49250E-02 2.18100E-03
 -1      6450 4.08650E-02 2.76550E-02 2.02800E-03
 -1      6451 2.91470E-02 2.59850E-02 1.32900E-03
 -1      6452 2.26720E-02 2.76460E-02 2.14500E-03
 -1      6453 1.70460E-02 3.49040E-02 1.86900E-03
 -1      6454 1.74200E-02 2.76110E-02 1.96600E-03
 -1      6455 2.26550E-02 3.00120E-02 1.75900E-03
 -1      6456 1.23350E-02 3.33940E-02 1.85800E-03
 -1      6457 5.45100E-03 2.64210E-02 1.53200E-03
 -1      6458 4.30200E-03 3.52610E-02 2.20700E-03
 -1      6459 5.04000E-03 2.95590E-02 1.24000E-03
 -1      6460 3.68270E-02 1.30250E-02 1.85000E-03
 -1      6461 3.07730E-02 2.39350E-02 2.88100E-03
 -1      6462 3.11050E-02 2.67760E-02 9.86900E-03
 -1      6463 3.27440E-02 2.63380E-02 1.07740E-02
 -1      6464-1.71650E-02-3.51370E-02 1.60900E-03
 -1      6465 2.73640E-02 3.59300E-03 1.76800E-03
 -1      6466 4.52290E-02 2.06700E-03 1.31000E-03
 -1      6467 2.65890E-02 1.18000E-03 3.33800E-03
 -1      6468 3.11500E-02 2.25700E-03 2.14600E-03
 -1      6469 1.74230E-02 2.77340E-02 9.98400E-03
 -1      6470-4.24000E-04 2.59850E-02 1.16400E-03
 -1      6471 1.78040E-02 2.50030E-02 1.24400E-03
 -1      6472 2.42700E-03 2.67060E-02 3.32300E-03
 -1      6473-8.92400E-03-2.99540E-02 1.55500E-03
 -1      6474 1.51270E-02 2.27430E-02 1.54200E-03
 -1      6475 2.12620E-02 1.99530E-02 1.37500E-03
 -1      6476-5.70200E-03-3.18730E-02 1.69000E-03
 -1      6477-8.96300E-03-3.53920E-02 9.96400E-03
 -1      6478-5.80400E-03-3.02160E-02 1.16300E-03
 -1      6479 2.74660E-02 2.24500E-02 9.53600E-03
 -1      6480 2.74150E-02 2.38930E-02 2.00400E-03
 -1      6481 3.12410E-02 1.34780E-02 9.96100E-03
 -1      6482 2.80870E-02 4.54200E-03 1.03110E-02
 -1      6483 4.06390E-02-2.81000E-04 9.98400E-03
 -1      6484 3.11880E-02 9.16200E-03 9.90000E-03
 -1      6485-8.88000E-04-3.44160E-02 9.92800E-03
 -1      6486-1.39690E-02-3.20710E-02 1.79700E-03
 -1      6487-1.76130E-02-2.45280E-02 1.52600E-03
 -1      6488 4.05990E-02 4.61100E-03 2.35300E-03
 -1      6489 2.64770E-02 5.70200E-03 1.79100E-03
 -1      6490 5.70450E-02 4.89800E-03 1.46200E-03
 -1      6491 5.36340E-02 1.32730E-02 1.93400E-03
 -1      6492 5.28710E-02 2.58980E-02 1.04150E-02
 -1      6493 4.55850E-02-1.28000E-04 2.01300E-03
 -1      6494 5.81140E-02 9.24500E-03 9.36100E-03
 -1      6495 4.48920E-02 9.16100E-03 2.24800E-03
 -1      6496-2.28140E-02-2.35230E-02 1.78600E-03
 -1      6497 5.04620E-02 9.27000E-04 1.55200E-03
 -1      6498 4.95430E-02 4.93300E-03 2.12100E-03
 -1      6499 4.17090E-02 1.38500E-02 1.01540E-02
 -1      6500 4.27890E-02 8.50900E-03 1.31200E-03
 -1      6501 4.08180E-02 7.67700E-03 2.21900E-03
 -1      6502 5.41750E-02 4.74200E-03 1.95200E-03
 -1      6503 5.38700E-02 8.13700E-03 1.90600E-03
 -1      6504 4.51780E-02 7.18500E-03 1.01320E-02
 -1      6505 4.54070E-02 1.16650E-02 1.31900E-03
 -1      6506 5.36680E-02 2.20640E-02 1.82200E-03
 -1      6507 5.74850E-02 1.77990E-02 2.13500E-03
 -1      6508 4.51010E-02 2.71550E-02 1.96300E-03
 -1      6509 4.04870E-02 3.48000E-03 1.07350E-02
 -1      6510 4.55630E-02 2.73360E-02 1.01710E-02
 -1      6511 4.53560E-02 1.33910E-02 2.34400E-03
 -1      6512 4.10700E-02 1.32020E-02 2.33700E-03
 -1      6513 2.95940E-02 2.26910E-02 1.02620E-02
 -1      6514 3.65430E-02 1.35770E-02 9.55700E-03
 -1      6515 3.60560E-02 9.05500E-03 3.04400E-03
 -1      6516 4.78700E-02 2.72710E-02 1.53700E-03
 -1      6517 5.40500E-02 2.43190E-02 1.63200E-03
 -1      6518 4.61110E-02 1.81190E-02 2.20300E-03
 -1      6519 5.58930E-02 2.21580E-02 1.39500E-03
 -1      6520 4.98010E-02 2.64320E-02 1.57300E-03
 -1      6521 4.49660E-02 1.96100E-02 1.71000E-03
 -1      6522 5.02840E-02 1.74770E-02 1.78600E-03
 -1      6523 5.34540E-02 1.85020E-02 1.85000E-03
 -1      6524 5.51590E-02 2.58930E-02 1.82100E-03
 -1      6525 5.85800E-02 1.65700E-02 7.34600E-03
 -1      6526 5.79360E-02 2.34530E-02 9.61800E-03
 -1      6527 5.79400E-02 2.26920E-02 3.13000E-03
 -1      6528 5.58430E-02 2.22880E-02 1.02910E-02
 -1      6529 5.79090E-02 2.61720E-02 2.74300E-03
 -1      6530 5.83970E-02 1.90470E-02 7.43700E-03
 -1      6531 5.86890E-02 1.30940E-02 4.17900E-03
 -1      6532-2.73010E-02-2.96500E-03 1.86300E-03
 -1      6533 5.71290E-02 1.30240E-02 1.62000E-03
 -1      6534 5.81230E-02 9.61800E-03 2.27800E-03
 -1      6535 5.87000E-02 1.19030E-02 6.13100E-03
 -1      6536 5.80400E-02 8.66100E-03 5.91700E-03
 -1      6537 5.37460E-02 1.30100E-02 1.01530E-02
 -1      6538 5.81420E-02 4.53700E-03 3.94700E-03
 -1      6539 3.59350E-02 2.25600E-02 2.33300E-03
 -1      6540 5.67990E-02 2.40080E-02 1.47400E-03
 -1      6541 5.24020E-02 2.71010E-02 1.87600E-03
 -1      6542 4.10460E-02 2.28890E-02 2.25300E-03
 -1      6543 5.03520E-02 2.93270E-02 1.75800E-03
 -1      6544-2.64410E-02-1.61270E-02 1.47400E-03
 -1      6545 4.60610E-02 3.52100E-02 1.65900E-03
 -1      6546 3.61200E-02 3.45700E-02 1.83200E-03
 -1      6547-2.19850E-02-1.87960E-02 1.60400E-03
 -1      6548 4.34660E-02 3.56920E-02 1.46200E-03
 -1      6549 3.59390E-02 3.14580E-02 1.92300E-03
 -1      6550-2.39640E-02-1.75860E-02 1.56000E-03
 -1      6551 4.11110E-02 3.47590E-02 1.94800E-03
 -1      6552 4.28240E-02 2.71510E-02 1.36700E-03
 -1      6553 4.33800E-02 2.89880E-02 1.03270E-02
 -1      6554 5.07610E-02 2.37590E-02 1.72600E-03
 -1      6555 4.81690E-02 2.28310E-02 1.69500E-03
 -1      6556 4.73710E-02 3.35670E-02 6.14800E-03
 -1      6557 4.40830E-02 3.09810E-02 1.95200E-03
 -1      6558 5.03810E-02 2.34690E-02 1.00650E-02
 -1      6559 5.74650E-02 2.57970E-02 1.55100E-03
 -1      6560 3.48500E-03-3.45510E-02 1.02480E-02
 -1      6561 5.65180E-02 2.43740E-02 6.53500E-03
 -1      6562 5.00700E-03-2.65050E-02 1.05010E-02
 -1      6563 5.57630E-02 2.28750E-02 3.35200E-03
 -1      6564 3.01500E-03-2.69140E-02 1.02470E-02
 -1      6565 5.32690E-02 2.25520E-02 1.03680E-02
 -1      6566 4.09630E-02 3.10120E-02 9.87700E-03
 -1      6567 4.84330E-02 3.16830E-02 1.03760E-02
 -1      6568 3.15800E-03-3.21240E-02 1.00020E-02
 -1      6569 4.55840E-02 3.06030E-02 1.00170E-02
 -1      6570 4.03600E-02 3.36270E-02 1.04970E-02
 -1      6571 4.37270E-02 3.12620E-02 1.02110E-02
 -1      6572 4.54790E-02 3.27950E-02 1.02710E-02
 -1      6573 9.15700E-03-3.20070E-02 9.54100E-03
 -1      6574 5.80100E-03-3.01400E-02 1.08340E-02
 -1      6575 2.76420E-02 3.28650E-02 1.01300E-02
 -1      6576 3.12060E-02 3.52080E-02 1.02180E-02
 -1      6577 1.40310E-02-3.52220E-02 1.02150E-02
 -1      6578 2.25880E-02 3.23560E-02 9.21900E-03
 -1      6579 1.82630E-02-2.89320E-02 1.08390E-02
 -1      6580 9.60000E-05 3.29110E-02 1.00580E-02
 -1      6581 7.46500E-03 3.15100E-02 1.01100E-02
 -1      6582 2.68110E-02-2.34490E-02 1.01270E-02
 -1      6583-6.21000E-04 3.47660E-02 1.00420E-02
 -1      6584 8.93900E-03 3.53080E-02 9.90400E-03
 -1      6585 4.98900E-03 3.08800E-02 1.02360E-02
 -1      6586 5.16900E-03 2.59400E-02 1.03110E-02
 -1      6587-7.71000E-04 2.68570E-02 9.26500E-03
 -1      6588 1.17740E-02 3.07070E-02 1.07790E-02
 -1      6589 2.19730E-02-3.38530E-02 1.05420E-02
 -1      6590 1.71180E-02 3.20050E-02 1.00180E-02
 -1      6591 2.25280E-02 3.45790E-02 1.00290E-02
 -1      6592 1.91220E-02 3.14890E-02 1.01280E-02
 -1      6593 3.39760E-02 3.15350E-02 1.00740E-02
 -1      6594 2.63930E-02 3.05640E-02 1.03450E-02
 -1      6595 2.81520E-02 2.69520E-02 1.01090E-02
 -1      6596 1.82340E-02 3.49650E-02 1.01160E-02
 -1      6597 4.53930E-02 2.30560E-02 1.00640E-02
 -1      6598 5.02390E-02 1.30640E-02 1.01280E-02
 -1      6599 5.84720E-02 1.59930E-02 4.60300E-03
 -1      6600 4.52870E-02 1.03190E-02 1.03050E-02
 -1      6601 4.33740E-02 8.74800E-03 1.03030E-02
 -1      6602 4.93120E-02 4.67700E-03 1.02310E-02
 -1      6603 5.41650E-02 2.46200E-03 1.00160E-02
 -1      6604 2.74030E-02 1.82060E-02 1.01800E-02
 -1      6605 3.18800E-02 2.23960E-02 1.03730E-02
 -1      6606 2.65950E-02 1.17200E-03 8.85500E-03
 -1      6607 2.61680E-02 5.06700E-03 9.99500E-03
 -1      6608 3.07010E-02 1.54000E-03 9.92100E-03
 -1      6609 1.78600E-02 2.51730E-02 1.07630E-02
 -1      6610 2.34730E-02 1.68170E-02 1.02420E-02
 -1      6611-3.17690E-02-2.54290E-02 1.16900E-03
 -1      6612-3.59830E-02-1.33240E-02 9.02600E-03
 -1      6613-3.16970E-02-1.76880E-02 2.73400E-03
 -1      6614 2.29030E-02 1.46830E-02 9.96100E-03
 -1      6615 2.58130E-02 1.56970E-02 1.00640E-02
 -1      6616-4.91290E-02-2.29250E-02 1.87700E-03
 -1      6617-5.23190E-02-2.71970E-02 1.71800E-03
 -1      6618 2.61160E-02 2.75310E-02 1.01910E-02
 -1      6619-3.94510E-02-2.68670E-02 1.60000E-03
 -1      6620 2.67270E-02 2.49400E-03 6.02800E-03
 -1      6621-5.01200E-02-1.69200E-02 1.73700E-03
 -1      6622 2.68070E-02 3.08600E-03 1.02610E-02
 -1      6623 3.06180E-02 4.56400E-03 9.89600E-03
 -1      6624-5.53610E-02-2.18950E-02 2.00300E-03
 -1      6625-5.38350E-02-2.05470E-02 1.40200E-03
 -1      6626 4.49860E-02 4.49400E-03 1.79900E-03
 -1      6627 4.46160E-02 1.36080E-02 1.00440E-02
 -1      6628 4.08910E-02 8.52400E-03 9.86500E-03
 -1      6629 4.97740E-02 1.79110E-02 1.00100E-02
 -1      6630 4.98370E-02 2.69350E-02 9.59900E-03
 -1      6631-4.15700E-02-1.29610E-02 1.85500E-03
 -1      6632 4.58870E-02-9.07000E-03 9.31800E-03
 -1      6633 3.60400E-02 9.10700E-03 8.91800E-03
 -1      6634 4.54170E-02 3.74600E-03 1.02980E-02
 -1      6635 3.11620E-02-9.01100E-03 9.87000E-03
 -1      6636 4.97470E-02 2.03520E-02 1.07970E-02
 -1      6637-5.45600E-02-4.10600E-03 2.47600E-03
 -1      6638 5.78950E-02 2.10300E-02 5.39000E-03
 -1      6639-5.38180E-02-1.18760E-02 1.70800E-03
 -1      6640 4.12920E-02 2.80870E-02 1.01030E-02
 -1      6641 3.61500E-02 2.26210E-02 9.74600E-03
 -1      6642 3.62030E-02 1.82230E-02 8.97100E-03
 -1      6643 3.93100E-02 1.31220E-02 1.03840E-02
 -1      6644 5.39050E-02 1.84100E-02 9.76000E-03
 -1      6645 5.87500E-02 2.20290E-02 1.05040E-02
 -1      6646 5.81650E-02 2.12860E-02 8.78400E-03
 -1      6647 5.70170E-02 1.80770E-02 6.01100E-03
 -1      6648 5.67230E-02 1.78350E-02 8.98800E-03
 -1      6649 5.85110E-02 1.44030E-02 9.02000E-03
 -1      6650 5.85370E-02 1.70280E-02 1.01350E-02
 -1      6651 5.85960E-02 7.70400E-03 9.70400E-03
 -1      6652 5.83860E-02 4.56300E-03 9.36200E-03
 -1      6653-3.61140E-02-9.01300E-03 3.09500E-03
 -1      6654-3.66350E-02-4.31900E-03 9.92600E-03
 -1      6655 5.81820E-02 3.86000E-03 6.14700E-03
 -1      6656 4.89110E-02-8.76700E-03 2.14200E-03
 -1      6657 5.84810E-02-5.30300E-03 9.30700E-03
 -1      6658 5.76000E-02-9.01600E-03 5.73900E-03
 -1      6659 5.58630E-02 5.55000E-04 1.01460E-02
 -1      6660 5.39120E-02-1.73890E-02 1.00760E-02
 -1      6661-4.39130E-02-8.97600E-03 1.90800E-03
 -1      6662 5.67790E-02-2.18960E-02 1.04220E-02
 -1      6663-4.52060E-02 4.41600E-03 1.88600E-03
 -1      6664 5.31010E-02-2.41520E-02 1.05310E-02
 -1      6665 5.83450E-02-2.20630E-02 1.04830E-02
 -1      6666 5.63620E-02-1.80100E-02 8.59600E-03
 -1      6667 4.54520E-02-6.81800E-03 1.07790E-02
 -1      6668 5.39040E-02-8.25600E-03 1.01410E-02
 -1      6669 4.05410E-02-6.68000E-03 1.04420E-02
 -1      6670 5.86770E-02-1.79460E-02 1.05200E-02
 -1      6671-5.83400E-02-1.24130E-02 2.47900E-03
 -1      6672-5.82550E-02-1.01630E-02 2.57400E-03
 -1      6673-5.83670E-02-7.79300E-03 2.75100E-03
 -1      6674 4.61190E-02-1.81730E-02 9.80700E-03
 -1      6675 4.08630E-02-2.71240E-02 2.10800E-03
 -1      6676 4.86520E-02-1.87170E-02 1.02650E-02
 -1      6677 3.12100E-02-3.47740E-02 1.02350E-02
 -1      6678 5.34850E-02-1.95780E-02 1.01680E-02
 -1      6679-5.81150E-02-2.27100E-02 2.61500E-03
 -1      6680 5.82690E-02-9.56800E-03 9.23700E-03
 -1      6681 4.99850E-02-1.34000E-02 1.00990E-02
 -1      6682-5.87370E-02-2.51330E-02 1.01550E-02
 -1      6683-5.87870E-02-1.42130E-02 2.47600E-03
 -1      6684 5.84020E-02 2.70000E-04 9.49400E-03
 -1      6685 4.51450E-02-3.72000E-04 9.97700E-03
 -1      6686-5.84960E-02-2.53060E-02 2.87100E-03
 -1      6687 4.29240E-02-4.22800E-03 1.07020E-02
 -1      6688-4.92130E-02-3.48820E-02 1.01120E-02
 -1      6689 4.90640E-02-9.06200E-03 9.95200E-03
 -1      6690-5.80500E-02-2.77930E-02 4.11500E-03
 -1      6691 4.51000E-02-3.96500E-03 1.01060E-02
 -1      6692-5.67580E-02-3.24290E-02 1.37400E-03
 -1      6693 4.52430E-02-2.29300E-03 1.26600E-03
 -1      6694-5.48940E-02-2.61530E-02 2.27200E-03
 -1      6695 5.17430E-02-4.50600E-03 1.21200E-03
 -1      6696-4.98310E-02-2.15020E-02 9.85800E-03
 -1      6697 3.59220E-02-4.52300E-03 9.32900E-03
 -1      6698 3.59290E-02 7.10000E-05 1.01450E-02
 -1      6699-5.54470E-02-2.82300E-02 2.13600E-03
 -1      6700 3.59770E-02-8.94600E-03 9.00400E-03
 -1      6701 2.67230E-02-1.54730E-02 1.04830E-02
 -1      6702-5.59880E-02-3.55530E-02 9.99600E-03
 -1      6703 2.16770E-02-1.88870E-02 1.05080E-02
 -1      6704 3.11160E-02-1.81520E-02 1.00000E-02
 -1      6705 2.32550E-02-1.71600E-02 1.02600E-02
 -1      6706 3.59130E-02-1.81420E-02 8.95100E-03
 -1      6707-3.34490E-02-2.75990E-02 1.51300E-03
 -1      6708 1.49130E-02-2.25380E-02 1.02490E-02
 -1      6709 3.60010E-02-3.22270E-02 9.52700E-03
 -1      6710-3.55780E-02-2.49450E-02 1.44300E-03
 -1      6711 3.68110E-02-2.87070E-02 1.02850E-02
 -1      6712 3.58280E-02-2.28810E-02 9.76900E-03
 -1      6713 2.27370E-02-1.50040E-02 1.02860E-02
 -1      6714 4.27560E-02-2.72650E-02 1.05310E-02
 -1      6715-5.78870E-02-2.70230E-02 1.93400E-03
 -1      6716 2.71550E-02-1.79380E-02 9.97000E-03
 -1      6717 2.66620E-02-5.54200E-03 1.02490E-02
 -1      6718-4.82030E-02-3.12590E-02 1.91000E-03
 -1      6719 3.18720E-02-2.35000E-04 1.00340E-02
 -1      6720 3.06290E-02-4.42600E-03 9.75300E-03
 -1      6721 1.52750E-02-2.69670E-02 1.03350E-02
 -1      6722-1.61970E-02-3.17210E-02 1.02860E-02
 -1      6723-3.16040E-02-2.96090E-02 1.07560E-02
 -1      6724-5.70240E-02-4.39100E-03 1.04920E-02
 -1      6725-5.00610E-02-2.82780E-02 1.22900E-03
 -1      6726-5.79380E-02 1.77630E-02 1.93600E-03
 -1      6727-5.27630E-02 9.02800E-03 9.91400E-03
 -1      6728 5.80160E-02 5.60000E-05 1.99000E-03
 -1      6729 5.37700E-02-7.16200E-03 1.31000E-03
 -1      6730-5.29850E-02-3.30350E-02 1.08270E-02
 -1      6731-2.19330E-02 2.14600E-02 9.78800E-03
 -1      6732-1.74760E-02 3.04480E-02 9.98700E-03
 -1      6733-3.27600E-02-3.16280E-02 1.07000E-02
 -1      6734 3.11100E-02-1.91900E-03 1.79000E-03
 -1      6735-2.42710E-02 3.00740E-02 1.07760E-02
 -1      6736-4.54700E-02 2.17240E-02 1.49000E-03
 -1      6737-5.44040E-02 3.11800E-02 1.01400E-02
 -1      6738-5.26310E-02 3.40990E-02 1.57600E-03
 -1      6739-5.53170E-02 2.66940E-02 1.93200E-03
 -1      6740 3.54100E-03-3.17930E-02 2.05700E-03
 -1      6741-3.07870E-02-1.58600E-03 2.54200E-03
 -1      6742-2.66540E-02-6.85000E-04 2.33300E-03
 -1      6743-1.38520E-02 3.06770E-02 2.30400E-03
 -1      6744 3.13260E-02 2.47210E-02 1.03440E-02
 -1      6745 5.61010E-02 9.26400E-03 1.38600E-03
 -1      6746 4.80680E-02 3.61120E-02 1.59200E-03
 -1      6747-2.56060E-02-3.20340E-02 2.34300E-03
 -1      6748 4.05880E-02 1.77490E-02 9.70600E-03
 -1      6749 5.65950E-02 1.61310E-02 6.37500E-03
 -1      6750-2.62240E-02-3.06400E-03 1.03800E-02
 -1      6751 5.80490E-02-2.50300E-02 6.17700E-03
 -1      6752 1.21310E-02-3.07820E-02 1.01810E-02
 -1      6753-4.57260E-02-2.69200E-02 1.57600E-03
 -1      6754-4.01180E-02-3.22020E-02 1.00290E-02
 -1      6755-5.76290E-02 4.85400E-03 1.02280E-02
 -1      6756-5.85440E-02-1.81640E-02 3.78900E-03
 -1      6757-1.29610E-02-3.10570E-02 9.88600E-03
 -1      6758-1.79540E-02-2.77680E-02 9.85000E-03
 -1      6759-5.32990E-02 1.83440E-02 1.74500E-03
 -1      6760-2.68670E-02-2.94890E-02 1.07910E-02
 -1      6761-2.67310E-02-2.07800E-03 6.29500E-03
 -1      6762-5.61340E-02-4.75700E-03 1.35500E-03
 -1      6763-4.51790E-02-8.23900E-03 1.87500E-03
 -1      6764-5.83310E-02-2.94750E-02 2.13900E-03
 -1      6765-4.12080E-02-2.82790E-02 1.92800E-03
 -1      6766 5.83690E-02-1.37070E-02 9.46700E-03
 -1      6767-3.58320E-02-2.95790E-02 1.26200E-03
 -1      6768 1.82160E-02 3.29230E-02 2.53300E-03
 -1      6769 3.92500E-03 3.04500E-02 1.94700E-03
 -1      6770 2.70260E-02-2.93520E-02 1.07740E-02
 -1      6771 4.62360E-02 3.25740E-02 1.70500E-03
 -1      6772 3.15670E-02-3.06450E-02 9.90200E-03
 -1      6773-5.76190E-02-3.35870E-02 9.95200E-03
 -1      6774-5.60760E-02-3.10180E-02 1.03890E-02
 -1      6775-4.02600E-02-9.40900E-03 1.82700E-03
 -1      6776-5.00980E-02-1.83070E-02 2.03200E-03
 -1      6777-5.75970E-02 8.39200E-03 4.95200E-03
 -1      6778-1.33010E-02-3.07550E-02 2.21200E-03
 -1      6779-2.54390E-02 3.20660E-02 2.19200E-03
 -1      6780 1.69750E-02 3.08580E-02 1.97700E-03
 -1      6781-1.59990E-02-3.18200E-02 1.31800E-03
 -1      6782 5.45670E-02 2.37980E-02 8.59700E-03
 -1      6783 5.62780E-02 9.23700E-03 1.04770E-02
 -1      6784 5.06040E-02 2.72040E-02 3.37000E-03
 -1      6785 5.82810E-02 2.33250E-02 7.71400E-03
 -1      6786 4.41350E-02 3.33200E-02 1.09040E-02
 -1      6787 1.33490E-02 3.06780E-02 9.73400E-03
 -1      6788 1.72060E-02 2.97480E-02 9.54800E-03
 -1      6789 5.84540E-02 1.84740E-02 4.73100E-03
 -1      6790 3.11640E-02-2.21200E-03 1.06260E-02
 -1      6791 5.83260E-02 1.91100E-02 9.26500E-03
 -1      6792 5.60380E-02-5.10500E-03 1.00100E-02
 -1      6793 5.81990E-02-1.81210E-02 8.88800E-03
 -1      6794-5.58070E-02-9.49000E-03 2.03200E-03
 -1      6795 2.83780E-02 4.37000E-04 9.78500E-03
 -1      6796 4.42220E-02-9.10300E-03 1.07010E-02
 -1      6797-5.86630E-02-2.25810E-02 7.07300E-03
 -1      6798 5.77720E-02 2.30260E-02 5.67300E-03
 -1      6799 5.63170E-02-1.62440E-02 6.42600E-03
 -1      6800 4.20980E-02-3.26330E-02 1.72000E-03
 -1      6801-2.67080E-02-2.47320E-02 1.07190E-02
 -1      6802-4.53320E-02 1.90420E-02 1.01520E-02
 -1      6803 2.13600E-03-3.28860E-02 1.02200E-03
 -1      6804-3.57990E-02 3.34010E-02 1.04860E-02
 -3
    3C                         29269                                     1
 -1     13737    3    0    3
 -2      2376      2436      2602      6191
 -1     13738    3    0    3
 -2      1831      3141      1830       414
 -1     13739    3    0    3
 -2      4906      2754      3651      4905
 -1     13740    3    0    3
 -2      5527      5517      3555      5655
 -1     13741    3    0    3
 -2      5554      1480      1482      1481
 -1     13742    3    0    3
 -2      1876      4051      4415      3361
 -1     13743    3    0    3
 -2      2346      2220      2235      5657
 -1     13744    3    0    3
 -2      5802      5017      1992      5914
 -1     13745    3    0    3
 -2      6486      6391      5546      6778
 -1     13746    3    0    3
 -2      2499      2396      2551      5012
 -1     13747    3    0    3
 -2      5282      1381      6743      6412
 -1     13748    3    0    3
 -2       868      1056      1155      5545
 -1     13749    3    0    3
 -2      3882      5621      5622      4057
 -1     13750    3    0    3
 -2      5393      2774      5391      3898
 -1     13751    3    0    3
 -2      1809      2749      1731       393
 -1     13752    3    0    3
 -2      3720      3939      3751      4966
 -1     13753    3    0    3
 -2      3695      4767      3750      5330
 -1     13754    3    0    3
 -2      2117      1745      1712      5944
 -1     13755    3    0    3
 -2      1809      2749       393      2756
 -1     13756    3    0    3
 -2      4347      3799      4887      4888
 -1     13757    3    0    3
 -2      5103      2993      4220      2977
 -1     13758    3    0    3
 -2      4775      4785      2623      5664
 -1     13759    3    0    3
 -2      5101      5100      3595      4131
 -1     13760    3    0    3
 -2      5559      6381      1160      6422
 -1     13761    3    0    3
 -2       869       785       784      6223
 -1     13762    3    0    3
 -2      3764      4861      4868      3733
 -1     13763    3    0    3
 -2      3998      3394      3320      3405
 -1     13764    3    0    3
 -2      5543      3749      4976      4370
 -1     13765    3    0    3
 -2      4429      4004      4235      5084
 -1     13766    3    0    3
 -2       807      1691      6692       808
 -1     13767    3    0    3
 -2      3799      4887      2064      1961
 -1     13768    3    0    3
 -2      1956      4592      1741      6783
 -1     13769    3    0    3
 -2      2398      5025      5024      5853
 -1     13770    3    0    3
 -2      5608      5611       501      4357
 -1     13771    3    0    3
 -2      3646      5548      4054      3536
 -1     13772    3    0    3
 -2      5446      3670      5445      3699
 -1     13773    3    0    3
 -2      3983      5649      5650      3648
 -1     13774    3    0    3
 -2      4406      5867      5014      5932
 -1     13775    3    0    3
 -2       822      1038      5271      1031
 -1     13776    3    0    3
 -2       974       853      5636      5639
 -1     13777    3    0    3
 -2      2306      2269      2396      5013
 -1     13778    3    0    3
 -2       872      1233      5446      6282
 -1     13779    3    0    3
 -2      5560       938      4516      6326
 -1     13780    3    0    3
 -2      1928      4969      4978      1927
 -1     13781    3    0    3
 -2      3381      6223      4300      3396
 -1     13782    3    0    3
 -2      2456      2380      2411      5749
 -1     13783    3    0    3
 -2      3331      3770      3322      3434
 -1     13784    3    0    3
 -2      4859      3849      4858      3815
 -1     13785    3    0    3
 -2      4993      4992      3510      5769
 -1     13786    3    0    3
 -2      5594      4393      5588      4341
 -1     13787    3    0    3
 -2      5611       823       528      5612
 -1     13788    3    0    3
 -2      4474      5562      5759      6405
 -1     13789    3    0    3
 -2      4858      4822      3911      6700
 -1     13790    3    0    3
 -2      4882      2193      6245      6266
 -1     13791    3    0    3
 -2      5367      5867      4406      5932
 -1     13792    3    0    3
 -2      1050      5559      1160      6422
 -1     13793    3    0    3
 -2      5323      5322      5314      3757
 -1     13794    3    0    3
 -2      5576      5586      4398      5806
 -1     13795    3    0    3
 -2      6550      1211       982      6547
 -1     13796    3    0    3
 -2      6566      4213      4582      4239
 -1     13797    3    0    3
 -2      5585      1640      5575      4506
 -1     13798    3    0    3
 -2      3339      3600       843      3406
 -1     13799    3    0    3
 -2      3279      3246      5323      3226
 -1     13800    3    0    3
 -2       800       549       110        31
 -1     13801    3    0    3
 -2      2811      1833       379      5903
 -1     13802    3    0    3
 -2      1450      1590      1479      5852
 -1     13803    3    0    3
 -2      4170      4362      5028      3523
 -1     13804    3    0    3
 -2      5321      3619      5350      5681
 -1     13805    3    0    3
 -2      5064      3969      4499      5061
 -1     13806    3    0    3
 -2      2914      1853      4668      4665
 -1     13807    3    0    3
 -2       738      5796      1052      5619
 -1     13808    3    0    3
 -2      4994      3482      4988      5862
 -1     13809    3    0    3
 -2      5620      3476      4181      5618
 -1     13810    3    0    3
 -2      3516      5552      3576      4985
 -1     13811    3    0    3
 -2      2774      5393      5391      2777
 -1     13812    3    0    3
 -2      1198      1023      1211      5839
 -1     13813    3    0    3
 -2      6046      5872      2067      4163
 -1     13814    3    0    3
 -2      5028      4170      2065      5752
 -1     13815    3    0    3
 -2      3381      6223      3396      3326
 -1     13816    3    0    3
 -2      2527      2564      4860      2528
 -1     13817    3    0    3
 -2      4440      1998      4924      1996
 -1     13818    3    0    3
 -2      4418      5621      4054      3509
 -1     13819    3    0    3
 -2       165       843      3406      3339
 -1     13820    3    0    3
 -2      4981      3759      3568      4431
 -1     13821    3    0    3
 -2      3642      4996      4274      5809
 -1     13822    3    0    3
 -2      5590      4349      5023      4321
 -1     13823    3    0    3
 -2      2071      2181      1987      5763
 -1     13824    3    0    3
 -2      4291      5525      4175      3614
 -1     13825    3    0    3
 -2      6702       283      6773      1693
 -1     13826    3    0    3
 -2       992      6009      6741      5691
 -1     13827    3    0    3
 -2      2303      4628      6168      6171
 -1     13828    3    0    3
 -2      6624       667       747      6679
 -1     13829    3    0    3
 -2      1677      6764       291       290
 -1     13830    3    0    3
 -2      4116      4751      4750      3582
 -1     13831    3    0    3
 -2      2149      2281      2364      4792
 -1     13832    3    0    3
 -2      5523      3432      4175      4959
 -1     13833    3    0    3
 -2      5540       934      1201       981
 -1     13834    3    0    3
 -2      3602      5557      3542      5551
 -1     13835    3    0    3
 -2      1552      6006      6019      5373
 -1     13836    3    0    3
 -2      2846      4784      2790      5959
 -1     13837    3    0    3
 -2      5001      4460      4515      5007
 -1     13838    3    0    3
 -2      3792      4859      5424      3849
 -1     13839    3    0    3
 -2      5031      4240      4293      5598
 -1     13840    3    0    3
 -2      3678      4747      1793      6044
 -1     13841    3    0    3
 -2      2813      5584      5857      5756
 -1     13842    3    0    3
 -2      2628      2585      2545      5965
 -1     13843    3    0    3
 -2      5530      3395      3397      3396
 -1     13844    3    0    3
 -2      4777      4779      3599      5697
 -1     13845    3    0    3
 -2      4188      6593      4129      4613
 -1     13846    3    0    3
 -2      4116      4487      4751      4753
 -1     13847    3    0    3
 -2      4081      3889      3859      4741
 -1     13848    3    0    3
 -2      5806      5576      1590      5852
 -1     13849    3    0    3
 -2      4973      3445      1876      4415
 -1     13850    3    0    3
 -2      3560      4675      4678      4102
 -1     13851    3    0    3
 -2      4704      4024      4706      3447
 -1     13852    3    0    3
 -2      2137      5005      2392      2136
 -1     13853    3    0    3
 -2      2356      4854      2414      2298
 -1     13854    3    0    3
 -2      4472      3798      4955      4957
 -1     13855    3    0    3
 -2      2206      2421      2400      4950
 -1     13856    3    0    3
 -2      2244      2062      2057      4715
 -1     13857    3    0    3
 -2       789       909       844      5242
 -1     13858    3    0    3
 -2      2634      4604      2509      2407
 -1     13859    3    0    3
 -2      3478      4792      4791      5969
 -1     13860    3    0    3
 -2      4136      4056      4817      4087
 -1     13861    3    0    3
 -2      4762      2399      4764      2226
 -1     13862    3    0    3
 -2      4700      4503      2967      4697
 -1     13863    3    0    3
 -2      4797      2605      4791      6017
 -1     13864    3    0    3
 -2      4136      4056      4087      5380
 -1     13865    3    0    3
 -2      6639      4352      4323      5578
 -1     13866    3    0    3
 -2      3508      4790      3478      4789
 -1     13867    3    0    3
 -2      3534      5351      4788      3504
 -1     13868    3    0    3
 -2      2524      2544      4777      2523
 -1     13869    3    0    3
 -2      6046      5872      4163      4739
 -1     13870    3    0    3
 -2      5284      4725      4099      5286
 -1     13871    3    0    3
 -2      3778      2926      3560      4678
 -1     13872    3    0    3
 -2      3850      2234      4246      4723
 -1     13873    3    0    3
 -2       821       721       140      6489
 -1     13874    3    0    3
 -2      2061      2237      2020      6180
 -1     13875    3    0    3
 -2      3305      3795      3295      3293
 -1     13876    3    0    3
 -2      4024      2910      2908      4448
 -1     13877    3    0    3
 -2      2168      4780      2197      2438
 -1     13878    3    0    3
 -2      5706      4772      4771      5708
 -1     13879    3    0    3
 -2      3726      4702      3754      5264
 -1     13880    3    0    3
 -2      4738      3780      4767      5967
 -1     13881    3    0    3
 -2       368      1790      2853       367
 -1     13882    3    0    3
 -2      3532      3673      3637      5332
 -1     13883    3    0    3
 -2      5257      3501      4048      5259
 -1     13884    3    0    3
 -2      2009      5949      1714      2010
 -1     13885    3    0    3
 -2      2772      2775      4179       244
 -1     13886    3    0    3
 -2      4701      1897      2908      4704
 -1     13887    3    0    3
 -2       862      6416       849      6090
 -1     13888    3    0    3
 -2      2080      3505      4766      2052
 -1     13889    3    0    3
 -2      4226      4706      4707      3673
 -1     13890    3    0    3
 -2      5936      5949      5939      4802
 -1     13891    3    0    3
 -2      4322      5273      3943      5275
 -1     13892    3    0    3
 -2      5267      5266      4008      4509
 -1     13893    3    0    3
 -2       862      6416      5198       972
 -1     13894    3    0    3
 -2      4487      4757      3992      3773
 -1     13895    3    0    3
 -2      2522      2594      2371      5708
 -1     13896    3    0    3
 -2      5961      2628      2545      5965
 -1     13897    3    0    3
 -2      5701      1929      6211      1980
 -1     13898    3    0    3
 -2      3661      3599      5339      4776
 -1     13899    3    0    3
 -2      4795      2399      2591      2582
 -1     13900    3    0    3
 -2      4408      5523      3422      3433
 -1     13901    3    0    3
 -2      1469      5319      1541      1561
 -1     13902    3    0    3
 -2      5353      1306      5352      6364
 -1     13903    3    0    3
 -2      2928      3605      2936      2927
 -1     13904    3    0    3
 -2      1230      1195      5570      1374
 -1     13905    3    0    3
 -2      5595      5028      4388      4417
 -1     13906    3    0    3
 -2      3640      5258      5255      6411
 -1     13907    3    0    3
 -2      3625      4775      4785      3690
 -1     13908    3    0    3
 -2      5280      1119      1121      6412
 -1     13909    3    0    3
 -2      5724      5179      5181      6129
 -1     13910    3    0    3
 -2      1047      1214      1347      5952
 -1     13911    3    0    3
 -2      5293      4421      4058      6402
 -1     13912    3    0    3
 -2      4689      4089      3687      6047
 -1     13913    3    0    3
 -2      4766      4765      3723      3754
 -1     13914    3    0    3
 -2      4727      3689      4726      3462
 -1     13915    3    0    3
 -2      2946      3500      2992      2995
 -1     13916    3    0    3
 -2      4022      5108      3477      4546
 -1     13917    3    0    3
 -2      2041      4713      4402      6169
 -1     13918    3    0    3
 -2      5184      5178      4047      4103
 -1     13919    3    0    3
 -2      3986      5186      5210      6205
 -1     13920    3    0    3
 -2      1875      4664      2887      4561
 -1     13921    3    0    3
 -2      3977      4212      4670      4402
 -1     13922    3    0    3
 -2      4505      3829      2947      4671
 -1     13923    3    0    3
 -2      3637      4770      5333      3606
 -1     13924    3    0    3
 -2      3932      4635      4624      6469
 -1     13925    3    0    3
 -2      3965      3451      5112      4158
 -1     13926    3    0    3
 -2      5163      1569      1594      1631
 -1     13927    3    0    3
 -2      2393      4582      2389      2488
 -1     13928    3    0    3
 -2      3168      3502      4747      3285
 -1     13929    3    0    3
 -2      2012      5046      4485      6477
 -1     13930    3    0    3
 -2      1701      4863      4862      1964
 -1     13931    3    0    3
 -2      1025       854       939      6093
 -1     13932    3    0    3
 -2      3810      3758      5435      5437
 -1     13933    3    0    3
 -2      4081      3502      4748      4747
 -1     13934    3    0    3
 -2      5197      5194      3487      6155
 -1     13935    3    0    3
 -2      3206      6149      3912      3162
 -1     13936    3    0    3
 -2      1294      5193      1184      1346
 -1     13937    3    0    3
 -2      4482      4311      3517      3004
 -1     13938    3    0    3
 -2      6449       797       970      5122
 -1     13939    3    0    3
 -2      5156      4279      4592      6113
 -1     13940    3    0    3
 -2      3623      3655      2989      4535
 -1     13941    3    0    3
 -2      2208      2207      2084      5989
 -1     13942    3    0    3
 -2      3546      6543      6541      5141
 -1     13943    3    0    3
 -2      1961      4876      4347      1906
 -1     13944    3    0    3
 -2      4080      4305      6575      4612
 -1     13945    3    0    3
 -2      5125      3658      4219      5124
 -1     13946    3    0    3
 -2      4482      4311      3004      3709
 -1     13947    3    0    3
 -2      6083      4632      6125      6174
 -1     13948    3    0    3
 -2      6671      6672       652      2808
 -1     13949    3    0    3
 -2      3676      4205      4548      4550
 -1     13950    3    0    3
 -2      5122      2885      5123      4492
 -1     13951    3    0    3
 -2      1652      1457      1442      5714
 -1     13952    3    0    3
 -2      5177      1491      1395      1368
 -1     13953    3    0    3
 -2      3324      3323      5421      4452
 -1     13954    3    0    3
 -2      3118      6527      6638      6798
 -1     13955    3    0    3
 -2        10       213       661       482
 -1     13956    3    0    3
 -2      6527      3099      3113      6540
 -1     13957    3    0    3
 -2      4338      3660      5103      6444
 -1     13958    3    0    3
 -2      5160      1396      1398      6522
 -1     13959    3    0    3
 -2      4072      5206      5205      4443
 -1     13960    3    0    3
 -2      2157      2178      2225      6125
 -1     13961    3    0    3
 -2      4437      4318      5140      4343
 -1     13962    3    0    3
 -2      2303      4628      6171      2173
 -1     13963    3    0    3
 -2      4310      2969      5109      3477
 -1     13964    3    0    3
 -2      4036      4562      3813      3570
 -1     13965    3    0    3
 -2      5129      5128      3769      3852
 -1     13966    3    0    3
 -2      5103      5102      2977      3823
 -1     13967    3    0    3
 -2      2081      1945      4628      2173
 -1     13968    3    0    3
 -2      2898      3613      2962      4471
 -1     13969    3    0    3
 -2      3980      4354      4611      6576
 -1     13970    3    0    3
 -2      3709      4236      4666      4667
 -1     13971    3    0    3
 -2      5114      6435      6453      1030
 -1     13972    3    0    3
 -2      4676      4677      1852      2925
 -1     13973    3    0    3
 -2      3709      4236      5229      5228
 -1     13974    3    0    3
 -2      4878      4884      3550      3612
 -1     13975    3    0    3
 -2      6416      6090      5198      6472
 -1     13976    3    0    3
 -2      4350      4547      3477      4546
 -1     13977    3    0    3
 -2      3724      2961      2920      4444
 -1     13978    3    0    3
 -2       440      1705       441      2913
 -1     13979    3    0    3
 -2      2945      2982      4548      3676
 -1     13980    3    0    3
 -2      3613      4302      2942      4549
 -1     13981    3    0    3
 -2       979      5175      1172      6546
 -1     13982    3    0    3
 -2      4021      5180      3962      4616
 -1     13983    3    0    3
 -2      6462      4076      6744      4620
 -1     13984    3    0    3
 -2      6502       935      6184      6503
 -1     13985    3    0    3
 -2      4437      5087      3136      6746
 -1     13986    3    0    3
 -2      4317      3153      4391      3149
 -1     13987    3    0    3
 -2      3065       233       771       234
 -1     13988    3    0    3
 -2      1903      4470      1901      2098
 -1     13989    3    0    3
 -2      4625      2145      2005      6610
 -1     13990    3    0    3
 -2      5104      5101      4220      3565
 -1     13991    3    0    3
 -2      4588      4582      4157      5723
 -1     13992    3    0    3
 -2      4105      5179      4080      4615
 -1     13993    3    0    3
 -2      4105      3660      5176      6129
 -1     13994    3    0    3
 -2      4662      3921      5217      4656
 -1     13995    3    0    3
 -2       913      1093      1094      6475
 -1     13996    3    0    3
 -2      4188      6593      4613      6144
 -1     13997    3    0    3
 -2      4761      4759      2088      6031
 -1     13998    3    0    3
 -2      4454      4398      5019      5009
 -1     13999    3    0    3
 -2      5302      6396      5304      6401
 -1     14000    3    0    3
 -2      5185      4076      4041      4621
 -1     14001    3    0    3
 -2      4470      4570      4149      3694
 -1     14002    3    0    3
 -2      5087      5088      3133      5090
 -1     14003    3    0    3
 -2      5184      5714      6188      6451
 -1     14004    3    0    3
 -2      5159      6103      1107      6491
 -1     14005    3    0    3
 -2      2029      3876      1970      1811
 -1     14006    3    0    3
 -2      3612      3581      3641      5442
 -1     14007    3    0    3
 -2      5130       683       217      3119
 -1     14008    3    0    3
 -2      5165      4096      5166      6501
 -1     14009    3    0    3
 -2      5168      4171      4604      4114
 -1     14010    3    0    3
 -2      1857      4500      4869      6703
 -1     14011    3    0    3
 -2       683      6541      5131      3546
 -1     14012    3    0    3
 -2      4645      2449      4646      6481
 -1     14013    3    0    3
 -2      5376      4032      5377      4001
 -1     14014    3    0    3
 -2      2073      4974      1860      5813
 -1     14015    3    0    3
 -2      4905      2751      4909      2727
 -1     14016    3    0    3
 -2      3577      4884      3612      5448
 -1     14017    3    0    3
 -2      5542      4300      3720      3751
 -1     14018    3    0    3
 -2      2207      2408      4809      5740
 -1     14019    3    0    3
 -2      5174      1422      1425      6488
 -1     14020    3    0    3
 -2      5471      4906      3830      4909
 -1     14021    3    0    3
 -2      2762      2764      2763      5409
 -1     14022    3    0    3
 -2      2564      4824      2636      2568
 -1     14023    3    0    3
 -2      5383      5395      6061      6069
 -1     14024    3    0    3
 -2      4593      4255      4603      5667
 -1     14025    3    0    3
 -2       605       629      3681       585
 -1     14026    3    0    3
 -2      4885      3604      4440      3574
 -1     14027    3    0    3
 -2      4901      3654      4284      5741
 -1     14028    3    0    3
 -2      5544      3749      5543      5761
 -1     14029    3    0    3
 -2      4969      3939      4978      3472
 -1     14030    3    0    3
 -2      5049      3626      3598      4485
 -1     14031    3    0    3
 -2      3854      3698      4372       622
 -1     14032    3    0    3
 -2      5625      5626      3575      3997
 -1     14033    3    0    3
 -2      4842      1976      5687      2122
 -1     14034    3    0    3
 -2      5880      4053      5881      6072
 -1     14035    3    0    3
 -2      4080      4305      4615      6575
 -1     14036    3    0    3
 -2      5989      4811      4168      6792
 -1     14037    3    0    3
 -2       404      1896       405      3029
 -1     14038    3    0    3
 -2      4849      4838      3836      3785
 -1     14039    3    0    3
 -2      1947      4919      4920      4489
 -1     14040    3    0    3
 -2      5473      2771      5471      4199
 -1     14041    3    0    3
 -2      4111      4812      4810      4060
 -1     14042    3    0    3
 -2      3937      4824      4823      6261
 -1     14043    3    0    3
 -2      2110      2084      2207      5989
 -1     14044    3    0    3
 -2      3375      4948      4953      4947
 -1     14045    3    0    3
 -2       881      4308      3757      5317
 -1     14046    3    0    3
 -2      3317      3329      4288      4867
 -1     14047    3    0    3
 -2      4817      4807      4136      6221
 -1     14048    3    0    3
 -2       799       888       803      6140
 -1     14049    3    0    3
 -2      4001      5378      5376      4060
 -1     14050    3    0    3
 -2      4852      3976      3941      5415
 -1     14051    3    0    3
 -2      4867      3416      3329      3401
 -1     14052    3    0    3
 -2      4438      5478      5476      3767
 -1     14053    3    0    3
 -2      3698      4252      5509      5510
 -1     14054    3    0    3
 -2      4870      3888      4426      4869
 -1     14055    3    0    3
 -2      4860      4858      3877      3815
 -1     14056    3    0    3
 -2      3382      4307      4459      3440
 -1     14057    3    0    3
 -2      1620      1451      5166      1580
 -1     14058    3    0    3
 -2       881      4308      5317      1060
 -1     14059    3    0    3
 -2      4377      3509      5056      5057
 -1     14060    3    0    3
 -2      4399      3380      3356      5787
 -1     14061    3    0    3
 -2       101      4923       100      1849
 -1     14062    3    0    3
 -2      5538      5537      3419       756
 -1     14063    3    0    3
 -2       240        10       662       482
 -1     14064    3    0    3
 -2        39      5628       692      5631
 -1     14065    3    0    3
 -2      2477      2386      2478      6711
 -1     14066    3    0    3
 -2      6267      3063      3073      6766
 -1     14067    3    0    3
 -2      5161      1100      1101      1263
 -1     14068    3    0    3
 -2      1628      1666      1627      5384
 -1     14069    3    0    3
 -2      5385      5379      3972      5748
 -1     14070    3    0    3
 -2       871      5446      3864       872
 -1     14071    3    0    3
 -2      3907      4824      3937      5387
 -1     14072    3    0    3
 -2       399       400      3061      1815
 -1     14073    3    0    3
 -2      2513      2626      2512      4822
 -1     14074    3    0    3
 -2      3993      5692      6058      4832
 -1     14075    3    0    3
 -2      5129      4290      3904      4389
 -1     14076    3    0    3
 -2      4093      4143      4810      5373
 -1     14077    3    0    3
 -2      5989      4805      4809      6212
 -1     14078    3    0    3
 -2      4049      2782      5390      3521
 -1     14079    3    0    3
 -2      5441      5442      1275      6269
 -1     14080    3    0    3
 -2      2548      5869      4986      2650
 -1     14081    3    0    3
 -2      1510      1613      1393      5383
 -1     14082    3    0    3
 -2      6343      5598      5597      4293
 -1     14083    3    0    3
 -2      3901      4334      4923       552
 -1     14084    3    0    3
 -2      4507      4478      5465      5462
 -1     14085    3    0    3
 -2      4442      4245       573       612
 -1     14086    3    0    3
 -2      5641      4050      3471      5642
 -1     14087    3    0    3
 -2      4177      5641      3471       590
 -1     14088    3    0    3
 -2       577       650        32        31
 -1     14089    3    0    3
 -2      2011      1931      2249      5029
 -1     14090    3    0    3
 -2      1677      5775      5728      5776
 -1     14091    3    0    3
 -2      5602      4240      5592      4267
 -1     14092    3    0    3
 -2      5642      3765      4313      5077
 -1     14093    3    0    3
 -2       289      1680       290      5728
 -1     14094    3    0    3
 -2      1166      5453      5461      6091
 -1     14095    3    0    3
 -2        79      5062      1802       562
 -1     14096    3    0    3
 -2       667       747       903      6624
 -1     14097    3    0    3
 -2      5558      3542      5557      5673
 -1     14098    3    0    3
 -2      5580      1268      5579      6621
 -1     14099    3    0    3
 -2      5886      5568      1599      6351
 -1     14100    3    0    3
 -2      1916      4939      1774      4940
 -1     14101    3    0    3
 -2      5338      5309      1541      1649
 -1     14102    3    0    3
 -2      1374      1447      5569      1418
 -1     14103    3    0    3
 -2      5361      5360      1390      5983
 -1     14104    3    0    3
 -2      2090      2024      1757      5755
 -1     14105    3    0    3
 -2      3737       163      3372       755
 -1     14106    3    0    3
 -2      4803      2857      2853      5929
 -1     14107    3    0    3
 -2      1600      1572      5574      1642
 -1     14108    3    0    3
 -2      1676      1675      1674      5037
 -1     14109    3    0    3
 -2      1624      5556      1669      1604
 -1     14110    3    0    3
 -2      2855      2795      2854      5756
 -1     14111    3    0    3
 -2      4486      5568      3469      5001
 -1     14112    3    0    3
 -2      5638      5073      4362      4335
 -1     14113    3    0    3
 -2      4352      5582      5572      5829
 -1     14114    3    0    3
 -2      1364      1111      1110      5804
 -1     14115    3    0    3
 -2      1504      1321      1503      6767
 -1     14116    3    0    3
 -2      6663      1606      6375      5362
 -1     14117    3    0    3
 -2      5554      4987      3488      4506
 -1     14118    3    0    3
 -2      1273      1450      1478      5577
 -1     14119    3    0    3
 -2      5058        81      1803       559
 -1     14120    3    0    3
 -2      3457      4989      4988      5869
 -1     14121    3    0    3
 -2      4238      5635      3537      6429
 -1     14122    3    0    3
 -2      5292      4058      3211      3212
 -1     14123    3    0    3
 -2      5050      5770      4981      2094
 -1     14124    3    0    3
 -2      2521      4991      2430      2570
 -1     14125    3    0    3
 -2      3256      4730      3200      3766
 -1     14126    3    0    3
 -2      5051      4278      3759      5053
 -1     14127    3    0    3
 -2      1651      5575      1643      1570
 -1     14128    3    0    3
 -2      3542      3510      5558      5557
 -1     14129    3    0    3
 -2      5548      4328      3646      5796
 -1     14130    3    0    3
 -2      3537       974      5564       894
 -1     14131    3    0    3
 -2       736      6547      5524      6550
 -1     14132    3    0    3
 -2      5801      5051      5758      2091
 -1     14133    3    0    3
 -2      3537       974      5636      3946
 -1     14134    3    0    3
 -2      5543      5541      4370      6239
 -1     14135    3    0    3
 -2      4517      5543      3745      3556
 -1     14136    3    0    3
 -2      4098      5607      3556      5510
 -1     14137    3    0    3
 -2      6405       894      6429      5564
 -1     14138    3    0    3
 -2      5069      5067      3666      4223
 -1     14139    3    0    3
 -2        36      5636       853       518
 -1     14140    3    0    3
 -2      5709      5738      5736      5032
 -1     14141    3    0    3
 -2      5639      3776      5640       596
 -1     14142    3    0    3
 -2      3610      4943      4944       513
 -1     14143    3    0    3
 -2      6445       776      5615       906
 -1     14144    3    0    3
 -2      2691      2659      4873      6712
 -1     14145    3    0    3
 -2      4086      3537      5636      5634
 -1     14146    3    0    3
 -2      4477      5556      5587      5799
 -1     14147    3    0    3
 -2      4418      4054      5559      3509
 -1     14148    3    0    3
 -2       587       586       564      4278
 -1     14149    3    0    3
 -2      1980      1919      2469      6664
 -1     14150    3    0    3
 -2      1215       934      1201      5793
 -1     14151    3    0    3
 -2      3479      5625      4025      5060
 -1     14152    3    0    3
 -2      5593      1325      1320      6362
 -1     14153    3    0    3
 -2      5751      4988      2492      5862
 -1     14154    3    0    3
 -2      5628        40       692       649
 -1     14155    3    0    3
 -2       508       576      3882      4057
 -1     14156    3    0    3
 -2      5627       509      4269      3575
 -1     14157    3    0    3
 -2      5625      5627      3746      4269
 -1     14158    3    0    3
 -2      4262      2773      4846      4462
 -1     14159    3    0    3
 -2      5537      5538      5539       756
 -1     14160    3    0    3
 -2      2094      5792      2142      5770
 -1     14161    3    0    3
 -2       908       817      5611       823
 -1     14162    3    0    3
 -2      3828      5054       586      4278
 -1     14163    3    0    3
 -2      5622      5625      3746      4269
 -1     14164    3    0    3
 -2      5616      3781      5619       545
 -1     14165    3    0    3
 -2      4453       627      3781       544
 -1     14166    3    0    3
 -2      3348      3347      3600      4204
 -1     14167    3    0    3
 -2      3509      5056      5621      3536
 -1     14168    3    0    3
 -2      4138      5540      5551      6487
 -1     14169    3    0    3
 -2      3759      3536      4981      3568
 -1     14170    3    0    3
 -2      5609      3715      5606      3845
 -1     14171    3    0    3
 -2       558      4228       616       537
 -1     14172    3    0    3
 -2      5761      1108      1087      6476
 -1     14173    3    0    3
 -2      5627      5624      3746      4269
 -1     14174    3    0    3
 -2      4088      5613      5615      4453
 -1     14175    3    0    3
 -2      6747       938      1164      5560
 -1     14176    3    0    3
 -2      4942      4940      3674      4227
 -1     14177    3    0    3
 -2      5047      1770      1708      1926
 -1     14178    3    0    3
 -2      4166       579      4192       496
 -1     14179    3    0    3
 -2      4134      5049      4166      5614
 -1     14180    3    0    3
 -2      4085      3476      5621      5618
 -1     14181    3    0    3
 -2      2465      5899      2703      5827
 -1     14182    3    0    3
 -2      3610      3854      3821      4945
 -1     14183    3    0    3
 -2      6673      2787      2807      6672
 -1     14184    3    0    3
 -2      4447      5556      4989      4502
 -1     14185    3    0    3
 -2      5622      5621      4418      3509
 -1     14186    3    0    3
 -2      4012       868      3607      5545
 -1     14187    3    0    3
 -2       649       897      5627       841
 -1     14188    3    0    3
 -2       897      5624      5627       841
 -1     14189    3    0    3
 -2      3841      4446      4238      5630
 -1     14190    3    0    3
 -2      5050      4981      3811      4431
 -1     14191    3    0    3
 -2      5683      4486      5566      6349
 -1     14192    3    0    3
 -2      2239      6593      6144      2428
 -1     14193    3    0    3
 -2      4364      5595      5596      6362
 -1     14194    3    0    3
 -2      3672      5532      4138      3635
 -1     14195    3    0    3
 -2      3759      4992      3509      4377
 -1     14196    3    0    3
 -2      1050      4418      6422      5624
 -1     14197    3    0    3
 -2      6145      5909      3797      1925
 -1     14198    3    0    3
 -2      1050      1161      5559      6378
 -1     14199    3    0    3
 -2      5635      3537      5636      4086
 -1     14200    3    0    3
 -2      5551      3542      5552      5673
 -1     14201    3    0    3
 -2      5631      5629      4356      3985
 -1     14202    3    0    3
 -2      5057      4025      4228      5060
 -1     14203    3    0    3
 -2      5323      3924      5314      3279
 -1     14204    3    0    3
 -2      5627      5625      3746      4146
 -1     14205    3    0    3
 -2      6023      2638      6025      2532
 -1     14206    3    0    3
 -2      5635      5632      3681       605
 -1     14207    3    0    3
 -2      5626      5628      4146      3575
 -1     14208    3    0    3
 -2      4325      3642      3450      5061
 -1     14209    3    0    3
 -2      5777      2344      2420      5778
 -1     14210    3    0    3
 -2      5617       638      3781      4134
 -1     14211    3    0    3
 -2      5044      4245       612      4217
 -1     14212    3    0    3
 -2      4245       500      4268       573
 -1     14213    3    0    3
 -2      3509      4054      5559      3536
 -1     14214    3    0    3
 -2      4025      3882      5622      4057
 -1     14215    3    0    3
 -2       636      3476       576      4085
 -1     14216    3    0    3
 -2      4098      3556      5508      5510
 -1     14217    3    0    3
 -2      5538      3419      3395       161
 -1     14218    3    0    3
 -2      3997      4025      5625      5060
 -1     14219    3    0    3
 -2      4057      5056      3509      5057
 -1     14220    3    0    3
 -2      4057      4228      3828      5057
 -1     14221    3    0    3
 -2      4900      4898      4478      6573
 -1     14222    3    0    3
 -2       851      1056       868      5538
 -1     14223    3    0    3
 -2      5463      3458      4899      3518
 -1     14224    3    0    3
 -2      1201      1297      1215      5793
 -1     14225    3    0    3
 -2      5624      4418      3746      5622
 -1     14226    3    0    3
 -2      4134      4166       627      5614
 -1     14227    3    0    3
 -2      4884      2384      2337      2468
 -1     14228    3    0    3
 -2       497      5049      4166      4134
 -1     14229    3    0    3
 -2       869      4300       868      5542
 -1     14230    3    0    3
 -2      4011      5045      4383      5043
 -1     14231    3    0    3
 -2      4088       530       579       529
 -1     14232    3    0    3
 -2       907       906      5547      3948
 -1     14233    3    0    3
 -2      3720      5530      4971      4966
 -1     14234    3    0    3
 -2      5051      2091      1814      2094
 -1     14235    3    0    3
 -2      5061      3775      3997      5060
 -1     14236    3    0    3
 -2      3874      4384      5536      4224
 -1     14237    3    0    3
 -2       785      3326       159      6223
 -1     14238    3    0    3
 -2      3667      3472      4978      3696
 -1     14239    3    0    3
 -2      3424      3407       153      5458
 -1     14240    3    0    3
 -2      2419      2344      2420      5777
 -1     14241    3    0    3
 -2       988      5612      4241      6445
 -1     14242    3    0    3
 -2      4973      3672      3445      4224
 -1     14243    3    0    3
 -2      3361      3362      3445      3334
 -1     14244    3    0    3
 -2       934      1056      5539      1215
 -1     14245    3    0    3
 -2      6041      3774      6068      4744
 -1     14246    3    0    3
 -2      3381      6223      3326      3913
 -1     14247    3    0    3
 -2      1056       934      5539       756
 -1     14248    3    0    3
 -2      3435      5534      3373      3468
 -1     14249    3    0    3
 -2      3368      3369      3340      3665
 -1     14250    3    0    3
 -2      2844      6724       372      5922
 -1     14251    3    0    3
 -2      5734      6765      1384      1454
 -1     14252    3    0    3
 -2      3635      3600      5549      4204
 -1     14253    3    0    3
 -2      2844      6724      5922      5014
 -1     14254    3    0    3
 -2       925      5516      1236       926
 -1     14255    3    0    3
 -2      4472      4955      3971      4957
 -1     14256    3    0    3
 -2      4051      3344      3384      3343
 -1     14257    3    0    3
 -2      1198      1338      1159      5551
 -1     14258    3    0    3
 -2      3686      3652      4762      5325
 -1     14259    3    0    3
 -2      3827      3859      3801      5305
 -1     14260    3    0    3
 -2       959       982       736      6550
 -1     14261    3    0    3
 -2      5521      3322      3770      3434
 -1     14262    3    0    3
 -2      5810      2616      5704      2554
 -1     14263    3    0    3
 -2      4515      3497      5000      5006
 -1     14264    3    0    3
 -2      3422      3321      4408      3433
 -1     14265    3    0    3
 -2      3339       165       843       765
 -1     14266    3    0    3
 -2      4182      3615      4948      4373
 -1     14267    3    0    3
 -2      1342      1490      1556      5558
 -1     14268    3    0    3
 -2      3874      3672      3737      5540
 -1     14269    3    0    3
 -2      3373      3737      3372      5537
 -1     14270    3    0    3
 -2        43      5623      5620       679
 -1     14271    3    0    3
 -2      5554      3457      5556      5818
 -1     14272    3    0    3
 -2      6404      5556      5555      6611
 -1     14273    3    0    3
 -2      3822      4958      4368      5831
 -1     14274    3    0    3
 -2      5521       168      3321       654
 -1     14275    3    0    3
 -2      4998      3499      5565      3469
 -1     14276    3    0    3
 -2       546      3471      3879       620
 -1     14277    3    0    3
 -2      1605      1630      1472      5555
 -1     14278    3    0    3
 -2      4961      4963      2151      5834
 -1     14279    3    0    3
 -2      1003      1375       867      5730
 -1     14280    3    0    3
 -2      5037      1675      1674      1693
 -1     14281    3    0    3
 -2      4403      5005      5004      4434
 -1     14282    3    0    3
 -2      4842      4841      3736      3520
 -1     14283    3    0    3
 -2       372      2827      2844      5922
 -1     14284    3    0    3
 -2      4375      4352      4403      5578
 -1     14285    3    0    3
 -2      1473      5571      1506      1334
 -1     14286    3    0    3
 -2      4434      5002      4465      5003
 -1     14287    3    0    3
 -2      1946      5828      5896      5015
 -1     14288    3    0    3
 -2       370      2800       369      1757
 -1     14289    3    0    3
 -2      2807      2787      2808      6672
 -1     14290    3    0    3
 -2      6341      2798      5366      2797
 -1     14291    3    0    3
 -2      3648      3573      3983      5649
 -1     14292    3    0    3
 -2       373      1838       374      2826
 -1     14293    3    0    3
 -2       707      5652      1670      1671
 -1     14294    3    0    3
 -2      5572      5578      4403      4352
 -1     14295    3    0    3
 -2      5820      2663      4950      2400
 -1     14296    3    0    3
 -2      1001      5601       666       667
 -1     14297    3    0    3
 -2       109      3983       110      1692
 -1     14298    3    0    3
 -2      4144      3573      5646      5649
 -1     14299    3    0    3
 -2      4235      4259      4062      5081
 -1     14300    3    0    3
 -2      4376      5033      4186      5668
 -1     14301    3    0    3
 -2      5594      5596      5765      5783
 -1     14302    3    0    3
 -2      3624      5652      4513      3838
 -1     14303    3    0    3
 -2      5639       973      5640      4326
 -1     14304    3    0    3
 -2      3946      5636      3537      5634
 -1     14305    3    0    3
 -2      3791      4177      5641      5638
 -1     14306    3    0    3
 -2      1132      6781      1156      5548
 -1     14307    3    0    3
 -2      5638      3776      5640      4326
 -1     14308    3    0    3
 -2      3742       987      5648      5693
 -1     14309    3    0    3
 -2       603       546      3879       620
 -1     14310    3    0    3
 -2      1584      1585      5588      5898
 -1     14311    3    0    3
 -2      4321      4398      5589      4349
 -1     14312    3    0    3
 -2      4832      2583      6214      5692
 -1     14313    3    0    3
 -2      2515      5009      5019      5912
 -1     14314    3    0    3
 -2       109      1673       108      3648
 -1     14315    3    0    3
 -2      5598      1098      1375      5730
 -1     14316    3    0    3
 -2      6103      6119      1337      5162
 -1     14317    3    0    3
 -2      5007      4428      5574      4483
 -1     14318    3    0    3
 -2      1391      1385      1144      5658
 -1     14319    3    0    3
 -2      5036      4240      5031      4214
 -1     14320    3    0    3
 -2       594      3705      5646      3679
 -1     14321    3    0    3
 -2       519      3681      4086       585
 -1     14322    3    0    3
 -2      5642      3735      3765      5077
 -1     14323    3    0    3
 -2      4186      5604      1676      5727
 -1     14324    3    0    3
 -2      3983       109       110      3573
 -1     14325    3    0    3
 -2        37       770      5635       605
 -1     14326    3    0    3
 -2       662      3033       705       240
 -1     14327    3    0    3
 -2      5649      4513      3983      5650
 -1     14328    3    0    3
 -2      5633      3537      4086      5634
 -1     14329    3    0    3
 -2      4417      5564      4474      4997
 -1     14330    3    0    3
 -2      3946      5637      4362      4326
 -1     14331    3    0    3
 -2      3482      4502      4994      4988
 -1     14332    3    0    3
 -2      5083      1786      1678      1679
 -1     14333    3    0    3
 -2      6404      5759      5562      6707
 -1     14334    3    0    3
 -2       110         1       800        31
 -1     14335    3    0    3
 -2      5703      4827      3825      6238
 -1     14336    3    0    3
 -2      5083      1786      1779      3507
 -1     14337    3    0    3
 -2       109       549       110      3573
 -1     14338    3    0    3
 -2      5604       807      6692      5656
 -1     14339    3    0    3
 -2      3983      5665       110      1692
 -1     14340    3    0    3
 -2      3463      5029      5028      4335
 -1     14341    3    0    3
 -2      4235      3679      5081      5084
 -1     14342    3    0    3
 -2      2811      1818       378      1833
 -1     14343    3    0    3
 -2       108       107      3679      3648
 -1     14344    3    0    3
 -2      1825      5078      5075       630
 -1     14345    3    0    3
 -2       110      3983      3573      5651
 -1     14346    3    0    3
 -2      5075      5078      3950       630
 -1     14347    3    0    3
 -2      3573      5646      5648      4144
 -1     14348    3    0    3
 -2      5083      1786      1679      1779
 -1     14349    3    0    3
 -2      4144      3742      5648      5693
 -1     14350    3    0    3
 -2      5701      5703      4826      6238
 -1     14351    3    0    3
 -2      4214      4261      5031      5033
 -1     14352    3    0    3
 -2      1685      5085      1682      3648
 -1     14353    3    0    3
 -2      3663      4222      4829      4020
 -1     14354    3    0    3
 -2      2372      2070      1955      6730
 -1     14355    3    0    3
 -2      5717      1824      6730      1955
 -1     14356    3    0    3
 -2      6702       283       284      1785
 -1     14357    3    0    3
 -2      4477      5587      5585      5799
 -1     14358    3    0    3
 -2      1673      3983      5650      3648
 -1     14359    3    0    3
 -2      1675      1676      1684      5037
 -1     14360    3    0    3
 -2      5033      4376      4186      4004
 -1     14361    3    0    3
 -2      1824      3507      1779      1786
 -1     14362    3    0    3
 -2      5037      4186      1676      5727
 -1     14363    3    0    3
 -2      1786      1785      3507      6702
 -1     14364    3    0    3
 -2      2853      5930      2857      4803
 -1     14365    3    0    3
 -2      3507      5083      1678      4376
 -1     14366    3    0    3
 -2      1709        13      1710       287
 -1     14367    3    0    3
 -2      2076      1782      4035      1783
 -1     14368    3    0    3
 -2      4335      4170      5073      4362
 -1     14369    3    0    3
 -2      4004      5085      4186      4211
 -1     14370    3    0    3
 -2      2100      2095      2372      5725
 -1     14371    3    0    3
 -2       786      1009       902      6694
 -1     14372    3    0    3
 -2      4344      3866      5410      3830
 -1     14373    3    0    3
 -2      1325      1384      1102      5783
 -1     14374    3    0    3
 -2      5590      1200      1311      5695
 -1     14375    3    0    3
 -2      2239      6593      2428      2286
 -1     14376    3    0    3
 -2      2087      5079      1930      1822
 -1     14377    3    0    3
 -2      1689      1691      1677      5604
 -1     14378    3    0    3
 -2      4186      3838      5604      5662
 -1     14379    3    0    3
 -2      5033      3507      4004      2069
 -1     14380    3    0    3
 -2      3776      5639      5640      4326
 -1     14381    3    0    3
 -2        34      5640       781       593
 -1     14382    3    0    3
 -2      2535      2536      4989      4988
 -1     14383    3    0    3
 -2      5033      4235      4261      5032
 -1     14384    3    0    3
 -2      5739      5033      5677      6730
 -1     14385    3    0    3
 -2        34      5640       596       782
 -1     14386    3    0    3
 -2      5069      4068      3523      5072
 -1     14387    3    0    3
 -2      1505      1584      1598      6619
 -1     14388    3    0    3
 -2      5068      3666      5066      4223
 -1     14389    3    0    3
 -2      2164      3880      2093      2165
 -1     14390    3    0    3
 -2      5556      4447      4989      4477
 -1     14391    3    0    3
 -2      1102      1325      5783      6362
 -1     14392    3    0    3
 -2      2752      3825      2734      2760
 -1     14393    3    0    3
 -2      1931      5074      4113      2011
 -1     14394    3    0    3
 -2      3983      1673       109      3648
 -1     14395    3    0    3
 -2      5027      2607      2345      2369
 -1     14396    3    0    3
 -2       938      4146      5560      4516
 -1     14397    3    0    3
 -2      4991      3510      3542      4990
 -1     14398    3    0    3
 -2      5069      3666      3878      5068
 -1     14399    3    0    3
 -2      4414      5596      4050      5666
 -1     14400    3    0    3
 -2      5634      3537      4388      4413
 -1     14401    3    0    3
 -2      4235      4261      5600      5033
 -1     14402    3    0    3
 -2      1987      2242      4997      5763
 -1     14403    3    0    3
 -2      1955      2070      1824      6730
 -1     14404    3    0    3
 -2      3735      3879      5642       620
 -1     14405    3    0    3
 -2      5652       258      1692      1671
 -1     14406    3    0    3
 -2      3463      5076      5074      4113
 -1     14407    3    0    3
 -2      5564      5595      4388      4417
 -1     14408    3    0    3
 -2      5617       638      4108      4181
 -1     14409    3    0    3
 -2      4313      4113      4289      5077
 -1     14410    3    0    3
 -2      5752      2261      2065      6754
 -1     14411    3    0    3
 -2      2241      5769      5795      4992
 -1     14412    3    0    3
 -2      4006      5073      3463      5071
 -1     14413    3    0    3
 -2      5073      5638      4362      3816
 -1     14414    3    0    3
 -2      3791      5076      5641      3765
 -1     14415    3    0    3
 -2       589      3791      4177       590
 -1     14416    3    0    3
 -2      5076      3791      5073      4006
 -1     14417    3    0    3
 -2      5067      1990      5066      4223
 -1     14418    3    0    3
 -2      4316      5596      5594      4364
 -1     14419    3    0    3
 -2      3450      4499      3642      4993
 -1     14420    3    0    3
 -2      3537      5635      5633      4086
 -1     14421    3    0    3
 -2      3681      5633      5635      4086
 -1     14422    3    0    3
 -2      4803      2853      1790      5929
 -1     14423    3    0    3
 -2      5068      5069      3666      4223
 -1     14424    3    0    3
 -2      2394      2548      4963      4986
 -1     14425    3    0    3
 -2      5652       258      1671       809
 -1     14426    3    0    3
 -2      4335      4050      5641      4313
 -1     14427    3    0    3
 -2       577      4266       603      3879
 -1     14428    3    0    3
 -2      2239      6593      2286      6139
 -1     14429    3    0    3
 -2      4313      5596      5029      4335
 -1     14430    3    0    3
 -2      2164      3880      2165      5778
 -1     14431    3    0    3
 -2      5640      3643      4177      5638
 -1     14432    3    0    3
 -2      5640      3776      4177       596
 -1     14433    3    0    3
 -2      5839       765      6547      5549
 -1     14434    3    0    3
 -2      4516      5631      5628      3985
 -1     14435    3    0    3
 -2      3374      4948      4947      4373
 -1     14436    3    0    3
 -2      4431      3598      4981      3811
 -1     14437    3    0    3
 -2      3759      3509      5056      4377
 -1     14438    3    0    3
 -2      4418      5623      5621      3882
 -1     14439    3    0    3
 -2      4828      4827      3876      1811
 -1     14440    3    0    3
 -2      5628      4146      4516      5626
 -1     14441    3    0    3
 -2      3509      5621      4054      3536
 -1     14442    3    0    3
 -2      5536      5539      3874      3468
 -1     14443    3    0    3
 -2      1324      1339      1211      5550
 -1     14444    3    0    3
 -2      2420      2395      2419      5777
 -1     14445    3    0    3
 -2      5534      3672      3874      4224
 -1     14446    3    0    3
 -2      1750       338      3346      5813
 -1     14447    3    0    3
 -2      3777      3355      3380      3405
 -1     14448    3    0    3
 -2      5615       906      3948      6445
 -1     14449    3    0    3
 -2      2051      1975      2282      5809
 -1     14450    3    0    3
 -2      4025      3882      4269      5622
 -1     14451    3    0    3
 -2      5548      5559      3536      3571
 -1     14452    3    0    3
 -2      1321      1504      1320      6767
 -1     14453    3    0    3
 -2      2617      4989      2618      2536
 -1     14454    3    0    3
 -2      4170      5070      3523      5763
 -1     14455    3    0    3
 -2      1770      5050      2094      1926
 -1     14456    3    0    3
 -2      3631      4981      5548      3598
 -1     14457    3    0    3
 -2      4377      4992      2040      5801
 -1     14458    3    0    3
 -2      3546      4290      5141      6541
 -1     14459    3    0    3
 -2      3540      5613      5610      3659
 -1     14460    3    0    3
 -2      5563      1212      6409      6326
 -1     14461    3    0    3
 -2      5557      3602      3542      4990
 -1     14462    3    0    3
 -2       690      3665      6018      3368
 -1     14463    3    0    3
 -2      2425      2426      2141      4984
 -1     14464    3    0    3
 -2      3381      5530      4300      3751
 -1     14465    3    0    3
 -2      4974      1860      3345      5791
 -1     14466    3    0    3
 -2      4981      2094      5051      5050
 -1     14467    3    0    3
 -2      5615        46       775       776
 -1     14468    3    0    3
 -2      3631      3571      4981      4979
 -1     14469    3    0    3
 -2      5047      3952      5046       495
 -1     14470    3    0    3
 -2      3466      3659      4977      3691
 -1     14471    3    0    3
 -2      1752      5046      1708      2012
 -1     14472    3    0    3
 -2      3466      3873      5045      5043
 -1     14473    3    0    3
 -2      3811      3598      3631      4980
 -1     14474    3    0    3
 -2      6152      2289      6588      2216
 -1     14475    3    0    3
 -2       600      4011       557      4383
 -1     14476    3    0    3
 -2      6138      1918      2484      6492
 -1     14477    3    0    3
 -2      5046      3952      5048      4383
 -1     14478    3    0    3
 -2      1052      3646      5619      5796
 -1     14479    3    0    3
 -2      3546      4290      6541      5131
 -1     14480    3    0    3
 -2      3845      5543      4517      6383
 -1     14481    3    0    3
 -2       579      4166      4192      5613
 -1     14482    3    0    3
 -2      3845      4517      5608      6383
 -1     14483    3    0    3
 -2      5780      3798      3549      4963
 -1     14484    3    0    3
 -2      5044      4011      5045      4217
 -1     14485    3    0    3
 -2      4970      4978      3880      3472
 -1     14486    3    0    3
 -2      3598      3631      4981      3811
 -1     14487    3    0    3
 -2      3691      5609      3715      5044
 -1     14488    3    0    3
 -2      5042      4011      3466      5044
 -1     14489    3    0    3
 -2      5615       907       906       775
 -1     14490    3    0    3
 -2      5042      3466      3935      5044
 -1     14491    3    0    3
 -2      4245       502       500       612
 -1     14492    3    0    3
 -2      5622      5625      4025      3479
 -1     14493    3    0    3
 -2      4825      6211      6216      6662
 -1     14494    3    0    3
 -2      1814      5050      1770        84
 -1     14495    3    0    3
 -2      4453       627      4166      5614
 -1     14496    3    0    3
 -2       907       775      5616       738
 -1     14497    3    0    3
 -2      6091      1076      5442      1266
 -1     14498    3    0    3
 -2       575      5069      4068      3666
 -1     14499    3    0    3
 -2      5634      5633      3537      4413
 -1     14500    3    0    3
 -2       485      5868      3340      6761
 -1     14501    3    0    3
 -2      5049      5048      4485      3952
 -1     14502    3    0    3
 -2      5047      1708      2012      1926
 -1     14503    3    0    3
 -2      2419      2395      2142      5792
 -1     14504    3    0    3
 -2      1770      5050      5047       565
 -1     14505    3    0    3
 -2      3884      4419      5503      5504
 -1     14506    3    0    3
 -2      2154      5792      4981      6722
 -1     14507    3    0    3
 -2      5559      4992      3479      3509
 -1     14508    3    0    3
 -2      6404      3482      5768      5555
 -1     14509    3    0    3
 -2      5050      1814      1770      2094
 -1     14510    3    0    3
 -2      5536      4972      3667      3696
 -1     14511    3    0    3
 -2      2083      3528      4975      1928
 -1     14512    3    0    3
 -2      4972      4224      5536      3667
 -1     14513    3    0    3
 -2      3345       339      3320      5791
 -1     14514    3    0    3
 -2      1782       385      4280      2731
 -1     14515    3    0    3
 -2      5536      4012      5535      3696
 -1     14516    3    0    3
 -2      5540      4973      3635      3602
 -1     14517    3    0    3
 -2      3458      6244      6235      5463
 -1     14518    3    0    3
 -2      4994      2666      2382      2339
 -1     14519    3    0    3
 -2      5546      5548      5766      6781
 -1     14520    3    0    3
 -2      2012      5770      5047      1926
 -1     14521    3    0    3
 -2      3768      1998      4885      6589
 -1     14522    3    0    3
 -2      4838      2462      4837      6080
 -1     14523    3    0    3
 -2      2765      4262      4841      2741
 -1     14524    3    0    3
 -2      6222      2314      2482      4880
 -1     14525    3    0    3
 -2       392       393      2756      1809
 -1     14526    3    0    3
 -2      1795      2083      3998      5788
 -1     14527    3    0    3
 -2      4969      1927      1717      1727
 -1     14528    3    0    3
 -2      4984      3602      4973      6758
 -1     14529    3    0    3
 -2      3880      4970      3472      4972
 -1     14530    3    0    3
 -2      5529      1330      1331      1489
 -1     14531    3    0    3
 -2      3642      3450      4993      4325
 -1     14532    3    0    3
 -2      4990      2521      2432      2425
 -1     14533    3    0    3
 -2      5744      4995      5026      5746
 -1     14534    3    0    3
 -2      3575      3969      3997      5626
 -1     14535    3    0    3
 -2      1602      1503      1269      5759
 -1     14536    3    0    3
 -2       584       504       606      4117
 -1     14537    3    0    3
 -2      1974      2283      4996      5767
 -1     14538    3    0    3
 -2      6530      3143      6646       479
 -1     14539    3    0    3
 -2       536       540       635      3969
 -1     14540    3    0    3
 -2      3575      3969      5626      3985
 -1     14541    3    0    3
 -2      4499      5629      5064      4473
 -1     14542    3    0    3
 -2      4388      3523      4362      5072
 -1     14543    3    0    3
 -2      5067      1987      1990      4223
 -1     14544    3    0    3
 -2      6530      3143       480      6638
 -1     14545    3    0    3
 -2      2462      5696      2463      2458
 -1     14546    3    0    3
 -2      4991      3453      4994      3482
 -1     14547    3    0    3
 -2      4986      2397      4983      5780
 -1     14548    3    0    3
 -2      4906      2779      2728      5469
 -1     14549    3    0    3
 -2      4293      5917      5749      5030
 -1     14550    3    0    3
 -2      4991      2430      2388      5678
 -1     14551    3    0    3
 -2      5556      6404      5555      4502
 -1     14552    3    0    3
 -2      2430      2291      2388      5678
 -1     14553    3    0    3
 -2      2717      2713      2707      5653
 -1     14554    3    0    3
 -2      2310      5735      2603      2345
 -1     14555    3    0    3
 -2      5811      2119      4984      2141
 -1     14556    3    0    3
 -2      2465      2551      5010      5827
 -1     14557    3    0    3
 -2      6477      1752      5046      5043
 -1     14558    3    0    3
 -2      3431      3369      5511      3665
 -1     14559    3    0    3
 -2      5048      3626      5049      4485
 -1     14560    3    0    3
 -2      5043      3873      5046      6477
 -1     14561    3    0    3
 -2      4974      3355      3777      3998
 -1     14562    3    0    3
 -2      4904      4370      4902      4424
 -1     14563    3    0    3
 -2      5050      4134       566      5052
 -1     14564    3    0    3
 -2      4245      4442      5044       612
 -1     14565    3    0    3
 -2      5039       503      5038      1794
 -1     14566    3    0    3
 -2       527      5042      4011      5043
 -1     14567    3    0    3
 -2       610      3958      4921      4169
 -1     14568    3    0    3
 -2       610      4387       582       550
 -1     14569    3    0    3
 -2      5451      4307      5452      3379
 -1     14570    3    0    3
 -2      3705      3735      5645      5080
 -1     14571    3    0    3
 -2      2394      2650      2548      4986
 -1     14572    3    0    3
 -2      2430      4991      2388      2570
 -1     14573    3    0    3
 -2      5073      4362      4170      5072
 -1     14574    3    0    3
 -2      1375      5656      5730       927
 -1     14575    3    0    3
 -2      4054      5621      3476      5618
 -1     14576    3    0    3
 -2      1987      4997      4223      5763
 -1     14577    3    0    3
 -2      2277      5031      2372      5725
 -1     14578    3    0    3
 -2      5642      3879      3471       620
 -1     14579    3    0    3
 -2      1675      6773      1694      1693
 -1     14580    3    0    3
 -2      1823      5823      2868      6682
 -1     14581    3    0    3
 -2      4323      4375      5580      5578
 -1     14582    3    0    3
 -2      1824      1785      3507      1786
 -1     14583    3    0    3
 -2      3636      3729      4880      3699
 -1     14584    3    0    3
 -2      5082      2087      5079      6688
 -1     14585    3    0    3
 -2      4289      4113      4484      5077
 -1     14586    3    0    3
 -2      5075      5078      1931      5709
 -1     14587    3    0    3
 -2      5850      5897      1986      1991
 -1     14588    3    0    3
 -2      5850      5897      1991      5017
 -1     14589    3    0    3
 -2      2386      2189      2387      5680
 -1     14590    3    0    3
 -2      1930      4062      5078      5079
 -1     14591    3    0    3
 -2      1111      1324      1211      5550
 -1     14592    3    0    3
 -2      3481      3679      3705       574
 -1     14593    3    0    3
 -2      5078      4062      4484      5080
 -1     14594    3    0    3
 -2      4447      6619      5743      5593
 -1     14595    3    0    3
 -2      5803      2274      6696      5025
 -1     14596    3    0    3
 -2      5030      2310      2603      2380
 -1     14597    3    0    3
 -2      4369      5589      5591      4321
 -1     14598    3    0    3
 -2       639      5271      5270      2999
 -1     14599    3    0    3
 -2      4422      5021      4393      5020
 -1     14600    3    0    3
 -2      4962      4961      3522      3555
 -1     14601    3    0    3
 -2      4447      6619      5587      5743
 -1     14602    3    0    3
 -2      4006      3816       591      3791
 -1     14603    3    0    3
 -2      5739      5036      5713      6774
 -1     14604    3    0    3
 -2      6340      2175      4800      2406
 -1     14605    3    0    3
 -2       730      4420      5422      5429
 -1     14606    3    0    3
 -2      5003      4378      5005      5828
 -1     14607    3    0    3
 -2      6341      2798      2796      6333
 -1     14608    3    0    3
 -2      6672       651      6673      6794
 -1     14609    3    0    3
 -2      3901       553      4334       552
 -1     14610    3    0    3
 -2      1182      1273      1274      5578
 -1     14611    3    0    3
 -2      5802      2054      5034      5914
 -1     14612    3    0    3
 -2      2335      2166      5011      2236
 -1     14613    3    0    3
 -2      2249      2369      2261      5745
 -1     14614    3    0    3
 -2      1169      1178      1378      5765
 -1     14615    3    0    3
 -2      3457      5556      4989      4477
 -1     14616    3    0    3
 -2      4267      5592      5590      4321
 -1     14617    3    0    3
 -2      2653      2703      5007      5827
 -1     14618    3    0    3
 -2      5567      1492      5565      3526
 -1     14619    3    0    3
 -2      2392      5004      2589      2391
 -1     14620    3    0    3
 -2      2466      2391      5004      5832
 -1     14621    3    0    3
 -2      4378      5582      5572      4352
 -1     14622    3    0    3
 -2      2563      2562      2555      5900
 -1     14623    3    0    3
 -2      2818      5812      6673      5772
 -1     14624    3    0    3
 -2      1181       873       874      6346
 -1     14625    3    0    3
 -2      5014      5922      5015      6724
 -1     14626    3    0    3
 -2      4378      5015      5582      4352
 -1     14627    3    0    3
 -2      1977      4735      2301      6047
 -1     14628    3    0    3
 -2      4403      4375      5010      5011
 -1     14629    3    0    3
 -2      5574      1642      5854      6661
 -1     14630    3    0    3
 -2      5530      3395      3396      5531
 -1     14631    3    0    3
 -2      3534      5972      6004      4791
 -1     14632    3    0    3
 -2      4993      2282      2291      5678
 -1     14633    3    0    3
 -2      3751      5530      3720      4966
 -1     14634    3    0    3
 -2      3472      4969      3939      4971
 -1     14635    3    0    3
 -2      3871      5523      4175      3611
 -1     14636    3    0    3
 -2      5532      3672      4138      3737
 -1     14637    3    0    3
 -2      4180      5519      4291      3614
 -1     14638    3    0    3
 -2      2491      6801      2490      2492
 -1     14639    3    0    3
 -2      4198      3630      5512      3615
 -1     14640    3    0    3
 -2      2219      4739      2440      2439
 -1     14641    3    0    3
 -2      6031      1716      2047      6032
 -1     14642    3    0    3
 -2      4156      4716      5280      4121
 -1     14643    3    0    3
 -2      4981      3571      4992      5795
 -1     14644    3    0    3
 -2      2420      2425      2164      5778
 -1     14645    3    0    3
 -2      4493      4982      3822      3638
 -1     14646    3    0    3
 -2      5516      5526      3555      5655
 -1     14647    3    0    3
 -2      4150      4957      4180      4956
 -1     14648    3    0    3
 -2      5557      3510      5558      6410
 -1     14649    3    0    3
 -2      1431      6775      5567      1529
 -1     14650    3    0    3
 -2      4988      3482      3516      4985
 -1     14651    3    0    3
 -2      5000      3526      5567      3469
 -1     14652    3    0    3
 -2      5555      1471      1605      6408
 -1     14653    3    0    3
 -2      4398      4428      5579      5012
 -1     14654    3    0    3
 -2      1506      5689      1418      1335
 -1     14655    3    0    3
 -2      2616      2554      2589      5704
 -1     14656    3    0    3
 -2      3042      1755       409      6650
 -1     14657    3    0    3
 -2      3725      5324      3711      4275
 -1     14658    3    0    3
 -2      2822      1758      5014      5755
 -1     14659    3    0    3
 -2      5517      1252      5527      1431
 -1     14660    3    0    3
 -2      5334      1493      6308      6248
 -1     14661    3    0    3
 -2      5334      1493      6248      1360
 -1     14662    3    0    3
 -2      2562      4998      2563      2663
 -1     14663    3    0    3
 -2      3555      5517      3497      4952
 -1     14664    3    0    3
 -2      2755       384      4905      1767
 -1     14665    3    0    3
 -2      3770      3331      3322      3330
 -1     14666    3    0    3
 -2      5529      3460      4964      3522
 -1     14667    3    0    3
 -2      4963      3488      4964      3522
 -1     14668    3    0    3
 -2      3597      5526      5528      3580
 -1     14669    3    0    3
 -2      1324      1111      1364      5804
 -1     14670    3    0    3
 -2      4997      5744      2242      6733
 -1     14671    3    0    3
 -2      4961      1993      2199      2151
 -1     14672    3    0    3
 -2      1472      1471      1605      5555
 -1     14673    3    0    3
 -2      5685      4850      4059      6185
 -1     14674    3    0    3
 -2      5075      4484      5078      5709
 -1     14675    3    0    3
 -2      5586      1487      1486      1488
 -1     14676    3    0    3
 -2      1921      2228      1940      5682
 -1     14677    3    0    3
 -2      5533      5532      4138      3737
 -1     14678    3    0    3
 -2      4127      2751      4909      4907
 -1     14679    3    0    3
 -2      2767      4909      2751      2737
 -1     14680    3    0    3
 -2      2535      2492      2536      4988
 -1     14681    3    0    3
 -2      1669      5799      5556      5818
 -1     14682    3    0    3
 -2      3752      4913      4914      4273
 -1     14683    3    0    3
 -2      3445      4968      4967      3334
 -1     14684    3    0    3
 -2      1718      3528      2083      1928
 -1     14685    3    0    3
 -2      3422       736      5524      4408
 -1     14686    3    0    3
 -2      1968      4912      3530      4911
 -1     14687    3    0    3
 -2      1968      4912      4911      1861
 -1     14688    3    0    3
 -2      1792      3445      2001      4967
 -1     14689    3    0    3
 -2      3956      4752      4757      2088
 -1     14690    3    0    3
 -2      4265      4039      3814      3359
 -1     14691    3    0    3
 -2      3647      3340      3431      3665
 -1     14692    3    0    3
 -2      4328      5617      5614      3598
 -1     14693    3    0    3
 -2      3460      5527      4962      3522
 -1     14694    3    0    3
 -2      4182      5512      4198      5511
 -1     14695    3    0    3
 -2       785       159       784      6223
 -1     14696    3    0    3
 -2       902      6624      5753       903
 -1     14697    3    0    3
 -2      1455      6506      6554      1310
 -1     14698    3    0    3
 -2      2165      4978      4970      1927
 -1     14699    3    0    3
 -2      5843      5883      5822      3863
 -1     14700    3    0    3
 -2      4224      4973      3672      5540
 -1     14701    3    0    3
 -2      2141      2001      2164      5811
 -1     14702    3    0    3
 -2      2094      2142      1926      5770
 -1     14703    3    0    3
 -2      5533       163       755       763
 -1     14704    3    0    3
 -2      5557      3571      3602      4990
 -1     14705    3    0    3
 -2      4300      5542      3777      3751
 -1     14706    3    0    3
 -2      2119      1888      1792      4967
 -1     14707    3    0    3
 -2      5359      6375      1448      6321
 -1     14708    3    0    3
 -2      3672      4973      3445      3635
 -1     14709    3    0    3
 -2      5557      3510      3571      4990
 -1     14710    3    0    3
 -2      5923      4406      5014      4378
 -1     14711    3    0    3
 -2       105        66       521      1861
 -1     14712    3    0    3
 -2      5512      3630      5520      5518
 -1     14713    3    0    3
 -2      5990       681      5998      1012
 -1     14714    3    0    3
 -2      5831      4958      4368      5873
 -1     14715    3    0    3
 -2      3522      5527      4962      3555
 -1     14716    3    0    3
 -2      5810      2616      5002      5704
 -1     14717    3    0    3
 -2      5553      3516      3549      4986
 -1     14718    3    0    3
 -2      3549      5525      5550      5804
 -1     14719    3    0    3
 -2      2785      5756      2854      2813
 -1     14720    3    0    3
 -2      3331      5512      5518      4948
 -1     14721    3    0    3
 -2      4175      5523      4408      3433
 -1     14722    3    0    3
 -2      5567      5517      3497      6653
 -1     14723    3    0    3
 -2      4373      3374      3415      3863
 -1     14724    3    0    3
 -2      4036      2079      4560      6174
 -1     14725    3    0    3
 -2      5567      3497      4515      5573
 -1     14726    3    0    3
 -2      1195      1230      5570      6331
 -1     14727    3    0    3
 -2      2556      2616      2595      5705
 -1     14728    3    0    3
 -2      2793      5601       666      5779
 -1     14729    3    0    3
 -2      5910      4369      5021      5719
 -1     14730    3    0    3
 -2      5778      5795      5777      2344
 -1     14731    3    0    3
 -2      2589      2391      5004      2466
 -1     14732    3    0    3
 -2      5685      4059      4847      6257
 -1     14733    3    0    3
 -2      5572      5570      4378      4434
 -1     14734    3    0    3
 -2      4837      2685      4835      6080
 -1     14735    3    0    3
 -2       997      5977       911       771
 -1     14736    3    0    3
 -2      5408      1064      3920      5789
 -1     14737    3    0    3
 -2      5577      4428      4460      5010
 -1     14738    3    0    3
 -2      5648       650       549       800
 -1     14739    3    0    3
 -2      4634      3183      3702      3158
 -1     14740    3    0    3
 -2      2768      5391      2777      2774
 -1     14741    3    0    3
 -2      1002       665       666      5779
 -1     14742    3    0    3
 -2      2709      5007      2703      5899
 -1     14743    3    0    3
 -2       747       902      5602       786
 -1     14744    3    0    3
 -2      3838      4513      5600      4186
 -1     14745    3    0    3
 -2      5852      1468      5579      1450
 -1     14746    3    0    3
 -2      6346      1181       873      6639
 -1     14747    3    0    3
 -2      5585      5018      4506      4454
 -1     14748    3    0    3
 -2      4987      5018      4477      5907
 -1     14749    3    0    3
 -2      6346      5754      4323      6639
 -1     14750    3    0    3
 -2      5900      2556      4999      5001
 -1     14751    3    0    3
 -2      6672      5891      5583      6794
 -1     14752    3    0    3
 -2      2523      5958      2544      4777
 -1     14753    3    0    3
 -2      4369      5588      5586      4422
 -1     14754    3    0    3
 -2      2778      4907      4908      1805
 -1     14755    3    0    3
 -2      5666      5596      1178      5765
 -1     14756    3    0    3
 -2      5018      4506      4987      4477
 -1     14757    3    0    3
 -2      1548      1506      1641      6368
 -1     14758    3    0    3
 -2      4797      2639      2506      6015
 -1     14759    3    0    3
 -2      2122      4035      1905      1783
 -1     14760    3    0    3
 -2      5756      5017      4323      5926
 -1     14761    3    0    3
 -2      2616      5773      5002      5704
 -1     14762    3    0    3
 -2      2616      5773      2392      2358
 -1     14763    3    0    3
 -2      5889      1473      5577      1274
 -1     14764    3    0    3
 -2       275       652      2808      6671
 -1     14765    3    0    3
 -2      1838      5896      2049      5901
 -1     14766    3    0    3
 -2      5732      5722      5035      6797
 -1     14767    3    0    3
 -2      5884      2090      2097      5934
 -1     14768    3    0    3
 -2      3648      3573      5649      3679
 -1     14769    3    0    3
 -2      5829      1182      5578      6639
 -1     14770    3    0    3
 -2      4378      5014      5015      5828
 -1     14771    3    0    3
 -2      2877      2866      5015      5812
 -1     14772    3    0    3
 -2      1991      1992      1820      5017
 -1     14773    3    0    3
 -2      2876      2866      2869      5812
 -1     14774    3    0    3
 -2       493      1879        98      1772
 -1     14775    3    0    3
 -2      2068      1737      1740      5892
 -1     14776    3    0    3
 -2      5011      4323      4375      5013
 -1     14777    3    0    3
 -2      2879      5936      5364      6345
 -1     14778    3    0    3
 -2      5755      2090      2024      5933
 -1     14779    3    0    3
 -2      6777      4441      5930      5366
 -1     14780    3    0    3
 -2      1232      5449      1227      6290
 -1     14781    3    0    3
 -2      4406      6637      5581      6331
 -1     14782    3    0    3
 -2      5697      4777      4779      5970
 -1     14783    3    0    3
 -2      4801      5936      2845      6345
 -1     14784    3    0    3
 -2      1714      1713      2010      5949
 -1     14785    3    0    3
 -2      2168      2442      2147      5885
 -1     14786    3    0    3
 -2      2322      2243      2170      5915
 -1     14787    3    0    3
 -2      2596      4758      2326      2327
 -1     14788    3    0    3
 -2      5770      5047      5050      3811
 -1     14789    3    0    3
 -2      4385       716      5246      5247
 -1     14790    3    0    3
 -2      4385       716      3710      3002
 -1     14791    3    0    3
 -2      4761      2214      2047      2088
 -1     14792    3    0    3
 -2      2789      1883      1827       362
 -1     14793    3    0    3
 -2      6161      6099      4853      6229
 -1     14794    3    0    3
 -2      4779      2541      5697      5970
 -1     14795    3    0    3
 -2      2288      5945      2163      6253
 -1     14796    3    0    3
 -2      2329      6100      6110      4768
 -1     14797    3    0    3
 -2      4913      4911      3530      4079
 -1     14798    3    0    3
 -2      4911      4913      4498      4079
 -1     14799    3    0    3
 -2      4798      2148      2445      2435
 -1     14800    3    0    3
 -2      2075      4757      4752      2088
 -1     14801    3    0    3
 -2      2288      1966      5945      5865
 -1     14802    3    0    3
 -2      3999      4913      4498      4911
 -1     14803    3    0    3
 -2      2206      2007      2006      5826
 -1     14804    3    0    3
 -2      5516      3630      5526       926
 -1     14805    3    0    3
 -2      4762      3652      4761      6026
 -1     14806    3    0    3
 -2      4915      4445      3940      4912
 -1     14807    3    0    3
 -2      4116      3800      4753      3582
 -1     14808    3    0    3
 -2      5676      4849      4851      6709
 -1     14809    3    0    3
 -2      3580      5526      5528      3522
 -1     14810    3    0    3
 -2      6169      6583      6173      4712
 -1     14811    3    0    3
 -2      3661      5965      3695      4774
 -1     14812    3    0    3
 -2      4498        67        66      4079
 -1     14813    3    0    3
 -2      4498        66      4911      4079
 -1     14814    3    0    3
 -2      1433      1648      1535      6360
 -1     14815    3    0    3
 -2      2990      1768      4685      4684
 -1     14816    3    0    3
 -2      2559      4786      2705      5996
 -1     14817    3    0    3
 -2      6380       759      6371      3234
 -1     14818    3    0    3
 -2      4060      6008      5378      6006
 -1     14819    3    0    3
 -2      3288      4263      3246      3287
 -1     14820    3    0    3
 -2      5358      3499      3559      4795
 -1     14821    3    0    3
 -2      2533      4795      2534      2582
 -1     14822    3    0    3
 -2      4989      2617      4995      5764
 -1     14823    3    0    3
 -2      5311       928      5729      6390
 -1     14824    3    0    3
 -2      2621      4775      4746      6357
 -1     14825    3    0    3
 -2      1134      1112       881      6388
 -1     14826    3    0    3
 -2       283      5718       282      1865
 -1     14827    3    0    3
 -2      3330      5513       170       653
 -1     14828    3    0    3
 -2      1886      4750      4751      1739
 -1     14829    3    0    3
 -2      3376       172      3368      6532
 -1     14830    3    0    3
 -2      3718      5310      4115      5311
 -1     14831    3    0    3
 -2      3592      3678      4741      3889
 -1     14832    3    0    3
 -2      1236      5517      1229      1253
 -1     14833    3    0    3
 -2      4787      4758      3656      6038
 -1     14834    3    0    3
 -2      4956      4948      3615      3826
 -1     14835    3    0    3
 -2      2294      2006      2039      5879
 -1     14836    3    0    3
 -2      3365      3332      3369      5511
 -1     14837    3    0    3
 -2      4756      4755      3714      3744
 -1     14838    3    0    3
 -2       301      4729       300      1787
 -1     14839    3    0    3
 -2      3592      3276      3201      3199
 -1     14840    3    0    3
 -2      1826      3502      4747      3168
 -1     14841    3    0    3
 -2      5316      4308      3924      5313
 -1     14842    3    0    3
 -2      4753      4116      4754      4319
 -1     14843    3    0    3
 -2      4754      4487      4752      4116
 -1     14844    3    0    3
 -2      4116      3189      4754      4319
 -1     14845    3    0    3
 -2      4719      4728      4246      6098
 -1     14846    3    0    3
 -2      3201      3276      4456      3204
 -1     14847    3    0    3
 -2      6116      1988      1937      1896
 -1     14848    3    0    3
 -2      1739      3992      4751      2074
 -1     14849    3    0    3
 -2      4754      3279      5314      4319
 -1     14850    3    0    3
 -2      4727      3689      4724      4361
 -1     14851    3    0    3
 -2      4754      3246      3189      4760
 -1     14852    3    0    3
 -2      5318      3788      5320      1180
 -1     14853    3    0    3
 -2      1020      6319       723      5364
 -1     14854    3    0    3
 -2      5206      5205      3494      4072
 -1     14855    3    0    3
 -2      4747      1826      3168       298
 -1     14856    3    0    3
 -2      3718       740      3886      3163
 -1     14857    3    0    3
 -2      5278       701      6051      6419
 -1     14858    3    0    3
 -2      4116      4750      3254      3582
 -1     14859    3    0    3
 -2      3206      3181      4348      3198
 -1     14860    3    0    3
 -2      3949      4163      4730      3766
 -1     14861    3    0    3
 -2      1942      1788      1941      6046
 -1     14862    3    0    3
 -2      1852      6187      2021      4677
 -1     14863    3    0    3
 -2      4747      1951      1826      1793
 -1     14864    3    0    3
 -2      5197      3487      3895      6155
 -1     14865    3    0    3
 -2      4803      4802      5928      5948
 -1     14866    3    0    3
 -2      4760      3956      4759      4752
 -1     14867    3    0    3
 -2       292       483        14      1862
 -1     14868    3    0    3
 -2      3201      3200      3592      3199
 -1     14869    3    0    3
 -2      3571      5769      5795      4990
 -1     14870    3    0    3
 -2      3502      3167      3169      3168
 -1     14871    3    0    3
 -2      3689      4727      4726      4361
 -1     14872    3    0    3
 -2      5565      1521      1522      6320
 -1     14873    3    0    3
 -2      4729      4730      4163      3766
 -1     14874    3    0    3
 -2      3445       344      1792      1876
 -1     14875    3    0    3
 -2      1893      4720      1699       304
 -1     14876    3    0    3
 -2      6092      5440      3641      6093
 -1     14877    3    0    3
 -2      2067      4728      4163      5872
 -1     14878    3    0    3
 -2       297      3502      3168      3167
 -1     14879    3    0    3
 -2      3599      4776      4779      3567
 -1     14880    3    0    3
 -2      3238      3228      4215      5290
 -1     14881    3    0    3
 -2      4116      3254      3189      4319
 -1     14882    3    0    3
 -2       301      4729      6056      3200
 -1     14883    3    0    3
 -2      3282      5310      3889      3718
 -1     14884    3    0    3
 -2      3531      4793      4794      6023
 -1     14885    3    0    3
 -2      1576      1649      5309      6237
 -1     14886    3    0    3
 -2      1758      5935      5014      5755
 -1     14887    3    0    3
 -2      2473      2624      2615      5882
 -1     14888    3    0    3
 -2      2326      4756      2596      2597
 -1     14889    3    0    3
 -2      3714      4755      3773      5318
 -1     14890    3    0    3
 -2      1547      1542      1573      6377
 -1     14891    3    0    3
 -2      3502      2124      1826      5999
 -1     14892    3    0    3
 -2      3169      3502      3168      3285
 -1     14893    3    0    3
 -2      4759      4760      3288      4463
 -1     14894    3    0    3
 -2      4752      1886      2075      1885
 -1     14895    3    0    3
 -2      5729      5312      6062      6400
 -1     14896    3    0    3
 -2      1886      4751      4752      2075
 -1     14897    3    0    3
 -2      3172      3288      4759      3187
 -1     14898    3    0    3
 -2      3187      3189      4754      4116
 -1     14899    3    0    3
 -2      2610      4793      2592      2591
 -1     14900    3    0    3
 -2      4762      2451      2399      2226
 -1     14901    3    0    3
 -2      4755      2074      6063      2171
 -1     14902    3    0    3
 -2      4736      5299      3831      3780
 -1     14903    3    0    3
 -2      2198      2197      1967      5973
 -1     14904    3    0    3
 -2      5311       928       741       742
 -1     14905    3    0    3
 -2      2507      2445      2506      6015
 -1     14906    3    0    3
 -2      1994      5879      5822      4951
 -1     14907    3    0    3
 -2      4779      2438      2541      2330
 -1     14908    3    0    3
 -2       919      6352       698      5347
 -1     14909    3    0    3
 -2      1841      1698      4697      2106
 -1     14910    3    0    3
 -2      4078      4102      5281      4145
 -1     14911    3    0    3
 -2      1894      3235       303       302
 -1     14912    3    0    3
 -2      1184      4194      1028      5202
 -1     14913    3    0    3
 -2      2214      4762      4761      6026
 -1     14914    3    0    3
 -2      4685      1924      6135      4684
 -1     14915    3    0    3
 -2      4752      3187      4754      4116
 -1     14916    3    0    3
 -2      5361      1219      5363      6335
 -1     14917    3    0    3
 -2      6180      6183      4717      6123
 -1     14918    3    0    3
 -2      4716      4156      5280      4126
 -1     14919    3    0    3
 -2      4482      3517      2954      3004
 -1     14920    3    0    3
 -2      4121      4713      4156      4716
 -1     14921    3    0    3
 -2      6016      3865      5306      3827
 -1     14922    3    0    3
 -2      6070      1170      6064      6440
 -1     14923    3    0    3
 -2      5745      5906      2369      2404
 -1     14924    3    0    3
 -2      4331      3490      3459      4893
 -1     14925    3    0    3
 -2      3504      4490      3446      5360
 -1     14926    3    0    3
 -2      4791      5972      6004      6013
 -1     14927    3    0    3
 -2      2940      4670      3650      3683
 -1     14928    3    0    3
 -2      5515      1127      1388      1353
 -1     14929    3    0    3
 -2      1448      1619      5359      1521
 -1     14930    3    0    3
 -2      4790      2147      2410      5885
 -1     14931    3    0    3
 -2      2147      2146      4790      2410
 -1     14932    3    0    3
 -2      3661      4774      3599      4776
 -1     14933    3    0    3
 -2      4789      4791      3534      6004
 -1     14934    3    0    3
 -2      4776      3599      4779      5697
 -1     14935    3    0    3
 -2      4319      3189      3279      3253
 -1     14936    3    0    3
 -2       561      4286       493       512
 -1     14937    3    0    3
 -2      2646      2526      2675      5888
 -1     14938    3    0    3
 -2      2799      2820      2828      5939
 -1     14939    3    0    3
 -2      2792       263      2819      6726
 -1     14940    3    0    3
 -2      5941      4782      5892      6104
 -1     14941    3    0    3
 -2      3708      5271      4106      2999
 -1     14942    3    0    3
 -2      1967      5707      5865      5973
 -1     14943    3    0    3
 -2       362       361      1827      2789
 -1     14944    3    0    3
 -2      2789       361      1827      5942
 -1     14945    3    0    3
 -2      5938      2147      2046      5978
 -1     14946    3    0    3
 -2      1869      5909      4677      2021
 -1     14947    3    0    3
 -2      4697       453      4696      2916
 -1     14948    3    0    3
 -2      4728      3949      4739      3984
 -1     14949    3    0    3
 -2      4154      6298       729       734
 -1     14950    3    0    3
 -2      3661      5965      4774      5893
 -1     14951    3    0    3
 -2      4773      4775      3661      3717
 -1     14952    3    0    3
 -2      4697       453       454      1841
 -1     14953    3    0    3
 -2      4207      5272      4710      4173
 -1     14954    3    0    3
 -2      4767      3780      3750      5330
 -1     14955    3    0    3
 -2       357      1712      3297       356
 -1     14956    3    0    3
 -2      3298      1745      1712       357
 -1     14957    3    0    3
 -2      4508      4664      3485      4666
 -1     14958    3    0    3
 -2      3761      5276      3947      4063
 -1     14959    3    0    3
 -2      4205      3748      4548      4550
 -1     14960    3    0    3
 -2      5920      2543      4768      5961
 -1     14961    3    0    3
 -2       899      6420      5295      1194
 -1     14962    3    0    3
 -2      4401      3506      3730      3020
 -1     14963    3    0    3
 -2      4921      3881      4918      3670
 -1     14964    3    0    3
 -2      3165      3689      1856      4724
 -1     14965    3    0    3
 -2      4276      4503      4306      2997
 -1     14966    3    0    3
 -2      5950      6217      6252      4769
 -1     14967    3    0    3
 -2      6099      2002      1729      6717
 -1     14968    3    0    3
 -2      4558      3843      3629      4559
 -1     14969    3    0    3
 -2      3587      4910      4909      4127
 -1     14970    3    0    3
 -2      3165      1856       301       302
 -1     14971    3    0    3
 -2       929      5955      1061      1152
 -1     14972    3    0    3
 -2      2932      1868       446       447
 -1     14973    3    0    3
 -2      3853      4044      4708      4469
 -1     14974    3    0    3
 -2      3671      3834      5332      3701
 -1     14975    3    0    3
 -2      3984      4733      4014      5296
 -1     14976    3    0    3
 -2      3910      5262      2895      5259
 -1     14977    3    0    3
 -2      4766      3754      3505      3973
 -1     14978    3    0    3
 -2      1533      5339      6354      5960
 -1     14979    3    0    3
 -2       824      5317      5316      1060
 -1     14980    3    0    3
 -2      5296      1259      5283      6430
 -1     14981    3    0    3
 -2      3483      4698      4696      4133
 -1     14982    3    0    3
 -2         7       472       729       822
 -1     14983    3    0    3
 -2      3754      4766      4765      3973
 -1     14984    3    0    3
 -2      5283      5282      4040      3685
 -1     14985    3    0    3
 -2      5312      5318      3801      6062
 -1     14986    3    0    3
 -2      1951      2235      1941      6044
 -1     14987    3    0    3
 -2      5336      5338      3661      6307
 -1     14988    3    0    3
 -2      5729      5311      3548      6397
 -1     14989    3    0    3
 -2      2980      4687      4466      4488
 -1     14990    3    0    3
 -2      3984      6732      6053      4719
 -1     14991    3    0    3
 -2      1856      3689      2013      4724
 -1     14992    3    0    3
 -2      1894      4723      4724      2013
 -1     14993    3    0    3
 -2      1699      4720      3162       304
 -1     14994    3    0    3
 -2      5278       701      6416      6051
 -1     14995    3    0    3
 -2      5281      4717      4014      4075
 -1     14996    3    0    3
 -2      5238      5235      4052      6413
 -1     14997    3    0    3
 -2      3780      4765      4736      3808
 -1     14998    3    0    3
 -2      4724      4723      3689      2013
 -1     14999    3    0    3
 -2      1184      4194      3794      5194
 -1     15000    3    0    3
 -2      4215      3982      5291      4058
 -1     15001    3    0    3
 -2      1925      3797      4681      4680
 -1     15002    3    0    3
 -2      2130      2129      6150      6169
 -1     15003    3    0    3
 -2      5194      5197      3839      5905
 -1     15004    3    0    3
 -2       899      6420      1183      6003
 -1     15005    3    0    3
 -2      2992      4345      2991      3473
 -1     15006    3    0    3
 -2       450      1867      4689      2944
 -1     15007    3    0    3
 -2      4126      4102      4675      5237
 -1     15008    3    0    3
 -2      2891      5232      3683      3650
 -1     15009    3    0    3
 -2      6090       849      3271      6416
 -1     15010    3    0    3
 -2      4719      4040      4728      3984
 -1     15011    3    0    3
 -2      2887       439      1875       438
 -1     15012    3    0    3
 -2      2963      2964      4386      3022
 -1     15013    3    0    3
 -2      1477      3920      5762      1040
 -1     15014    3    0    3
 -2      4200      4683      4681      3797
 -1     15015    3    0    3
 -2      3820      5416      3325      6161
 -1     15016    3    0    3
 -2      1925      3797      4680      5909
 -1     15017    3    0    3
 -2      4682      4248      3721      4680
 -1     15018    3    0    3
 -2      1275      5448      5442      1266
 -1     15019    3    0    3
 -2      4212      3683      4670      4667
 -1     15020    3    0    3
 -2      4556      4553      3551      3000
 -1     15021    3    0    3
 -2      4713      3977      4212      4187
 -1     15022    3    0    3
 -2      4669      2892      3829      4672
 -1     15023    3    0    3
 -2      4163      3949      4739      4728
 -1     15024    3    0    3
 -2      4730      4163      3592      4729
 -1     15025    3    0    3
 -2      4728      3689      3766      3462
 -1     15026    3    0    3
 -2      2916      4696      2917       453
 -1     15027    3    0    3
 -2      2593      2405      4737      6040
 -1     15028    3    0    3
 -2      4018      3953      4731      3990
 -1     15029    3    0    3
 -2      3984      3949      4739      5302
 -1     15030    3    0    3
 -2      3774      4743      3827      5306
 -1     15031    3    0    3
 -2      4345      4521      3669      2991
 -1     15032    3    0    3
 -2      4152      3207      4271      3225
 -1     15033    3    0    3
 -2      4845      4462      4262      4846
 -1     15034    3    0    3
 -2      6003      5294      4237      6195
 -1     15035    3    0    3
 -2      4756      2609      2597      2431
 -1     15036    3    0    3
 -2      2170      2447      2322      6189
 -1     15037    3    0    3
 -2      1383      6308      6284      6305
 -1     15038    3    0    3
 -2      2623      5893      4776      2542
 -1     15039    3    0    3
 -2      4439      4691      4244      2904
 -1     15040    3    0    3
 -2      4692      4689      4089      3543
 -1     15041    3    0    3
 -2      4140      3739      3957      4687
 -1     15042    3    0    3
 -2      3739      4686      3990      3957
 -1     15043    3    0    3
 -2      6183      2347      2437      6732
 -1     15044    3    0    3
 -2      4226      4382      4257      5268
 -1     15045    3    0    3
 -2      3025      4466      4488      2980
 -1     15046    3    0    3
 -2      1383      6308      1493      1207
 -1     15047    3    0    3
 -2      4688      4140      3603      4685
 -1     15048    3    0    3
 -2      3447      3701      4769      3673
 -1     15049    3    0    3
 -2      4191      3620      4693      4695
 -1     15050    3    0    3
 -2      3808      3782      4698      5260
 -1     15051    3    0    3
 -2      4503      4084      4702      4700
 -1     15052    3    0    3
 -2      4518      3955      4839      5402
 -1     15053    3    0    3
 -2      4702      3505      3754      3973
 -1     15054    3    0    3
 -2      4407      4694      3543      2912
 -1     15055    3    0    3
 -2      4697      4699      4503      4133
 -1     15056    3    0    3
 -2      4704      4706      3915      3447
 -1     15057    3    0    3
 -2      4706      4703      4448      3915
 -1     15058    3    0    3
 -2       468      2909       457      1721
 -1     15059    3    0    3
 -2      4703      4257      4706      4448
 -1     15060    3    0    3
 -2      3505      4702      3754      3726
 -1     15061    3    0    3
 -2      4703      3505      4084      4701
 -1     15062    3    0    3
 -2      4775      2689      4773      5893
 -1     15063    3    0    3
 -2      5965      4773      4767      6230
 -1     15064    3    0    3
 -2      4140      4688      3603      4690
 -1     15065    3    0    3
 -2      4708      4709      3968      4469
 -1     15066    3    0    3
 -2      5958      4771      2643      6100
 -1     15067    3    0    3
 -2      2545      2544      4774      2542
 -1     15068    3    0    3
 -2      2676      4744      2665      2680
 -1     15069    3    0    3
 -2      3774      5308      5309      6389
 -1     15070    3    0    3
 -2      4736      3831      4738      3780
 -1     15071    3    0    3
 -2      3572      4771      4772      5708
 -1     15072    3    0    3
 -2      5364       723       718      5984
 -1     15073    3    0    3
 -2      3539      3480      4778      5341
 -1     15074    3    0    3
 -2      5925      4782      4772      5945
 -1     15075    3    0    3
 -2       456       457      2908      1897
 -1     15076    3    0    3
 -2      2309      2068      1917      6737
 -1     15077    3    0    3
 -2      5892      5661      5944      6737
 -1     15078    3    0    3
 -2       360      2872       359      1738
 -1     15079    3    0    3
 -2      1712      3298       357      3297
 -1     15080    3    0    3
 -2      5329      3701      3726      3834
 -1     15081    3    0    3
 -2      3297      3312       356      6262
 -1     15082    3    0    3
 -2      6241      6324       856      5506
 -1     15083    3    0    3
 -2      1737      2863       463      5941
 -1     15084    3    0    3
 -2       464      3300       463      5941
 -1     15085    3    0    3
 -2      5102       181       660      2977
 -1     15086    3    0    3
 -2      6052      4722      4298      2057
 -1     15087    3    0    3
 -2      4322      3310      4124      3302
 -1     15088    3    0    3
 -2      3299      3308      5273      3303
 -1     15089    3    0    3
 -2      4706      2910      4257      2965
 -1     15090    3    0    3
 -2      2522      2422      2453      6258
 -1     15091    3    0    3
 -2      3795      3293      3312      3294
 -1     15092    3    0    3
 -2       791       792       259      6226
 -1     15093    3    0    3
 -2      5329      3723      3671      5331
 -1     15094    3    0    3
 -2      3723      4767      4765      6219
 -1     15095    3    0    3
 -2       463        17       359      1737
 -1     15096    3    0    3
 -2      2288      2198      1966      5865
 -1     15097    3    0    3
 -2      2288      4778      2198      5865
 -1     15098    3    0    3
 -2      6356      5342      1417      6359
 -1     15099    3    0    3
 -2      3567      4779      4789      5888
 -1     15100    3    0    3
 -2      5892      1745      1917      5944
 -1     15101    3    0    3
 -2      1047      1347       864      6277
 -1     15102    3    0    3
 -2      4476      6298       472      5274
 -1     15103    3    0    3
 -2      4476      6298      5275      3296
 -1     15104    3    0    3
 -2      4024      2923      4226      4707
 -1     15105    3    0    3
 -2      1038      5946       904      3834
 -1     15106    3    0    3
 -2      3637      5272      4207      5269
 -1     15107    3    0    3
 -2      3795      3295      3293      3294
 -1     15108    3    0    3
 -2      4710      4711      3968      4173
 -1     15109    3    0    3
 -2      3609      4710      5272      4173
 -1     15110    3    0    3
 -2      3609      4711      4710      4173
 -1     15111    3    0    3
 -2      4694      4191      4380      4695
 -1     15112    3    0    3
 -2      5924      4044      2349      6251
 -1     15113    3    0    3
 -2      3633      5960      3599      5340
 -1     15114    3    0    3
 -2       452      4693      1780      1842
 -1     15115    3    0    3
 -2      2917      4693      2901       452
 -1     15116    3    0    3
 -2      5259      4411      5262      6037
 -1     15117    3    0    3
 -2      4407      4691      4439      2904
 -1     15118    3    0    3
 -2       471      3001      4106      2999
 -1     15119    3    0    3
 -2      4737      2405      2322      5915
 -1     15120    3    0    3
 -2      6399      6301      1282      5330
 -1     15121    3    0    3
 -2      3480      5945      3513      4783
 -1     15122    3    0    3
 -2      2514      5910      5719      5019
 -1     15123    3    0    3
 -2      4234      5268      3701      3834
 -1     15124    3    0    3
 -2      2923      2965      2910      4024
 -1     15125    3    0    3
 -2      4702      4703      4276      3726
 -1     15126    3    0    3
 -2      4322      3943      3578      5333
 -1     15127    3    0    3
 -2      2117      1917      1745      5944
 -1     15128    3    0    3
 -2      4770      4015      4469      3795
 -1     15129    3    0    3
 -2      5267      1038      5270       639
 -1     15130    3    0    3
 -2      3673      5268      3701      4234
 -1     15131    3    0    3
 -2      1649      5309      1541      1540
 -1     15132    3    0    3
 -2      4768      2329      6219      6110
 -1     15133    3    0    3
 -2      5952      6227      1047       931
 -1     15134    3    0    3
 -2      5332      1038      4234      3834
 -1     15135    3    0    3
 -2      2850      5942      2829      2789
 -1     15136    3    0    3
 -2      4207      4707      3637      5269
 -1     15137    3    0    3
 -2      5918      4267      5602      5035
 -1     15138    3    0    3
 -2      5885      3449      4780      3508
 -1     15139    3    0    3
 -2      2541      2675      4776      2542
 -1     15140    3    0    3
 -2      1282      6399      1534      1615
 -1     15141    3    0    3
 -2      1343      5341      1382      5894
 -1     15142    3    0    3
 -2      2624      2676      2599      6068
 -1     15143    3    0    3
 -2      5272      3943      5273      4476
 -1     15144    3    0    3
 -2      2559      4786      2461      2705
 -1     15145    3    0    3
 -2      1038      5946      1089       904
 -1     15146    3    0    3
 -2      5997       112       687      3227
 -1     15147    3    0    3
 -2      2850      5942      4784      5940
 -1     15148    3    0    3
 -2      5484      5487       554      4141
 -1     15149    3    0    3
 -2      2843      5367      5581      6338
 -1     15150    3    0    3
 -2      6037      1153      1205      6301
 -1     15151    3    0    3
 -2      3750      3780      5301      5330
 -1     15152    3    0    3
 -2      1828      1966      1967      5707
 -1     15153    3    0    3
 -2      5263       644       929      1061
 -1     15154    3    0    3
 -2      5997       112      3227      3231
 -1     15155    3    0    3
 -2      2850      5956      2805      5940
 -1     15156    3    0    3
 -2      1494      1344      1343      6311
 -1     15157    3    0    3
 -2      4788      2559      2606      2557
 -1     15158    3    0    3
 -2      5270      4234      1038      3834
 -1     15159    3    0    3
 -2      4803      4802      5948      4467
 -1     15160    3    0    3
 -2      5956      2858      2803      6316
 -1     15161    3    0    3
 -2      2965      2966      4382      3013
 -1     15162    3    0    3
 -2      5342      1417      1559      6736
 -1     15163    3    0    3
 -2      4779      3539      4777      3599
 -1     15164    3    0    3
 -2      5341      3572      5340      5894
 -1     15165    3    0    3
 -2      4697      4700      4503      3973
 -1     15166    3    0    3
 -2      6104      1966      2056      1738
 -1     15167    3    0    3
 -2      5389      5815      5880      2757
 -1     15168    3    0    3
 -2      5306      3803      5300      6021
 -1     15169    3    0    3
 -2      6104      1966      4783      5945
 -1     15170    3    0    3
 -2      5938      4790      4801      3449
 -1     15171    3    0    3
 -2      1967      1827      1828      5707
 -1     15172    3    0    3
 -2      6740      4370      5466      6239
 -1     15173    3    0    3
 -2      2028      4780      4784      5973
 -1     15174    3    0    3
 -2      4497      5353      4790      3478
 -1     15175    3    0    3
 -2      2843      5367      2817      5932
 -1     15176    3    0    3
 -2      4790      5353      3508      3478
 -1     15177    3    0    3
 -2      5261      3605      4306      2936
 -1     15178    3    0    3
 -2       269       270       772      2865
 -1     15179    3    0    3
 -2      2847      2849      2848      6350
 -1     15180    3    0    3
 -2      2148      2175      2097      5884
 -1     15181    3    0    3
 -2      6340      4441      5884      4798
 -1     15182    3    0    3
 -2      2009      5949      5887      4802
 -1     15183    3    0    3
 -2      6335      6333      5367      4441
 -1     15184    3    0    3
 -2      4696       452      4693      2917
 -1     15185    3    0    3
 -2      2879      5364      2792      2847
 -1     15186    3    0    3
 -2      5355      5365      4497      5968
 -1     15187    3    0    3
 -2       372      1736       373      2827
 -1     15188    3    0    3
 -2      2990      1768       448      4685
 -1     15189    3    0    3
 -2      1374      5757      5570      1230
 -1     15190    3    0    3
 -2      3018      1807      2976       423
 -1     15191    3    0    3
 -2      5311       928       742      5729
 -1     15192    3    0    3
 -2      3795      5273      3609      3578
 -1     15193    3    0    3
 -2      4784      3480      4780      3449
 -1     15194    3    0    3
 -2      2147      2442      2410      5885
 -1     15195    3    0    3
 -2       466      2823       467      6228
 -1     15196    3    0    3
 -2      4801      4790      4497      3449
 -1     15197    3    0    3
 -2       761       791      5346       876
 -1     15198    3    0    3
 -2      2046      2028      2168      5938
 -1     15199    3    0    3
 -2      1383      1031      4154      6284
 -1     15200    3    0    3
 -2      2559      6370      4788      5996
 -1     15201    3    0    3
 -2      2330      2331      2524      5970
 -1     15202    3    0    3
 -2      5438      1612      6107      6105
 -1     15203    3    0    3
 -2      6342      5463      1081      6302
 -1     15204    3    0    3
 -2      5707      1966      1967      5865
 -1     15205    3    0    3
 -2      5745      5906      2404      5026
 -1     15206    3    0    3
 -2      1416      1527      1563      5306
 -1     15207    3    0    3
 -2      5293      3164       119      3252
 -1     15208    3    0    3
 -2      5341      1131      1343      1382
 -1     15209    3    0    3
 -2      5328      3808      4765      3780
 -1     15210    3    0    3
 -2      3661      4775      5338      3717
 -1     15211    3    0    3
 -2      2330      4779      2438      5964
 -1     15212    3    0    3
 -2      2914      1853       440      4668
 -1     15213    3    0    3
 -2      2281      2010      2146      5887
 -1     15214    3    0    3
 -2      6023      2591      4795      4793
 -1     15215    3    0    3
 -2      1382      5340      1404      5894
 -1     15216    3    0    3
 -2      2894      4544      3730      4541
 -1     15217    3    0    3
 -2      5335      3606      3572      5334
 -1     15218    3    0    3
 -2       698       877       761      6352
 -1     15219    3    0    3
 -2      5956      2850      2805      2803
 -1     15220    3    0    3
 -2      4753      4749      3773      3992
 -1     15221    3    0    3
 -2      2645      5996      2558      2705
 -1     15222    3    0    3
 -2      1390      5361      5983      6315
 -1     15223    3    0    3
 -2      6327      6777      5365      5975
 -1     15224    3    0    3
 -2      1738      5707      1828      2829
 -1     15225    3    0    3
 -2      1116      5353      1306      5835
 -1     15226    3    0    3
 -2      1373      1447      1446      6332
 -1     15227    3    0    3
 -2       264      2791       265       718
 -1     15228    3    0    3
 -2      2802      2801      2843      5932
 -1     15229    3    0    3
 -2      5828      5003      5014      5935
 -1     15230    3    0    3
 -2      4779      3508      4789      5954
 -1     15231    3    0    3
 -2       830       578      5494       625
 -1     15232    3    0    3
 -2      3562      5357      5356      3531
 -1     15233    3    0    3
 -2      4056      6007      5380      5382
 -1     15234    3    0    3
 -2      4757      3773      5320      3714
 -1     15235    3    0    3
 -2      2188      4757      2075      2203
 -1     15236    3    0    3
 -2      3982      3211      3201      5292
 -1     15237    3    0    3
 -2      5324      3738      4761      4263
 -1     15238    3    0    3
 -2      3249       115       818       116
 -1     15239    3    0    3
 -2      5316      3924      4461      5313
 -1     15240    3    0    3
 -2       919      6352      5347      5980
 -1     15241    3    0    3
 -2      3287      3222      3288      4463
 -1     15242    3    0    3
 -2      3928      4761      4463      3711
 -1     15243    3    0    3
 -2      4751      4757      4752      2075
 -1     15244    3    0    3
 -2      3859      3548      5312      4115
 -1     15245    3    0    3
 -2      3588      5356      5325      6377
 -1     15246    3    0    3
 -2       882      5326      6371      6382
 -1     15247    3    0    3
 -2      4751      4757      2075      3992
 -1     15248    3    0    3
 -2      4752      4759      3187      1885
 -1     15249    3    0    3
 -2      3714      4758      4757      6001
 -1     15250    3    0    3
 -2      3279      3259      3924      3253
 -1     15251    3    0    3
 -2      5956      2858      2849      2803
 -1     15252    3    0    3
 -2      3714      3656      4756      5319
 -1     15253    3    0    3
 -2      5313      4319      4753      4295
 -1     15254    3    0    3
 -2      4756      4785      2596      2597
 -1     15255    3    0    3
 -2      4750      4751      4752      1886
 -1     15256    3    0    3
 -2      5313      5314      4319      4295
 -1     15257    3    0    3
 -2      3619      4758      4762      3686
 -1     15258    3    0    3
 -2      3750      4744      4738      6042
 -1     15259    3    0    3
 -2      4775      4773      3661      5893
 -1     15260    3    0    3
 -2      3690      4746      4756      3744
 -1     15261    3    0    3
 -2      3205       742       116      6397
 -1     15262    3    0    3
 -2      5999      2124      2172      6063
 -1     15263    3    0    3
 -2      5319      3714      5321      6386
 -1     15264    3    0    3
 -2      1354      1282      1152      5955
 -1     15265    3    0    3
 -2      4750      3188      4752      4116
 -1     15266    3    0    3
 -2      1852       445       444      2925
 -1     15267    3    0    3
 -2      1341      5318      5308      6002
 -1     15268    3    0    3
 -2      3212      4456      3886      3204
 -1     15269    3    0    3
 -2      5247      5250       899      6003
 -1     15270    3    0    3
 -2      5729       742      5311      6397
 -1     15271    3    0    3
 -2      3686      4762      4761      6374
 -1     15272    3    0    3
 -2      2440      2220      2346      5657
 -1     15273    3    0    3
 -2      4749      3502      3582      3800
 -1     15274    3    0    3
 -2      1579      5338      1649      6307
 -1     15275    3    0    3
 -2      4081      4748      3678      4747
 -1     15276    3    0    3
 -2      5278       701      6419       971
 -1     15277    3    0    3
 -2      5734      6765      5588      5594
 -1     15278    3    0    3
 -2      3924      5316      4461      5315
 -1     15279    3    0    3
 -2      4740      3891      3827      5303
 -1     15280    3    0    3
 -2      3949      4741      4739      3891
 -1     15281    3    0    3
 -2      4741      3949      4739      4163
 -1     15282    3    0    3
 -2       788       964      4058      5291
 -1     15283    3    0    3
 -2       746       977      5234       764
 -1     15284    3    0    3
 -2      4210      5234      5235      2890
 -1     15285    3    0    3
 -2      2623      5893      4775      4776
 -1     15286    3    0    3
 -2      2970       750      2922       185
 -1     15287    3    0    3
 -2      5314      4308      3738      4295
 -1     15288    3    0    3
 -2      4723      3689      4726      4361
 -1     15289    3    0    3
 -2      6442      3991      4047      5181
 -1     15290    3    0    3
 -2      3211      4058      3228      3252
 -1     15291    3    0    3
 -2      4685      1924      2111      6135
 -1     15292    3    0    3
 -2       759       691         5       487
 -1     15293    3    0    3
 -2      3276      3592      3201      4456
 -1     15294    3    0    3
 -2      5931      3508      3539      5343
 -1     15295    3    0    3
 -2      1364      5528      5553      5804
 -1     15296    3    0    3
 -2      5312      4461      3548      3800
 -1     15297    3    0    3
 -2      4215       788       942      5290
 -1     15298    3    0    3
 -2      4758      3686      5321      3714
 -1     15299    3    0    3
 -2      1455      6506      1068      6517
 -1     15300    3    0    3
 -2      5317      3924      3259      5315
 -1     15301    3    0    3
 -2      3548      3859      5310      4115
 -1     15302    3    0    3
 -2      4215       788      5291       942
 -1     15303    3    0    3
 -2      5310      3548      4115      5311
 -1     15304    3    0    3
 -2      5296      1290      1432      1258
 -1     15305    3    0    3
 -2      1543      6387      5350      5321
 -1     15306    3    0    3
 -2      5311      3205      3548      6397
 -1     15307    3    0    3
 -2      1323      1415      5308      6016
 -1     15308    3    0    3
 -2      3231       684       111      6371
 -1     15309    3    0    3
 -2       687       733       881      5323
 -1     15310    3    0    3
 -2      5514      3584      4949      3616
 -1     15311    3    0    3
 -2      4787      2596      4758      6038
 -1     15312    3    0    3
 -2      1219      5363      1300      6317
 -1     15313    3    0    3
 -2      6158       143      5421      3324
 -1     15314    3    0    3
 -2      5318      5308      3744      3801
 -1     15315    3    0    3
 -2      5256      4208      3640      5258
 -1     15316    3    0    3
 -2      3818      4507      5455      4218
 -1     15317    3    0    3
 -2       805       925       926      6018
 -1     15318    3    0    3
 -2      5526      3615      5516      3555
 -1     15319    3    0    3
 -2      3982      4058      3211      5292
 -1     15320    3    0    3
 -2       742      3205       116       117
 -1     15321    3    0    3
 -2       742       928      1016      5729
 -1     15322    3    0    3
 -2      1372      1560      5321      1292
 -1     15323    3    0    3
 -2      5230       985       847       848
 -1     15324    3    0    3
 -2      3640      4048      5258      6411
 -1     15325    3    0    3
 -2      4753      4487      3992      3773
 -1     15326    3    0    3
 -2      1341      5308      1323      1414
 -1     15327    3    0    3
 -2       789      3014       200       806
 -1     15328    3    0    3
 -2      3534      3478      4789      5352
 -1     15329    3    0    3
 -2      1341      6190      6002      5308
 -1     15330    3    0    3
 -2      1393      6069      1394      6075
 -1     15331    3    0    3
 -2      1579      5338      1622      1649
 -1     15332    3    0    3
 -2      1010      3788      1060      5316
 -1     15333    3    0    3
 -2       740       787       949      5293
 -1     15334    3    0    3
 -2      5311      3548      4115      5729
 -1     15335    3    0    3
 -2      3886       740      3164      3163
 -1     15336    3    0    3
 -2      1180      5320      1134      1060
 -1     15337    3    0    3
 -2      1533      5339      5960      1507
 -1     15338    3    0    3
 -2       454      4700      4697      1698
 -1     15339    3    0    3
 -2      2436      2439      2602      4733
 -1     15340    3    0    3
 -2      2680      6040      6041      4738
 -1     15341    3    0    3
 -2      4718      4073      4099      3850
 -1     15342    3    0    3
 -2      1024      1119      1121      5280
 -1     15343    3    0    3
 -2      3462      4728      4246      4040
 -1     15344    3    0    3
 -2       454      4700       455      2967
 -1     15345    3    0    3
 -2      5973      5964      2197      4780
 -1     15346    3    0    3
 -2      5305      3891      5304      6401
 -1     15347    3    0    3
 -2      2997      2934      4503      2967
 -1     15348    3    0    3
 -2      5107      2970      2957       184
 -1     15349    3    0    3
 -2      6195      5295      6003      6420
 -1     15350    3    0    3
 -2      3831      5301      4738      3780
 -1     15351    3    0    3
 -2      4693      4191      4695      3483
 -1     15352    3    0    3
 -2      5261      3740      5263      4297
 -1     15353    3    0    3
 -2      5261      5260      3740      4297
 -1     15354    3    0    3
 -2       840      5218      1067      3908
 -1     15355    3    0    3
 -2      4743      4737      3803      6041
 -1     15356    3    0    3
 -2      4257      4008      4276      5265
 -1     15357    3    0    3
 -2      2953       751      2927      5266
 -1     15358    3    0    3
 -2       644      5263       751      1061
 -1     15359    3    0    3
 -2      3535      3957      3931      5295
 -1     15360    3    0    3
 -2      1787      6046      1788      1942
 -1     15361    3    0    3
 -2      6447      1122      1096      6441
 -1     15362    3    0    3
 -2      5263      3605      5266      4142
 -1     15363    3    0    3
 -2      6172      1870      3182      6587
 -1     15364    3    0    3
 -2       840      5218       673      1067
 -1     15365    3    0    3
 -2      1202      1088      1365      6024
 -1     15366    3    0    3
 -2      3710      5245      4521      5248
 -1     15367    3    0    3
 -2      2953       751      5266       640
 -1     15368    3    0    3
 -2      4396      2926      3529      2946
 -1     15369    3    0    3
 -2      4718      4246      2234      4719
 -1     15370    3    0    3
 -2      4672      2902      4451      4673
 -1     15371    3    0    3
 -2      4075      4717      4719      6123
 -1     15372    3    0    3
 -2      5948      2281      5887      2009
 -1     15373    3    0    3
 -2      5237      3914      4301      3011
 -1     15374    3    0    3
 -2      5280      5281      4102      3743
 -1     15375    3    0    3
 -2      2902      1719       443      4673
 -1     15376    3    0    3
 -2      5197      3809      5194      3839
 -1     15377    3    0    3
 -2      5948      2281      2009      2149
 -1     15378    3    0    3
 -2      4306      2986      4133      4329
 -1     15379    3    0    3
 -2      1345      5303      1290      1557
 -1     15380    3    0    3
 -2       943       845       715      5288
 -1     15381    3    0    3
 -2      3859      5304      5305      3891
 -1     15382    3    0    3
 -2      4421      4058      3949      5292
 -1     15383    3    0    3
 -2      1557      1526      1527      6035
 -1     15384    3    0    3
 -2      3690      4746      4775      6357
 -1     15385    3    0    3
 -2      6268      4899      2287      6243
 -1     15386    3    0    3
 -2      4411      4048      5299      6037
 -1     15387    3    0    3
 -2      5307      5309      3717      6237
 -1     15388    3    0    3
 -2      6237      5307      1577      6399
 -1     15389    3    0    3
 -2      3808      5328      3740      4411
 -1     15390    3    0    3
 -2      1721      4708      2089      1722
 -1     15391    3    0    3
 -2       644       643      5262       929
 -1     15392    3    0    3
 -2      1852      6187      4676      2020
 -1     15393    3    0    3
 -2      4742      2346      2316      2235
 -1     15394    3    0    3
 -2      4411      3808      4048      5257
 -1     15395    3    0    3
 -2      3869      4048      3832      5256
 -1     15396    3    0    3
 -2      2271      1972      4736      1973
 -1     15397    3    0    3
 -2      1799      1972      1780      4692
 -1     15398    3    0    3
 -2      4706      3701      4703      3915
 -1     15399    3    0    3
 -2      3900      4439      5252      5253
 -1     15400    3    0    3
 -2      1383      6308      1207      6284
 -1     15401    3    0    3
 -2      5251      3009       735      5254
 -1     15402    3    0    3
 -2      3925      3953      4733      5296
 -1     15403    3    0    3
 -2      5452       151      3377       150
 -1     15404    3    0    3
 -2      3721      2937      2925      2946
 -1     15405    3    0    3
 -2      1869      1925      1868      4680
 -1     15406    3    0    3
 -2      4690      4688      3603      4244
 -1     15407    3    0    3
 -2      4764      6095      2226      2280
 -1     15408    3    0    3
 -2      4488      4686      3957      5248
 -1     15409    3    0    3
 -2      5254      3012       743      5255
 -1     15410    3    0    3
 -2      5328      3782      3808      3740
 -1     15411    3    0    3
 -2      4732      3990      4731      3953
 -1     15412    3    0    3
 -2      4683      4686      4200      3669
 -1     15413    3    0    3
 -2      2067      2233      4728      5872
 -1     15414    3    0    3
 -2      4521      4488      4686      3669
 -1     15415    3    0    3
 -2      2882      2883      4208      3805
 -1     15416    3    0    3
 -2      3409      4857      4337      3464
 -1     15417    3    0    3
 -2      4685       448      2990      2943
 -1     15418    3    0    3
 -2      4018      5245      3990      4683
 -1     15419    3    0    3
 -2      6041      2598      2599      6132
 -1     15420    3    0    3
 -2      5257      4380      3832      5256
 -1     15421    3    0    3
 -2      5249      3957      3535      5248
 -1     15422    3    0    3
 -2      4686      3957      4687      4488
 -1     15423    3    0    3
 -2       451      2911      1799      4692
 -1     15424    3    0    3
 -2      2948      3910      2895      2994
 -1     15425    3    0    3
 -2      3543      4691      4407      2904
 -1     15426    3    0    3
 -2      3620      4089      4692      6047
 -1     15427    3    0    3
 -2      4701      3505      4084      4700
 -1     15428    3    0    3
 -2      4089      4735      3687      6047
 -1     15429    3    0    3
 -2      3957      5249      3535      3931
 -1     15430    3    0    3
 -2      3687      4735      1977      6047
 -1     15431    3    0    3
 -2      6404      3482      5555      4502
 -1     15432    3    0    3
 -2       724      2896       207      5259
 -1     15433    3    0    3
 -2      3808      5328      4765      3782
 -1     15434    3    0    3
 -2      4766      3723      3671      5329
 -1     15435    3    0    3
 -2      4669      2041      3977      4668
 -1     15436    3    0    3
 -2      1059      5299      1114      6411
 -1     15437    3    0    3
 -2      3721      4679      4682      3500
 -1     15438    3    0    3
 -2      4682      4683      4345      3473
 -1     15439    3    0    3
 -2      2978      2986      2948      4355
 -1     15440    3    0    3
 -2      4699      4503      4702      3973
 -1     15441    3    0    3
 -2      4695      3832      3620      3808
 -1     15442    3    0    3
 -2      4407      3869      4694      5256
 -1     15443    3    0    3
 -2      3603      2943      2980      2981
 -1     15444    3    0    3
 -2      2271      2301      2379      6040
 -1     15445    3    0    3
 -2      4726      3495      4727      3462
 -1     15446    3    0    3
 -2      4680       445      4677      2937
 -1     15447    3    0    3
 -2      5284      4721      4119      4099
 -1     15448    3    0    3
 -2      3918      4674      4156      4126
 -1     15449    3    0    3
 -2      4276      4503      4702      4306
 -1     15450    3    0    3
 -2      1121      1024      5280      6413
 -1     15451    3    0    3
 -2      4152      3181      3206      3207
 -1     15452    3    0    3
 -2      4725      4721      5284      4099
 -1     15453    3    0    3
 -2      1393      6069      1613      1394
 -1     15454    3    0    3
 -2      3586      4674      4675      4126
 -1     15455    3    0    3
 -2      2067      2219      2233      5872
 -1     15456    3    0    3
 -2      3984      6732      4733      6053
 -1     15457    3    0    3
 -2      4040      5282      4358      3685
 -1     15458    3    0    3
 -2      4728      4719      3984      6053
 -1     15459    3    0    3
 -2      4361      4725      4722      3161
 -1     15460    3    0    3
 -2      4722      4724      3235      1894
 -1     15461    3    0    3
 -2      4725      4361      3495      3237
 -1     15462    3    0    3
 -2      4686      3990      4683      4200
 -1     15463    3    0    3
 -2      6143      4735      4732      6189
 -1     15464    3    0    3
 -2      4109      4488      5249      5248
 -1     15465    3    0    3
 -2      4683      4681      4345      3669
 -1     15466    3    0    3
 -2      3731      5198      5278      6153
 -1     15467    3    0    3
 -2      5236      4126      3586      5237
 -1     15468    3    0    3
 -2      4102      3918      4716      4126
 -1     15469    3    0    3
 -2      4674      3586      4675      4451
 -1     15470    3    0    3
 -2      4126      3586      4674      5236
 -1     15471    3    0    3
 -2      4416      3743      5237      5239
 -1     15472    3    0    3
 -2      5246      4013      4385      5244
 -1     15473    3    0    3
 -2      2952      2951      2949      3608
 -1     15474    3    0    3
 -2      1870      4714      6172      2027
 -1     15475    3    0    3
 -2      2947      3829      3617      4671
 -1     15476    3    0    3
 -2      3618      5109      5111      4310
 -1     15477    3    0    3
 -2      4397      2961      3724      5116
 -1     15478    3    0    3
 -2      1706      4556      2956       435
 -1     15479    3    0    3
 -2      3906      3554      5192      3875
 -1     15480    3    0    3
 -2      4635      4629      4091      6198
 -1     15481    3    0    3
 -2      5121      3843      5120      4386
 -1     15482    3    0    3
 -2      4033      4664      3485      4665
 -1     15483    3    0    3
 -2      6155       696      5208      1011
 -1     15484    3    0    3
 -2      3756      6769      4282      5198
 -1     15485    3    0    3
 -2      5429       730       145      3319
 -1     15486    3    0    3
 -2      6174      4632      6125      6580
 -1     15487    3    0    3
 -2      5124      4332      5125      3789
 -1     15488    3    0    3
 -2      4401      3506      3533      4543
 -1     15489    3    0    3
 -2      4236      4666      3761      5228
 -1     15490    3    0    3
 -2      4561      4560      2886      1764
 -1     15491    3    0    3
 -2      5240      3560      4102      5237
 -1     15492    3    0    3
 -2      4212      5229      3683      4667
 -1     15493    3    0    3
 -2      5125      5228      3517      4063
 -1     15494    3    0    3
 -2      3819      5126      5123      4336
 -1     15495    3    0    3
 -2      5277      4713      4156      4121
 -1     15496    3    0    3
 -2      4714      4634      3702      3731
 -1     15497    3    0    3
 -2      5235       977      3644       978
 -1     15498    3    0    3
 -2      5516      3647      4951      4182
 -1     15499    3    0    3
 -2      3270      4271      3225      3175
 -1     15500    3    0    3
 -2      6524       842       674      6559
 -1     15501    3    0    3
 -2      5107       183      5106       694
 -1     15502    3    0    3
 -2      6449       797      5119       930
 -1     15503    3    0    3
 -2      5107       183       184      2957
 -1     15504    3    0    3
 -2      5189      5186      4017      3986
 -1     15505    3    0    3
 -2      2885      2930      3819      2964
 -1     15506    3    0    3
 -2      4332      3819      5124      4219
 -1     15507    3    0    3
 -2      5176      5175      4129      6064
 -1     15508    3    0    3
 -2      1173      1080       977      6170
 -1     15509    3    0    3
 -2      5120      2919      4492      4386
 -1     15510    3    0    3
 -2      3870      4629      4630      4091
 -1     15511    3    0    3
 -2       797      2884      5119       189
 -1     15512    3    0    3
 -2      6193       664      5102      5099
 -1     15513    3    0    3
 -2      4131      4539      4305      3922
 -1     15514    3    0    3
 -2      6083      2225      2178      6125
 -1     15515    3    0    3
 -2      2963      4386      4558      4197
 -1     15516    3    0    3
 -2      4251      5119      3554      5117
 -1     15517    3    0    3
 -2      2884      2920      2919      4120
 -1     15518    3    0    3
 -2      4432      3760      5108      5110
 -1     15519    3    0    3
 -2      5178      1314      1315      1457
 -1     15520    3    0    3
 -2      3477      2959      2969      3016
 -1     15521    3    0    3
 -2      4611      5175      4216      4188
 -1     15522    3    0    3
 -2      3995      3448      5112      4550
 -1     15523    3    0    3
 -2       892      5106      4065      6444
 -1     15524    3    0    3
 -2      6064      4129      5178      6070
 -1     15525    3    0    3
 -2      4065      5106      3660      6444
 -1     15526    3    0    3
 -2      6520      1665      6543      1406
 -1     15527    3    0    3
 -2       893      5110      1004      6447
 -1     15528    3    0    3
 -2      5691      6018       690      3665
 -1     15529    3    0    3
 -2      1314      1315      1171      6064
 -1     15530    3    0    3
 -2      6144      4239      6566      4582
 -1     15531    3    0    3
 -2      5106       694       183       659
 -1     15532    3    0    3
 -2      5197      3895      1011      6155
 -1     15533    3    0    3
 -2      3962      3991      4021      4618
 -1     15534    3    0    3
 -2      6630      2501      6492      2484
 -1     15535    3    0    3
 -2      4184      4157      4588      4213
 -1     15536    3    0    3
 -2      5089      5091      4161      3454
 -1     15537    3    0    3
 -2      3618      2921      2897      2922
 -1     15538    3    0    3
 -2      6221      2078      4817      4807
 -1     15539    3    0    3
 -2      5124      4562      4332      3789
 -1     15540    3    0    3
 -2      2970      5111      5110      4310
 -1     15541    3    0    3
 -2       695       694      5107       893
 -1     15542    3    0    3
 -2      6129      3660      5176      6444
 -1     15543    3    0    3
 -2      1185      1318      1218      6076
 -1     15544    3    0    3
 -2      3623      3595      5100      4538
 -1     15545    3    0    3
 -2       695      5110      1004       893
 -1     15546    3    0    3
 -2      5118      5115      3015      4397
 -1     15547    3    0    3
 -2      4027      5113      2899      4397
 -1     15548    3    0    3
 -2      4018      3953      4014      4731
 -1     15549    3    0    3
 -2      3905      5193      5194      6078
 -1     15550    3    0    3
 -2      3839      5195      5197      3787
 -1     15551    3    0    3
 -2      2961      2918      4397      3724
 -1     15552    3    0    3
 -2      4634      3787      3731      4632
 -1     15553    3    0    3
 -2       182      5106      5103      2993
 -1     15554    3    0    3
 -2       182      5106       183       659
 -1     15555    3    0    3
 -2      5235       977       764      5234
 -1     15556    3    0    3
 -2      4188      4157      4582      4613
 -1     15557    3    0    3
 -2      3978      4666      4508      4563
 -1     15558    3    0    3
 -2      3819      2930      3006      2964
 -1     15559    3    0    3
 -2      4292      4579      5143      4239
 -1     15560    3    0    3
 -2      3629      4557      4556      4197
 -1     15561    3    0    3
 -2      2962      3613      2942      2941
 -1     15562    3    0    3
 -2      2918      2961      2920      3724
 -1     15563    3    0    3
 -2      4254      4615      4055      3862
 -1     15564    3    0    3
 -2       190      2884       797       189
 -1     15565    3    0    3
 -2      6144      4239      4188      4580
 -1     15566    3    0    3
 -2      4884      3550      4897      6247
 -1     15567    3    0    3
 -2      2177      6585      6581      2215
 -1     15568    3    0    3
 -2      1123      1192      5191       923
 -1     15569    3    0    3
 -2      5204      3196       708       131
 -1     15570    3    0    3
 -2      4220      5106      5104      3519
 -1     15571    3    0    3
 -2      4861      3790      5426      3815
 -1     15572    3    0    3
 -2      5231      4327      5229      3807
 -1     15573    3    0    3
 -2      6087      3932      3794      5199
 -1     15574    3    0    3
 -2      4338      4220      3823      5103
 -1     15575    3    0    3
 -2       139       721      3176       140
 -1     15576    3    0    3
 -2      5109      5111      4158      3618
 -1     15577    3    0    3
 -2      3760      5109      5108      4310
 -1     15578    3    0    3
 -2       543       621       514      4077
 -1     15579    3    0    3
 -2      3420      4870      4869      4500
 -1     15580    3    0    3
 -2       695      5107      5110       893
 -1     15581    3    0    3
 -2      4027      2899      3015      4397
 -1     15582    3    0    3
 -2      6474      4072      5199      4443
 -1     15583    3    0    3
 -2      4099      3912      4715      4298
 -1     15584    3    0    3
 -2      3961      5195      4336      6458
 -1     15585    3    0    3
 -2      5199       976      4315      6087
 -1     15586    3    0    3
 -2      2177      6585      2215      2225
 -1     15587    3    0    3
 -2      2918      2920      2884      4120
 -1     15588    3    0    3
 -2      3487      4194      5201      5203
 -1     15589    3    0    3
 -2      3547      5431      3716       852
 -1     15590    3    0    3
 -2      1498      1652      1525      6451
 -1     15591    3    0    3
 -2      4338      3963      5176      6193
 -1     15592    3    0    3
 -2      1238      1346      1184      6087
 -1     15593    3    0    3
 -2      5514       691      6742      6532
 -1     15594    3    0    3
 -2      5417      1356      1449      1357
 -1     15595    3    0    3
 -2      4155       767      1026      5453
 -1     15596    3    0    3
 -2       721       821       967      6489
 -1     15597    3    0    3
 -2      3354      3353      3360      4888
 -1     15598    3    0    3
 -2      3905      6456      5194      5192
 -1     15599    3    0    3
 -2       691      5514      6742      6027
 -1     15600    3    0    3
 -2      3627      3197      4379      4353
 -1     15601    3    0    3
 -2      2017      1837      1909      4641
 -1     15602    3    0    3
 -2      5420      3792      4337      4857
 -1     15603    3    0    3
 -2      5201      5208      3487      5203
 -1     15604    3    0    3
 -2      2143      2374      2304      6592
 -1     15605    3    0    3
 -2      6103      6119      5162      4229
 -1     15606    3    0    3
 -2      2884      5119      5122       797
 -1     15607    3    0    3
 -2       125      4271      3175      6051
 -1     15608    3    0    3
 -2      4644      3564      3784      3186
 -1     15609    3    0    3
 -2      5193      5194      1184      3794
 -1     15610    3    0    3
 -2      4722      4361      4723      3850
 -1     15611    3    0    3
 -2      3621      4637      4640      4160
 -1     15612    3    0    3
 -2      2278      2237      2347      6123
 -1     15613    3    0    3
 -2      3206      4348      4152      3912
 -1     15614    3    0    3
 -2       127       849      3271      6090
 -1     15615    3    0    3
 -2      1191      1129       963      6459
 -1     15616    3    0    3
 -2      3281      3184      5207      5201
 -1     15617    3    0    3
 -2      3867      3197      3265      3264
 -1     15618    3    0    3
 -2       708      5204       131       703
 -1     15619    3    0    3
 -2      1592      1419      1632      5185
 -1     15620    3    0    3
 -2      1184      5194      1148      1147
 -1     15621    3    0    3
 -2       704       703       132      6474
 -1     15622    3    0    3
 -2      3566      4649      6610      6614
 -1     15623    3    0    3
 -2      3070      6599      6531      3064
 -1     15624    3    0    3
 -2      1192      1294      1123      6434
 -1     15625    3    0    3
 -2       766      5215      3771      6199
 -1     15626    3    0    3
 -2      4338      4220      5103      3660
 -1     15627    3    0    3
 -2      3070      6599      3033      5155
 -1     15628    3    0    3
 -2      4026      5375      4087      5381
 -1     15629    3    0    3
 -2      4464      3846      4038      4580
 -1     15630    3    0    3
 -2      1667      1519      1621      6500
 -1     15631    3    0    3
 -2      6165      6591      2143      2152
 -1     15632    3    0    3
 -2      6165      6591      2152      4615
 -1     15633    3    0    3
 -2      5316       818       824      1010
 -1     15634    3    0    3
 -2      5905      5194      5197      6155
 -1     15635    3    0    3
 -2      5107       893       892      6448
 -1     15636    3    0    3
 -2      4065      3660      5179      6444
 -1     15637    3    0    3
 -2      1147      5194      5905      6155
 -1     15638    3    0    3
 -2      1531      6203      1262      5168
 -1     15639    3    0    3
 -2      5140      6557      5142      4292
 -1     15640    3    0    3
 -2      6198      6788      2370      6469
 -1     15641    3    0    3
 -2      6578      2312      2143      6094
 -1     15642    3    0    3
 -2      4100      5185      5154      6141
 -1     15643    3    0    3
 -2      2669      2670      2428      5723
 -1     15644    3    0    3
 -2      5211      1322      1289      1225
 -1     15645    3    0    3
 -2       488       489      3262      6606
 -1     15646    3    0    3
 -2      4610      2690      2577      2608
 -1     15647    3    0    3
 -2      5190      3494      3892      4404
 -1     15648    3    0    3
 -2      3257      5227      5220      5225
 -1     15649    3    0    3
 -2       725      5215      3202       135
 -1     15650    3    0    3
 -2      5219      3273      3274      3267
 -1     15651    3    0    3
 -2      6502      1217       917       997
 -1     15652    3    0    3
 -2      4854      4816      3911      3941
 -1     15653    3    0    3
 -2      6045      2681      4743      6130
 -1     15654    3    0    3
 -2      4836      2567      2564      4871
 -1     15655    3    0    3
 -2      3070      3081      3064      6531
 -1     15656    3    0    3
 -2      3453      6409      5558      6747
 -1     15657    3    0    3
 -2      5156      5161      4279      6491
 -1     15658    3    0    3
 -2      3561      3236      4663      3180
 -1     15659    3    0    3
 -2      4606      4171      4604      6602
 -1     15660    3    0    3
 -2      1100       996      1107      6491
 -1     15661    3    0    3
 -2      3986      4646      4622      6604
 -1     15662    3    0    3
 -2       945      1107       996      6491
 -1     15663    3    0    3
 -2      1552      5373      1443      6693
 -1     15664    3    0    3
 -2      1421      5209      1566      6460
 -1     15665    3    0    3
 -2      6106      4809      4605      6212
 -1     15666    3    0    3
 -2      2708      2672      2673      4590
 -1     15667    3    0    3
 -2      6171      3905      4629      6787
 -1     15668    3    0    3
 -2      5152      4157      5146      6163
 -1     15669    3    0    3
 -2      5168      1262      5167      6498
 -1     15670    3    0    3
 -2      5154      4153      5164      1631
 -1     15671    3    0    3
 -2      5151      4184      5152      6542
 -1     15672    3    0    3
 -2      4611      4354      4612      6576
 -1     15673    3    0    3
 -2      4309      5155      5159      6523
 -1     15674    3    0    3
 -2      6502      1217       997      5976
 -1     15675    3    0    3
 -2      4568      3110      4203      6114
 -1     15676    3    0    3
 -2       416      3142      3747      4571
 -1     15677    3    0    3
 -2      6519       778      1068      6540
 -1     15678    3    0    3
 -2       237      3069       669      6534
 -1     15679    3    0    3
 -2      1057      5700      1035      6323
 -1     15680    3    0    3
 -2       812      5157       827      3058
 -1     15681    3    0    3
 -2      4148      5162      5165      4178
 -1     15682    3    0    3
 -2      2182      2025      2183      6484
 -1     15683    3    0    3
 -2      2354      4606      2487      2635
 -1     15684    3    0    3
 -2      1936      1937      1765      6116
 -1     15685    3    0    3
 -2      1658      1550      1444      5401
 -1     15686    3    0    3
 -2      4229      6491      6103      5159
 -1     15687    3    0    3
 -2      3496      4568      6209      6782
 -1     15688    3    0    3
 -2      6221      4136      4806      6658
 -1     15689    3    0    3
 -2      5162      1466      1337      1263
 -1     15690    3    0    3
 -2      1452      1451      5172      1620
 -1     15691    3    0    3
 -2      1520      1422      1425      5174
 -1     15692    3    0    3
 -2      5158      4202      5976      5977
 -1     15693    3    0    3
 -2      5377      5376      1588      6312
 -1     15694    3    0    3
 -2      3090      3030      3064      6599
 -1     15695    3    0    3
 -2      4810      4143      4111      5373
 -1     15696    3    0    3
 -2      4213      6076      5146      4239
 -1     15697    3    0    3
 -2      5210      1279      5209      6118
 -1     15698    3    0    3
 -2      4363      5141      4577      3852
 -1     15699    3    0    3
 -2       683      6541       875      1063
 -1     15700    3    0    3
 -2      5720       671      1036      6545
 -1     15701    3    0    3
 -2      1567      1568      1569      6521
 -1     15702    3    0    3
 -2      5502       628      5505       816
 -1     15703    3    0    3
 -2      4178      4209      5160      5163
 -1     15704    3    0    3
 -2      4132      4083      5371      6074
 -1     15705    3    0    3
 -2      4206      5161      5167      6108
 -1     15706    3    0    3
 -2      5157       827       935       812
 -1     15707    3    0    3
 -2      5601      2832       667      6679
 -1     15708    3    0    3
 -2      4318      3139      3157      4523
 -1     15709    3    0    3
 -2      5154      1632      1660      1631
 -1     15710    3    0    3
 -2      3728      5096      5098      4253
 -1     15711    3    0    3
 -2      3772      3741      4527      3098
 -1     15712    3    0    3
 -2      5151      1653      1661      6542
 -1     15713    3    0    3
 -2      5163      4209      5160      6518
 -1     15714    3    0    3
 -2      5154      1419      1632      1631
 -1     15715    3    0    3
 -2      3546       683      5130      5131
 -1     15716    3    0    3
 -2      1569      1661      5153      6521
 -1     15717    3    0    3
 -2      2975      5093      4400      3713
 -1     15718    3    0    3
 -2      4027      5112      2897      4496
 -1     15719    3    0    3
 -2      3525      4172      4571      4574
 -1     15720    3    0    3
 -2       802       224       225      3135
 -1     15721    3    0    3
 -2       534       101      4920       552
 -1     15722    3    0    3
 -2      4539      2973      3565      3786
 -1     15723    3    0    3
 -2      5138      5135      4317      3145
 -1     15724    3    0    3
 -2       224       670       223      3114
 -1     15725    3    0    3
 -2      4172      3525      4366      4574
 -1     15726    3    0    3
 -2       421      4524      1902      1871
 -1     15727    3    0    3
 -2      5090      3763      5088      4161
 -1     15728    3    0    3
 -2      6378      1156      1049      1161
 -1     15729    3    0    3
 -2      6543      6541      5141      6784
 -1     15730    3    0    3
 -2      2485      2483      2657      4584
 -1     15731    3    0    3
 -2      6615      1873      4652      2031
 -1     15732    3    0    3
 -2      5101      4338      5100      4131
 -1     15733    3    0    3
 -2      6615      1873      2031      2004
 -1     15734    3    0    3
 -2      6453      5191      1123      6768
 -1     15735    3    0    3
 -2      5183      4157      4103      4619
 -1     15736    3    0    3
 -2      2988      3823      3595      2987
 -1     15737    3    0    3
 -2      6076      5144      5143      6551
 -1     15738    3    0    3
 -2      4292      4260      5145      5142
 -1     15739    3    0    3
 -2      4410      2920      2919      2960
 -1     15740    3    0    3
 -2      5096      3728      3688      5093
 -1     15741    3    0    3
 -2      2989      3007      3019      4510
 -1     15742    3    0    3
 -2      3682      6120      6436      4626
 -1     15743    3    0    3
 -2       476       477      3094      4031
 -1     15744    3    0    3
 -2      3136       223       671      5087
 -1     15745    3    0    3
 -2      5099      5098      2905      4125
 -1     15746    3    0    3
 -2      3875      5120      3843      4558
 -1     15747    3    0    3
 -2       892      4065      5179      6444
 -1     15748    3    0    3
 -2      5795      3602      4979      3571
 -1     15749    3    0    3
 -2      4318      4579      5143      4292
 -1     15750    3    0    3
 -2      4233      6521      6122      5150
 -1     15751    3    0    3
 -2      4495       416      1806      4571
 -1     15752    3    0    3
 -2      3972      6261      3937      4821
 -1     15753    3    0    3
 -2      3100      3904      6559      6529
 -1     15754    3    0    3
 -2      4287      5149      5147      4333
 -1     15755    3    0    3
 -2      1310      1327      5149      6133
 -1     15756    3    0    3
 -2      5710      2377      2539      4618
 -1     15757    3    0    3
 -2      5135      3628      5138      4317
 -1     15758    3    0    3
 -2      5137      3489      4359      5139
 -1     15759    3    0    3
 -2      4196      5136      5135      3855
 -1     15760    3    0    3
 -2      4172      3639      4571      4574
 -1     15761    3    0    3
 -2      2502      2485      2503      6510
 -1     15762    3    0    3
 -2      4270      1831      4565      4564
 -1     15763    3    0    3
 -2      3747      3141      3142       415
 -1     15764    3    0    3
 -2      4270      1830      1831      4564
 -1     15765    3    0    3
 -2      2107      6154      4612      6576
 -1     15766    3    0    3
 -2       727      4359      1070      5139
 -1     15767    3    0    3
 -2      4290      5129      3852      4363
 -1     15768    3    0    3
 -2      3156      3121      5128      3105
 -1     15769    3    0    3
 -2      4074      4566      3525      4564
 -1     15770    3    0    3
 -2      6138      4578      4577      6630
 -1     15771    3    0    3
 -2      3154      3110      3130      4203
 -1     15772    3    0    3
 -2      5509      3698      5510       601
 -1     15773    3    0    3
 -2      1408      6142      6557      6771
 -1     15774    3    0    3
 -2      4522      3128      4149      4523
 -1     15775    3    0    3
 -2      5214      3771      4430      3274
 -1     15776    3    0    3
 -2       437      4560      2886      2915
 -1     15777    3    0    3
 -2      5164      5154      1419      6141
 -1     15778    3    0    3
 -2      5086      3137      3157      3139
 -1     15779    3    0    3
 -2       670      1066      6545      6548
 -1     15780    3    0    3
 -2      3855      5136      4366      4575
 -1     15781    3    0    3
 -2      5086      5088      4318      3157
 -1     15782    3    0    3
 -2      4233      5153      5151      6122
 -1     15783    3    0    3
 -2      1654      1653      5151      6552
 -1     15784    3    0    3
 -2      5491      3544      4090      5488
 -1     15785    3    0    3
 -2      1995      3664      1913      6572
 -1     15786    3    0    3
 -2      5135      5136      4366      3855
 -1     15787    3    0    3
 -2      4581      4587      6510      6553
 -1     15788    3    0    3
 -2      5134      5136      4196      3855
 -1     15789    3    0    3
 -2      2260      4579      2486      6566
 -1     15790    3    0    3
 -2      6506      5147      6517      6554
 -1     15791    3    0    3
 -2      3824      3855      5134      4573
 -1     15792    3    0    3
 -2      4045      3639      4575      4573
 -1     15793    3    0    3
 -2      5146      4157      4213      4582
 -1     15794    3    0    3
 -2      5091       802      3135      5090
 -1     15795    3    0    3
 -2      4522      1899      3694      3107
 -1     15796    3    0    3
 -2      2510      6627      4598      6600
 -1     15797    3    0    3
 -2      3747      4172      4270      3964
 -1     15798    3    0    3
 -2      6513      2580      2578      6605
 -1     15799    3    0    3
 -2      5177      5178      4129      6070
 -1     15800    3    0    3
 -2      5426       960      1162      6134
 -1     15801    3    0    3
 -2      3655      2988      3008      4125
 -1     15802    3    0    3
 -2      5096      5098      3557      4125
 -1     15803    3    0    3
 -2      3639      4575      4572      4045
 -1     15804    3    0    3
 -2      3855      5134      5136      3824
 -1     15805    3    0    3
 -2      3622      3133      5088      5090
 -1     15806    3    0    3
 -2      3489      5136      5134      3824
 -1     15807    3    0    3
 -2      3688      4125      3655      3008
 -1     15808    3    0    3
 -2      4539      2973      4458      3595
 -1     15809    3    0    3
 -2      3688      4125      3008      3728
 -1     15810    3    0    3
 -2      4103      5184      5178      5714
 -1     15811    3    0    3
 -2      1902       420      1899      4522
 -1     15812    3    0    3
 -2      4584      4233      5148      4287
 -1     15813    3    0    3
 -2      5222       967      6465      6489
 -1     15814    3    0    3
 -2      4045      4149      4343      4576
 -1     15815    3    0    3
 -2      4097      4579      3664      2126
 -1     15816    3    0    3
 -2      6567      1913      2517      2108
 -1     15817    3    0    3
 -2      5091       225      3094      3135
 -1     15818    3    0    3
 -2      3493       473      3960       474
 -1     15819    3    0    3
 -2      5088      4318      3763      5086
 -1     15820    3    0    3
 -2      4294      4579      5143      4318
 -1     15821    3    0    3
 -2      3114      3136      3137      5087
 -1     15822    3    0    3
 -2      3123      1871      4525      4524
 -1     15823    3    0    3
 -2      3664      2126      1995      1902
 -1     15824    3    0    3
 -2      3728      2906      2907      2933
 -1     15825    3    0    3
 -2      4523      4519      4524      4526
 -1     15826    3    0    3
 -2      3730      2894      3020      2893
 -1     15827    3    0    3
 -2      1660      5152      1546      1632
 -1     15828    3    0    3
 -2      2959      5108      3929      3506
 -1     15829    3    0    3
 -2      4494      5100      5097      3623
 -1     15830    3    0    3
 -2      3682      6120      3538      1837
 -1     15831    3    0    3
 -2      4643      6586      1889      3564
 -1     15832    3    0    3
 -2      3787      5196      5198      3731
 -1     15833    3    0    3
 -2      3448      2897      5112      4496
 -1     15834    3    0    3
 -2      4542      3862      4543      4082
 -1     15835    3    0    3
 -2      5181      5179      4021      4080
 -1     15836    3    0    3
 -2      5098      5099      2905       850
 -1     15837    3    0    3
 -2      3929      5108      5105      3506
 -1     15838    3    0    3
 -2      1531      6203      1519      1586
 -1     15839    3    0    3
 -2      5111      3760      5109      4158
 -1     15840    3    0    3
 -2      4027      3015      2921      5115
 -1     15841    3    0    3
 -2      4310      2959      2969      3477
 -1     15842    3    0    3
 -2      3786      3533      3023      3565
 -1     15843    3    0    3
 -2      3448      3477      2969      3016
 -1     15844    3    0    3
 -2      4264      5144      5143      4239
 -1     15845    3    0    3
 -2      2897      2969      3618      2922
 -1     15846    3    0    3
 -2      4022      3760      4432      5180
 -1     15847    3    0    3
 -2      2894      4401      2900      4540
 -1     15848    3    0    3
 -2      5105      3533      3506      4543
 -1     15849    3    0    3
 -2      3802      4254      4055      4546
 -1     15850    3    0    3
 -2      3870      4630      5194      3835
 -1     15851    3    0    3
 -2      4544      3802      4350      4546
 -1     15852    3    0    3
 -2      4545      4547      4205      3676
 -1     15853    3    0    3
 -2      4310      5109      5108      3477
 -1     15854    3    0    3
 -2      3448      5112      5109      3995
 -1     15855    3    0    3
 -2      4158      4022      5109      3995
 -1     15856    3    0    3
 -2      5101      3660      5104      4220
 -1     15857    3    0    3
 -2      2286      2292      4611      6593
 -1     15858    3    0    3
 -2      3963      5102      4338      5100
 -1     15859    3    0    3
 -2      4338      5176       984       891
 -1     15860    3    0    3
 -2      2920      2918      3724      4120
 -1     15861    3    0    3
 -2      3895      3809      5197      3784
 -1     15862    3    0    3
 -2      3554      5119      4120      5117
 -1     15863    3    0    3
 -2      3839      5195      5192      5905
 -1     15864    3    0    3
 -2      5124      3658      5126      4336
 -1     15865    3    0    3
 -2      5194      3870      5193      3905
 -1     15866    3    0    3
 -2      3789      3761      3570      4563
 -1     15867    3    0    3
 -2      4664      2016      2015      6583
 -1     15868    3    0    3
 -2      6521      1593      5163      1569
 -1     15869    3    0    3
 -2      1191      5197      6079      6459
 -1     15870    3    0    3
 -2      4715      4183      4713      6150
 -1     15871    3    0    3
 -2       690      6009       992      5691
 -1     15872    3    0    3
 -2      3809      5194      3487      5197
 -1     15873    3    0    3
 -2      2887      4664      4508      4561
 -1     15874    3    0    3
 -2      4548      6596      6166      4205
 -1     15875    3    0    3
 -2      3517      2929      5230      2954
 -1     15876    3    0    3
 -2      4350      2893      4545      4544
 -1     15877    3    0    3
 -2      3761      3658      5125      3789
 -1     15878    3    0    3
 -2      6520      1665      1406      1407
 -1     15879    3    0    3
 -2      1889      4643      1932      1844
 -1     15880    3    0    3
 -2      2893      2982      4350      4545
 -1     15881    3    0    3
 -2      3554      5192      4251      3906
 -1     15882    3    0    3
 -2      3965      5191      4627      3936
 -1     15883    3    0    3
 -2      2079      4560      2036      1707
 -1     15884    3    0    3
 -2      5196      5195      3813      3787
 -1     15885    3    0    3
 -2      4360      4386      2964      3022
 -1     15886    3    0    3
 -2      3021      2945      4302      3676
 -1     15887    3    0    3
 -2      3965      3858      5191      3936
 -1     15888    3    0    3
 -2       192      2929       193       848
 -1     15889    3    0    3
 -2      5102      5100      4494      3823
 -1     15890    3    0    3
 -2       839      5118      1029       829
 -1     15891    3    0    3
 -2      3760      4022      4158      5180
 -1     15892    3    0    3
 -2      3485      4667      4033      4665
 -1     15893    3    0    3
 -2      2956       436      1706       435
 -1     15894    3    0    3
 -2      3893      3485      2914      4665
 -1     15895    3    0    3
 -2      2303      4628      2081      6168
 -1     15896    3    0    3
 -2      2143      4618      2374      6592
 -1     15897    3    0    3
 -2      4915       104      1904      1848
 -1     15898    3    0    3
 -2      3621      4636      4637      4160
 -1     15899    3    0    3
 -2      3995      5112      3965      4550
 -1     15900    3    0    3
 -2      4160      3223      4637      3284
 -1     15901    3    0    3
 -2      4629      3962      5193      3905
 -1     15902    3    0    3
 -2      3506      3477      5108      4546
 -1     15903    3    0    3
 -2      4047      5181      3991      4617
 -1     15904    3    0    3
 -2      4549      6168      4627      2059
 -1     15905    3    0    3
 -2      2973      2900      3023      3786
 -1     15906    3    0    3
 -2      5724      6443      6129      5181
 -1     15907    3    0    3
 -2      4617      4614      4080      6594
 -1     15908    3    0    3
 -2      5187      3954      5189      4017
 -1     15909    3    0    3
 -2      2648      6605      4621      4622
 -1     15910    3    0    3
 -2      6639       652       965       873
 -1     15911    3    0    3
 -2       437      4560      2915      1707
 -1     15912    3    0    3
 -2      2072      2000      2304      6596
 -1     15913    3    0    3
 -2      5154      5185      4122      6539
 -1     15914    3    0    3
 -2      4264      5092      3861      4243
 -1     15915    3    0    3
 -2      1476      1319      1368      6163
 -1     15916    3    0    3
 -2      4489      3604      4882      3634
 -1     15917    3    0    3
 -2      4464      3846      4525      4528
 -1     15918    3    0    3
 -2      5104      4065      5105      3519
 -1     15919    3    0    3
 -2      1807      2976      4528      4529
 -1     15920    3    0    3
 -2      3963      5099      5102      4494
 -1     15921    3    0    3
 -2      4220      2993      5106      3519
 -1     15922    3    0    3
 -2      4598      2328      2351      6598
 -1     15923    3    0    3
 -2      4874      3758      4873      3729
 -1     15924    3    0    3
 -2      3730      4350      3477      4546
 -1     15925    3    0    3
 -2      4239      5146      4213      4582
 -1     15926    3    0    3
 -2      2072      2300      6166      6596
 -1     15927    3    0    3
 -2      5093      3688      4216      4531
 -1     15928    3    0    3
 -2      4651      3280      3892      3261
 -1     15929    3    0    3
 -2      5142      4339      5141      4034
 -1     15930    3    0    3
 -2      6094      2143      2374      2312
 -1     15931    3    0    3
 -2      3007      2955      3688      3024
 -1     15932    3    0    3
 -2      2370      2302      2289      6198
 -1     15933    3    0    3
 -2      4552      1748      1756      2081
 -1     15934    3    0    3
 -2      6675      1302      5411      5412
 -1     15935    3    0    3
 -2      1477      3920      1064      5789
 -1     15936    3    0    3
 -2      1317      6159      5174      5223
 -1     15937    3    0    3
 -2      2174      2216      6152      6588
 -1     15938    3    0    3
 -2      5122       922       804       970
 -1     15939    3    0    3
 -2       125      4271      3270      3175
 -1     15940    3    0    3
 -2      3809      3621      4030      4640
 -1     15941    3    0    3
 -2      1933      2022      4636      2289
 -1     15942    3    0    3
 -2      4637      4030      3621      4640
 -1     15943    3    0    3
 -2      4548      6596      4205      4545
 -1     15944    3    0    3
 -2      4508      2888      2886      4139
 -1     15945    3    0    3
 -2      3813      3658      5124      4336
 -1     15946    3    0    3
 -2      3875      5195      5192      3839
 -1     15947    3    0    3
 -2      4628      1945      3692      6584
 -1     15948    3    0    3
 -2      2886      4508      4139      4561
 -1     15949    3    0    3
 -2      2942      4302      2945      4549
 -1     15950    3    0    3
 -2      3551      4410      2960      4555
 -1     15951    3    0    3
 -2      4510      3018      3007      3019
 -1     15952    3    0    3
 -2      4247      3613      2962      2941
 -1     15953    3    0    3
 -2      3977      4505      4671      4669
 -1     15954    3    0    3
 -2      4212      4236      4667      4033
 -1     15955    3    0    3
 -2      3003      4311      3709      3004
 -1     15956    3    0    3
 -2      1173      6415      6170      5277
 -1     15957    3    0    3
 -2       663       506        60       798
 -1     15958    3    0    3
 -2      4264      5144      4580      4243
 -1     15959    3    0    3
 -2      2211      2365      2152      6165
 -1     15960    3    0    3
 -2      3787      4036      6083      4631
 -1     15961    3    0    3
 -2      3794      3932      5193      3870
 -1     15962    3    0    3
 -2      1747      6166      2072      2059
 -1     15963    3    0    3
 -2      4915       104      1848       551
 -1     15964    3    0    3
 -2      4616      2143      6578      6591
 -1     15965    3    0    3
 -2      2427      2332      2370      6167
 -1     15966    3    0    3
 -2      5170      1597      6493      6466
 -1     15967    3    0    3
 -2      6171      4627      2300      6590
 -1     15968    3    0    3
 -2      4630      4091      4629      2289
 -1     15969    3    0    3
 -2      2884      4492      4120      2919
 -1     15970    3    0    3
 -2      4038      1985      2037      4580
 -1     15971    3    0    3
 -2      4525      3123      4524      3552
 -1     15972    3    0    3
 -2      4114      6504      4148      4607
 -1     15973    3    0    3
 -2      4065       892      5107      5106
 -1     15974    3    0    3
 -2      4550      4496      3965      4551
 -1     15975    3    0    3
 -2      5111      5110      1004       695
 -1     15976    3    0    3
 -2      4599      2660      2584      6182
 -1     15977    3    0    3
 -2       660      5103      2977       182
 -1     15978    3    0    3
 -2      2905       179       850       180
 -1     15979    3    0    3
 -2      2974      2977      5102      3823
 -1     15980    3    0    3
 -2      3962      3991      5182      4021
 -1     15981    3    0    3
 -2      4038      2037      4405      4580
 -1     15982    3    0    3
 -2      4470      1900      1913      2108
 -1     15983    3    0    3
 -2      4519      4318      4149      4576
 -1     15984    3    0    3
 -2      6785      6638      6117      6798
 -1     15985    3    0    3
 -2        20      1808      1807       473
 -1     15986    3    0    3
 -2      1830      3141       415       414
 -1     15987    3    0    3
 -2      4437      5134      3151      3129
 -1     15988    3    0    3
 -2      6037       643       929      5262
 -1     15989    3    0    3
 -2      2587      2573      2701      6595
 -1     15990    3    0    3
 -2      5153      1660      1569      1631
 -1     15991    3    0    3
 -2      3353      4412      3360      4888
 -1     15992    3    0    3
 -2      5184      4047      4620      4103
 -1     15993    3    0    3
 -2      4239      5144      5146      4188
 -1     15994    3    0    3
 -2      5150      4209      4258      4586
 -1     15995    3    0    3
 -2      4005      5221      5223      3945
 -1     15996    3    0    3
 -2      1000      6205      1158      1174
 -1     15997    3    0    3
 -2      2269      5660      2336      2396
 -1     15998    3    0    3
 -2      5517      1431      1492      1253
 -1     15999    3    0    3
 -2      6138      3496      6630      4577
 -1     16000    3    0    3
 -2      4567      4389      3154      4203
 -1     16001    3    0    3
 -2      4425      3921      5225      4662
 -1     16002    3    0    3
 -2      4103      4076      5183      4619
 -1     16003    3    0    3
 -2      5375      5373      4111      5988
 -1     16004    3    0    3
 -2      4795      6023      4793      3531
 -1     16005    3    0    3
 -2      2120      1952      1830      4270
 -1     16006    3    0    3
 -2      2359      2183      2340      4647
 -1     16007    3    0    3
 -2      4598      4604      4206      6181
 -1     16008    3    0    3
 -2      6185      4280      4059      6257
 -1     16009    3    0    3
 -2      4076      5184      4017      4620
 -1     16010    3    0    3
 -2      5087      3155      5086      4437
 -1     16011    3    0    3
 -2      5167      4171      4206      5168
 -1     16012    3    0    3
 -2      4589      2633      2660      6182
 -1     16013    3    0    3
 -2      5218      3908      5219      4409
 -1     16014    3    0    3
 -2      3590      4480      5789      5402
 -1     16015    3    0    3
 -2      2601      4609      2696      6201
 -1     16016    3    0    3
 -2      5164      4153      5163      1631
 -1     16017    3    0    3
 -2      5374      4111      5372      5988
 -1     16018    3    0    3
 -2      4976      4342      4904      3470
 -1     16019    3    0    3
 -2      4599      4178      4209      4596
 -1     16020    3    0    3
 -2      2351      2350      4598      6598
 -1     16021    3    0    3
 -2      5322      3279      4754      3246
 -1     16022    3    0    3
 -2      5394      1281      5808      6049
 -1     16023    3    0    3
 -2      4604      4171      4603      6602
 -1     16024    3    0    3
 -2       935      1197       917      6184
 -1     16025    3    0    3
 -2      1220       911       997      5976
 -1     16026    3    0    3
 -2       407      1858      3057      6096
 -1     16027    3    0    3
 -2      5167      1101      1262      6108
 -1     16028    3    0    3
 -2      5148      5147      4314      4287
 -1     16029    3    0    3
 -2      2509      2350      4598      2510
 -1     16030    3    0    3
 -2      3979      4005      4037      4657
 -1     16031    3    0    3
 -2      3160      3702      3183      3158
 -1     16032    3    0    3
 -2      4921      4919      4489      3958
 -1     16033    3    0    3
 -2        88      1753       527        87
 -1     16034    3    0    3
 -2       988      1086      1213      5544
 -1     16035    3    0    3
 -2      1246      1223      5223      1317
 -1     16036    3    0    3
 -2      3621      6152      2289      4630
 -1     16037    3    0    3
 -2      2416      2211      2305      6575
 -1     16038    3    0    3
 -2      4625      4017      3954      4623
 -1     16039    3    0    3
 -2      3653      3897      3867      4635
 -1     16040    3    0    3
 -2      1591      1491      1456      6188
 -1     16041    3    0    3
 -2      5726      1312      1094      5188
 -1     16042    3    0    3
 -2      5210      4007      5209      4041
 -1     16043    3    0    3
 -2      1819      4130      2032      2025
 -1     16044    3    0    3
 -2      3887      3217      5226      4512
 -1     16045    3    0    3
 -2      4721      3161      3162      4720
 -1     16046    3    0    3
 -2      5181      5178      6442      6443
 -1     16047    3    0    3
 -2      2519      2696      2690      6202
 -1     16048    3    0    3
 -2      3487      3835      5194      3809
 -1     16049    3    0    3
 -2      3216      3180      3217      4663
 -1     16050    3    0    3
 -2      1474      5724      6455      5181
 -1     16051    3    0    3
 -2      4653      3209      3269      3240
 -1     16052    3    0    3
 -2      5220      4409      5217      4043
 -1     16053    3    0    3
 -2      4010      5226      3887      4425
 -1     16054    3    0    3
 -2      6674      4023      4832      3966
 -1     16055    3    0    3
 -2      1496      1497      1498      6480
 -1     16056    3    0    3
 -2      5146      4239      4188      4582
 -1     16057    3    0    3
 -2      5099      3557      3963      6193
 -1     16058    3    0    3
 -2      4618      3991      4021      4617
 -1     16059    3    0    3
 -2      1603      6557      1408      1410
 -1     16060    3    0    3
 -2      2174      1945      4628      6584
 -1     16061    3    0    3
 -2      3174      5290      3812      5288
 -1     16062    3    0    3
 -2      2005      4650      1834      6436
 -1     16063    3    0    3
 -2      6054      2169      4732      6186
 -1     16064    3    0    3
 -2      6206      2321      2138      2139
 -1     16065    3    0    3
 -2      4315      5199      4443      6474
 -1     16066    3    0    3
 -2       324      6717      1729      1839
 -1     16067    3    0    3
 -2      4430      4651      5214      3261
 -1     16068    3    0    3
 -2      3912      4715      4152      4119
 -1     16069    3    0    3
 -2      4865      4866      4092      4288
 -1     16070    3    0    3
 -2      5221      3979      5211      6200
 -1     16071    3    0    3
 -2      5207      3809      4644      5201
 -1     16072    3    0    3
 -2       122       123       715      3220
 -1     16073    3    0    3
 -2      3181      4348      4152      3206
 -1     16074    3    0    3
 -2      4560      2079      2036      6174
 -1     16075    3    0    3
 -2      3198      3181      4348      3182
 -1     16076    3    0    3
 -2      4633      3564      1932      1963
 -1     16077    3    0    3
 -2      3802      3995      4547      4022
 -1     16078    3    0    3
 -2      3653      1724      4635      3511
 -1     16079    3    0    3
 -2      6198      4635      4629      6469
 -1     16080    3    0    3
 -2      2022      4091      2289      6198
 -1     16081    3    0    3
 -2      4160      3223      3283      4638
 -1     16082    3    0    3
 -2      5106       660       984       659
 -1     16083    3    0    3
 -2      2022      4635      4091      6198
 -1     16084    3    0    3
 -2      3951      5213      4649      3986
 -1     16085    3    0    3
 -2      4103      6595      4047      4620
 -1     16086    3    0    3
 -2      4065      4432      5179      4055
 -1     16087    3    0    3
 -2      6202      2577      4610      2690
 -1     16088    3    0    3
 -2      3202      5215      3632      3203
 -1     16089    3    0    3
 -2      4646      2144      6604      6615
 -1     16090    3    0    3
 -2      1289      5211      1225      6200
 -1     16091    3    0    3
 -2      3375      4948      4947      3374
 -1     16092    3    0    3
 -2      4854      4858      3911      6700
 -1     16093    3    0    3
 -2      3185      6472      3756      4282
 -1     16094    3    0    3
 -2      5211      5209      1322      6118
 -1     16095    3    0    3
 -2      3921      5222      5212      3979
 -1     16096    3    0    3
 -2      4657      2319      2320      2577
 -1     16097    3    0    3
 -2      2695      2601      6201      6634
 -1     16098    3    0    3
 -2      2475      6246      4872      2474
 -1     16099    3    0    3
 -2      1451      5166      5172      1620
 -1     16100    3    0    3
 -2      5159      1396      5160      6522
 -1     16101    3    0    3
 -2      2407      4604      2509      6181
 -1     16102    3    0    3
 -2       944      1106       945      5159
 -1     16103    3    0    3
 -2      4148      5162      4206      5168
 -1     16104    3    0    3
 -2      1101      1263      1262      6108
 -1     16105    3    0    3
 -2      2194      4585      2086      6644
 -1     16106    3    0    3
 -2      3921      4425      4658      4130
 -1     16107    3    0    3
 -2      3979      4657      4647      6484
 -1     16108    3    0    3
 -2      5213      3926      5189      4320
 -1     16109    3    0    3
 -2      4594      1766      6659      6684
 -1     16110    3    0    3
 -2      2519      4602      2684      6628
 -1     16111    3    0    3
 -2      5162      1531      1466      1263
 -1     16112    3    0    3
 -2      5167      5169      4171      6498
 -1     16113    3    0    3
 -2      5213      5189      6199      4320
 -1     16114    3    0    3
 -2      5164      4153      4100      4600
 -1     16115    3    0    3
 -2      4122      5183      5152      6539
 -1     16116    3    0    3
 -2       492       142       833      3327
 -1     16117    3    0    3
 -2      5164      5166      4069      6460
 -1     16118    3    0    3
 -2      4425      3887      5222      4658
 -1     16119    3    0    3
 -2      6202      2577      2519      4608
 -1     16120    3    0    3
 -2      2496      4609      4610      6509
 -1     16121    3    0    3
 -2      6064      4080      4129      5176
 -1     16122    3    0    3
 -2      5213      5189      6205      6199
 -1     16123    3    0    3
 -2      5160      4178      5163      6511
 -1     16124    3    0    3
 -2      5183      1591      1545      1592
 -1     16125    3    0    3
 -2      5155       705       944      6507
 -1     16126    3    0    3
 -2      4613      5177      4157      4103
 -1     16127    3    0    3
 -2      4363      5147      5132      4333
 -1     16128    3    0    3
 -2      1806      3747       416       415
 -1     16129    3    0    3
 -2      5151      5148      1655      6508
 -1     16130    3    0    3
 -2      3842       727      1070      5139
 -1     16131    3    0    3
 -2       748      4359       749      5137
 -1     16132    3    0    3
 -2      4601      4148      5165      4178
 -1     16133    3    0    3
 -2      4576      4343      3824      6556
 -1     16134    3    0    3
 -2      3842      6543      1070       915
 -1     16135    3    0    3
 -2      3979      4005      4657      3945
 -1     16136    3    0    3
 -2      5186      1278      1495      5210
 -1     16137    3    0    3
 -2      5171      4148      5168      6495
 -1     16138    3    0    3
 -2      5147      6563      5132      4333
 -1     16139    3    0    3
 -2      4608      2519      6202      6628
 -1     16140    3    0    3
 -2      5133      6111       661      6519
 -1     16141    3    0    3
 -2      4255      5167      4225      4603
 -1     16142    3    0    3
 -2      5985       364      1713      1895
 -1     16143    3    0    3
 -2      4213      6076      4239      5145
 -1     16144    3    0    3
 -2      4363      4314      5141      6784
 -1     16145    3    0    3
 -2      3904      4290      5132      4389
 -1     16146    3    0    3
 -2      6629      2450      4586      2341
 -1     16147    3    0    3
 -2      4568      3111      3110      3127
 -1     16148    3    0    3
 -2      2031      4646      4164      6615
 -1     16149    3    0    3
 -2      6122      1655      1565      1661
 -1     16150    3    0    3
 -2      4588      2678      4587      6640
 -1     16151    3    0    3
 -2       493      1879      4928       494
 -1     16152    3    0    3
 -2      4171      5167      4206      4603
 -1     16153    3    0    3
 -2      4603      4171      4225      4605
 -1     16154    3    0    3
 -2      1396      5159      5160      6119
 -1     16155    3    0    3
 -2      2576      4823      2568      2575
 -1     16156    3    0    3
 -2      1427      1596      1586      6203
 -1     16157    3    0    3
 -2      3076      3038      4593      6210
 -1     16158    3    0    3
 -2      3993      4831      4053      5394
 -1     16159    3    0    3
 -2      4816      2710      2627      6285
 -1     16160    3    0    3
 -2      2264      6676      2324      6215
 -1     16161    3    0    3
 -2      5390      2776      5392      3521
 -1     16162    3    0    3
 -2      5710      4047      3991      4617
 -1     16163    3    0    3
 -2      4618      2143      4616      6592
 -1     16164    3    0    3
 -2      4809      4811      4168      5989
 -1     16165    3    0    3
 -2      4832      2583      2611      6213
 -1     16166    3    0    3
 -2      2480      2479      5690      5692
 -1     16167    3    0    3
 -2      4824      2564      2636      4860
 -1     16168    3    0    3
 -2      5379      3972      3911      5385
 -1     16169    3    0    3
 -2      2583      2325      2479      5692
 -1     16170    3    0    3
 -2      4083      4819      4808      4107
 -1     16171    3    0    3
 -2      4660      3887      4658      3945
 -1     16172    3    0    3
 -2       458      6793      6670      3062
 -1     16173    3    0    3
 -2      5392      2766      5861      3521
 -1     16174    3    0    3
 -2       252      5895       253       739
 -1     16175    3    0    3
 -2      6676      4831      2264      6058
 -1     16176    3    0    3
 -2      4649      4625      3926      4135
 -1     16177    3    0    3
 -2      1077      6616      1328      1329
 -1     16178    3    0    3
 -2      1912      6791      1754      4569
 -1     16179    3    0    3
 -2      4609      4093      4114      4606
 -1     16180    3    0    3
 -2      1959      1791      1958      6221
 -1     16181    3    0    3
 -2      1386      1596      1597      5170
 -1     16182    3    0    3
 -2      5993      2176      2406      4800
 -1     16183    3    0    3
 -2       661      5133       662      6112
 -1     16184    3    0    3
 -2      2814      5715      6690      4189
 -1     16185    3    0    3
 -2      4788      2461      4786      6004
 -1     16186    3    0    3
 -2      4860      2564      2636      2528
 -1     16187    3    0    3
 -2      5401      5399      3810      3872
 -1     16188    3    0    3
 -2      2424      4738      4767      5967
 -1     16189    3    0    3
 -2      2297      2003      4855      6635
 -1     16190    3    0    3
 -2      3976      5223      5174      6159
 -1     16191    3    0    3
 -2      1784      4864      3338       327
 -1     16192    3    0    3
 -2      5408      4128      5409      3732
 -1     16193    3    0    3
 -2      4865      4009      3792      4857
 -1     16194    3    0    3
 -2      4859      3792      4855      3849
 -1     16195    3    0    3
 -2      2002      1729      2055      6099
 -1     16196    3    0    3
 -2      5425      3790      4860      3815
 -1     16197    3    0    3
 -2      3877      4822      3911      4858
 -1     16198    3    0    3
 -2      3442      3421      3440      3645
 -1     16199    3    0    3
 -2      3512      3981      4866      4863
 -1     16200    3    0    3
 -2      4872      3758      3703      5436
 -1     16201    3    0    3
 -2      4092      3512      4863      4864
 -1     16202    3    0    3
 -2      3416      3329      3317      4867
 -1     16203    3    0    3
 -2      6266      1996      2193      2192
 -1     16204    3    0    3
 -2      5374      1283      1083      1389
 -1     16205    3    0    3
 -2      2257      2258      2360      6681
 -1     16206    3    0    3
 -2      3785      4873      4838      3810
 -1     16207    3    0    3
 -2      2184      2185      4859      6224
 -1     16208    3    0    3
 -2      3877      2512      4822      4858
 -1     16209    3    0    3
 -2      3911      5417      3849      4854
 -1     16210    3    0    3
 -2      4865      3317      3341      4288
 -1     16211    3    0    3
 -2      2527      4871      2564      2692
 -1     16212    3    0    3
 -2      3412      3387       335      4895
 -1     16213    3    0    3
 -2      4823      4824      3907      2568
 -1     16214    3    0    3
 -2      1794      4944      2030      1859
 -1     16215    3    0    3
 -2      3937      3877      4824      4822
 -1     16216    3    0    3
 -2      3716      3885      4272      5428
 -1     16217    3    0    3
 -2      3888      4870      4500      4869
 -1     16218    3    0    3
 -2      5545       868      3607      5542
 -1     16219    3    0    3
 -2      4265      4891      3814      4893
 -1     16220    3    0    3
 -2      4868      4426      6705      6713
 -1     16221    3    0    3
 -2      5437      5438      3758      6115
 -1     16222    3    0    3
 -2      3399      4890      3358       333
 -1     16223    3    0    3
 -2      3359      4039      3814      3389
 -1     16224    3    0    3
 -2      5771      3326       785      6223
 -1     16225    3    0    3
 -2      5434      4459      3382       854
 -1     16226    3    0    3
 -2      3315      4856      4862      4865
 -1     16227    3    0    3
 -2      4864      3417      4867      4426
 -1     16228    3    0    3
 -2      4858      4859      3815      6224
 -1     16229    3    0    3
 -2      2699      4873      2691      2489
 -1     16230    3    0    3
 -2      3758      4874      4872      3703
 -1     16231    3    0    3
 -2      4877      4878      2384      6088
 -1     16232    3    0    3
 -2      5439      3677      4094      3641
 -1     16233    3    0    3
 -2       329      4869      3410      1817
 -1     16234    3    0    3
 -2      5434      3400      3442      3547
 -1     16235    3    0    3
 -2      3917      4660      3856      4853
 -1     16236    3    0    3
 -2      3358      4412      3359      3360
 -1     16237    3    0    3
 -2      4867      4426      3512      4864
 -1     16238    3    0    3
 -2      3905      3858      3936      5191
 -1     16239    3    0    3
 -2      4864      3417      4426      3338
 -1     16240    3    0    3
 -2      1953      1954      2231      5816
 -1     16241    3    0    3
 -2      5977       771       682       911
 -1     16242    3    0    3
 -2      3677      4876      3888      4500
 -1     16243    3    0    3
 -2      4500      4870      3677      3645
 -1     16244    3    0    3
 -2      2202      4975      5785      5790
 -1     16245    3    0    3
 -2      4936      4123      4939      3585
 -1     16246    3    0    3
 -2      3556      4367      4342      5508
 -1     16247    3    0    3
 -2       600        86        87      1752
 -1     16248    3    0    3
 -2      3441      4870      3420      4500
 -1     16249    3    0    3
 -2      4877      4875      3641      6088
 -1     16250    3    0    3
 -2      4836      3907      4835      3872
 -1     16251    3    0    3
 -2      5387      3844      5425      6264
 -1     16252    3    0    3
 -2      3792      4865      5420      5427
 -1     16253    3    0    3
 -2      3733      3764      4861      5426
 -1     16254    3    0    3
 -2      3538      3247      1837      3248
 -1     16255    3    0    3
 -2      5426      3790      5436      6109
 -1     16256    3    0    3
 -2      4866      4865      4312      4288
 -1     16257    3    0    3
 -2      4860      2636      2512      2528
 -1     16258    3    0    3
 -2      5398      4835      3907      3872
 -1     16259    3    0    3
 -2       456      4701      1796      1897
 -1     16260    3    0    3
 -2      5418      3792      3919      4420
 -1     16261    3    0    3
 -2      3911      5385      5423      6011
 -1     16262    3    0    3
 -2      2631      6261      2694      2711
 -1     16263    3    0    3
 -2      4855      2003      2002      6717
 -1     16264    3    0    3
 -2      2320      4610      2577      2608
 -1     16265    3    0    3
 -2      4816      2566      4814      6697
 -1     16266    3    0    3
 -2      4130      4425      4658      3561
 -1     16267    3    0    3
 -2      4026      5378      3972      4815
 -1     16268    3    0    3
 -2      4855      4009      4859      2003
 -1     16269    3    0    3
 -2      3538      3247      3682      1837
 -1     16270    3    0    3
 -2      4773      6042      2665      4744
 -1     16271    3    0    3
 -2      2496      2690      4610      2608
 -1     16272    3    0    3
 -2      5221      4005      5172      4037
 -1     16273    3    0    3
 -2      4660      6606      3856      6795
 -1     16274    3    0    3
 -2      3844      3877      5387      5425
 -1     16275    3    0    3
 -2      4032      3976      5174      5377
 -1     16276    3    0    3
 -2      3441      4870      4500      3645
 -1     16277    3    0    3
 -2      1515      1629      5387      5425
 -1     16278    3    0    3
 -2      5399      3907      4836      3872
 -1     16279    3    0    3
 -2      6012      4813      4814      2471
 -1     16280    3    0    3
 -2      6138      4172      3964      4270
 -1     16281    3    0    3
 -2      5492      3793      4193      5494
 -1     16282    3    0    3
 -2      5379      4816      4001      3941
 -1     16283    3    0    3
 -2      3441      3440      3421      3645
 -1     16284    3    0    3
 -2      4331      4893      4891      3712
 -1     16285    3    0    3
 -2      2631      6261      4821      4823
 -1     16286    3    0    3
 -2      3888      3677      4426      4868
 -1     16287    3    0    3
 -2      5420      4337      5419      3439
 -1     16288    3    0    3
 -2      4875      3888      6703      6705
 -1     16289    3    0    3
 -2      4878      4889      6247      2180
 -1     16290    3    0    3
 -2      4970      2093      1876      4415
 -1     16291    3    0    3
 -2      3436      3346      3357      6232
 -1     16292    3    0    3
 -2      4856      3333       325      1839
 -1     16293    3    0    3
 -2      6718      5598      5597      1391
 -1     16294    3    0    3
 -2      1817      4869      3410      6713
 -1     16295    3    0    3
 -2      4860      2512      2342      2528
 -1     16296    3    0    3
 -2      4032      5376      5377      6312
 -1     16297    3    0    3
 -2      4821      2710      2640      6796
 -1     16298    3    0    3
 -2      6138      4172      4270      4577
 -1     16299    3    0    3
 -2      4606      4093      5170      4143
 -1     16300    3    0    3
 -2      4823      2505      2631      2575
 -1     16301    3    0    3
 -2      6555      1327      5150      1568
 -1     16302    3    0    3
 -2      2504      4823      2505      4820
 -1     16303    3    0    3
 -2      2213      1958      4817      6668
 -1     16304    3    0    3
 -2      6211      5701      1980      6664
 -1     16305    3    0    3
 -2      4001      4815      5378      4060
 -1     16306    3    0    3
 -2      2530      2408      2529      4810
 -1     16307    3    0    3
 -2      2034      1874      2110      4805
 -1     16308    3    0    3
 -2      6681      2373      4818      2360
 -1     16309    3    0    3
 -2      4824      2694      2636      2568
 -1     16310    3    0    3
 -2      4879      4849      3753      3785
 -1     16311    3    0    3
 -2      2265      2264      2324      6215
 -1     16312    3    0    3
 -2      5404      3898      3989      2774
 -1     16313    3    0    3
 -2      2637      6246      2475      2476
 -1     16314    3    0    3
 -2      2310      5735      2345      5736
 -1     16315    3    0    3
 -2      3872      4838      4837      6080
 -1     16316    3    0    3
 -2      3972      5384      5385      5748
 -1     16317    3    0    3
 -2      2711      4821      6261      6285
 -1     16318    3    0    3
 -2      2733      1811       390       391
 -1     16319    3    0    3
 -2      4912      3530      4911      4079
 -1     16320    3    0    3
 -2      5394      5395      6075      5808
 -1     16321    3    0    3
 -2       101      4923       552       100
 -1     16322    3    0    3
 -2      3027      3028      3088      6680
 -1     16323    3    0    3
 -2      4906      4059      3866      3830
 -1     16324    3    0    3
 -2       601       728        51       762
 -1     16325    3    0    3
 -2      2776      5392       773       774
 -1     16326    3    0    3
 -2      4262      4844      4845      3736
 -1     16327    3    0    3
 -2       122      5290      3174      5288
 -1     16328    3    0    3
 -2      2637      6246      2476      2699
 -1     16329    3    0    3
 -2      5814      5815      4132      6050
 -1     16330    3    0    3
 -2      1677      6764       290      5728
 -1     16331    3    0    3
 -2      3752      3940      4914      3530
 -1     16332    3    0    3
 -2      1908       389       388      2748
 -1     16333    3    0    3
 -2      5064       635      4176      3719
 -1     16334    3    0    3
 -2      3736      4137      4845      4842
 -1     16335    3    0    3
 -2      2314      5674      4880      6772
 -1     16336    3    0    3
 -2      5871       462       790      5874
 -1     16337    3    0    3
 -2       914      1232      5450      6300
 -1     16338    3    0    3
 -2       462      5871       790       647
 -1     16339    3    0    3
 -2       493      4928      3833       494
 -1     16340    3    0    3
 -2      4914      4445      3940      4917
 -1     16341    3    0    3
 -2      4909      4910      2767      4127
 -1     16342    3    0    3
 -2      2733      3825      2734      2752
 -1     16343    3    0    3
 -2      4908      4127      3587      4907
 -1     16344    3    0    3
 -2      6751      2750      2783      2758
 -1     16345    3    0    3
 -2      6751      2750      2760      2783
 -1     16346    3    0    3
 -2      5494      3793      5493      4340
 -1     16347    3    0    3
 -2      4169       610       533      4201
 -1     16348    3    0    3
 -2      5445      3753      4881      3722
 -1     16349    3    0    3
 -2      2227      2250      2063      6721
 -1     16350    3    0    3
 -2      4517      5605      5607      3556
 -1     16351    3    0    3
 -2       528      5611      3684      4357
 -1     16352    3    0    3
 -2       622      3821      3698       623
 -1     16353    3    0    3
 -2      3355      3777      3380      4399
 -1     16354    3    0    3
 -2      5466      4370      4902      4399
 -1     16355    3    0    3
 -2       621      3610       514      4077
 -1     16356    3    0    3
 -2      4342      4904      5468      4370
 -1     16357    3    0    3
 -2      2159      6250      2160      2247
 -1     16358    3    0    3
 -2      3939      3528      4965      1928
 -1     16359    3    0    3
 -2      4372      5509       547      3698
 -1     16360    3    0    3
 -2      2159      6250      2247      6568
 -1     16361    3    0    3
 -2      4252      5509      5507      3698
 -1     16362    3    0    3
 -2       914      5493       947      6300
 -1     16363    3    0    3
 -2      3751      3939      4975      3528
 -1     16364    3    0    3
 -2       578       634      3793       625
 -1     16365    3    0    3
 -2      5044      3715      3935      5041
 -1     16366    3    0    3
 -2      2337      4878      2180      2384
 -1     16367    3    0    3
 -2      3707      4886      3484      4899
 -1     16368    3    0    3
 -2      5605      4517      3745      3556
 -1     16369    3    0    3
 -2      5791      3355      3320      3345
 -1     16370    3    0    3
 -2      3712      2250      4897      6721
 -1     16371    3    0    3
 -2      2030      1923      5038      1794
 -1     16372    3    0    3
 -2       330      3352      3420      1906
 -1     16373    3    0    3
 -2      4975      3749      3777      4974
 -1     16374    3    0    3
 -2      3876      4222      3663      4839
 -1     16375    3    0    3
 -2      4241      3659      5610      3691
 -1     16376    3    0    3
 -2       508       509      3575      4269
 -1     16377    3    0    3
 -2      3634      4922      3604      5484
 -1     16378    3    0    3
 -2       626       617      4249       580
 -1     16379    3    0    3
 -2      4919      1847      1892       102
 -1     16380    3    0    3
 -2      4925      4334      3817      4923
 -1     16381    3    0    3
 -2      4897      2227      2250      2338
 -1     16382    3    0    3
 -2      5801      5051      4981      5758
 -1     16383    3    0    3
 -2      3848      4070      3668      5413
 -1     16384    3    0    3
 -2       554       567       533      4169
 -1     16385    3    0    3
 -2      4883      2629      6084      6379
 -1     16386    3    0    3
 -2      4340      5491      5493      3967
 -1     16387    3    0    3
 -2      4882      3604      4885      3636
 -1     16388    3    0    3
 -2      2135      2134      2314      5674
 -1     16389    3    0    3
 -2      2629      4883      6084      6770
 -1     16390    3    0    3
 -2      4071      4245      4268       573
 -1     16391    3    0    3
 -2      5813      1953      1750      2073
 -1     16392    3    0    3
 -2      4861      4872      3790      6704
 -1     16393    3    0    3
 -2      4875      4876      3677      3641
 -1     16394    3    0    3
 -2      4875      5439      3677      3733
 -1     16395    3    0    3
 -2      5433      3442      3401      3547
 -1     16396    3    0    3
 -2      4660      1781      6622      6606
 -1     16397    3    0    3
 -2      4286      4927      4924      3768
 -1     16398    3    0    3
 -2      2699      2482      2637      6222
 -1     16399    3    0    3
 -2      3654      4331      4894      4892
 -1     16400    3    0    3
 -2      4898      4507      4331      3459
 -1     16401    3    0    3
 -2      3353       332      3358      6708
 -1     16402    3    0    3
 -2      2365      6618      6594      2573
 -1     16403    3    0    3
 -2      1718       341      4965      1717
 -1     16404    3    0    3
 -2      3777      3749      5541      4974
 -1     16405    3    0    3
 -2       573       500      4268       572
 -1     16406    3    0    3
 -2      4016       572      3610       513
 -1     16407    3    0    3
 -2      3715      3845      4241      5544
 -1     16408    3    0    3
 -2      6608      4853      4660      3917
 -1     16409    3    0    3
 -2      2083      4975      2230      1928
 -1     16410    3    0    3
 -2      4342      5468      4367      3556
 -1     16411    3    0    3
 -2      3353      4887      4412      4888
 -1     16412    3    0    3
 -2      4504      4277      4937      3649
 -1     16413    3    0    3
 -2       548       608      4185       607
 -1     16414    3    0    3
 -2      5457       767      3994      1018
 -1     16415    3    0    3
 -2      4061       561      3833       523
 -1     16416    3    0    3
 -2      1275      1313      5441      1530
 -1     16417    3    0    3
 -2      4901      4903      4424      4478
 -1     16418    3    0    3
 -2      5040      3745      5605      4268
 -1     16419    3    0    3
 -2      3916      4941      4938      4449
 -1     16420    3    0    3
 -2      5046       495        86      1708
 -1     16421    3    0    3
 -2      1549      6320      5566      1522
 -1     16422    3    0    3
 -2      5486        62      5485       532
 -1     16423    3    0    3
 -2      4965      1718      3528      3394
 -1     16424    3    0    3
 -2      5486        62        61       758
 -1     16425    3    0    3
 -2      6247      3712      4897      6721
 -1     16426    3    0    3
 -2      3440      4151      3441      3354
 -1     16427    3    0    3
 -2      4376      1676      4186      1686
 -1     16428    3    0    3
 -2      3758      3675      3703      5438
 -1     16429    3    0    3
 -2      4347      4888      3353      3354
 -1     16430    3    0    3
 -2      3442      5433      4459      5434
 -1     16431    3    0    3
 -2      1019      4491      3818      5462
 -1     16432    3    0    3
 -2      3645      4307      4459      5440
 -1     16433    3    0    3
 -2      4265      3814      4890      3359
 -1     16434    3    0    3
 -2      4924      1996      1771      4923
 -1     16435    3    0    3
 -2      5654      2464      5844      5686
 -1     16436    3    0    3
 -2        12      6334      6764       291
 -1     16437    3    0    3
 -2      3441      4151      4347      3354
 -1     16438    3    0    3
 -2      2367      2287      2272      6243
 -1     16439    3    0    3
 -2      4372      5507      5509      3698
 -1     16440    3    0    3
 -2      4890      3358      1891      6708
 -1     16441    3    0    3
 -2      3553      4412      4067      4889
 -1     16442    3    0    3
 -2      4286      4090      4929      4926
 -1     16443    3    0    3
 -2      2489      4873      5672      6254
 -1     16444    3    0    3
 -2      4922      4921      4489      3958
 -1     16445    3    0    3
 -2      4918      4916      3881      4387
 -1     16446    3    0    3
 -2      3484      4933      4930      3707
 -1     16447    3    0    3
 -2      5446      3604      4882      3636
 -1     16448    3    0    3
 -2      1907       494        97       560
 -1     16449    3    0    3
 -2      2600      2482      2378      4880
 -1     16450    3    0    3
 -2      3817      4440      4925      4923
 -1     16451    3    0    3
 -2       553       567      4334       552
 -1     16452    3    0    3
 -2        99        98      1772       493
 -1     16453    3    0    3
 -2      4847      3930      5410      3868
 -1     16454    3    0    3
 -2       514      1859      4943       513
 -1     16455    3    0    3
 -2      4330      4934      4504      3456
 -1     16456    3    0    3
 -2      3700      5489      4256      5486
 -1     16457    3    0    3
 -2      1947      4919      1892      4920
 -1     16458    3    0    3
 -2      4003      5496      3456      5495
 -1     16459    3    0    3
 -2      3916      3884      5503       569
 -1     16460    3    0    3
 -2      4924        99      1772       493
 -1     16461    3    0    3
 -2      2765      4843      4262      2744
 -1     16462    3    0    3
 -2       567       554      4141      4169
 -1     16463    3    0    3
 -2      3737      5534      3874      5537
 -1     16464    3    0    3
 -2       150       149      3378       685
 -1     16465    3    0    3
 -2       551       522      4445       520
 -1     16466    3    0    3
 -2      4914      3530      4912      4079
 -1     16467    3    0    3
 -2      1237       962      1168      5414
 -1     16468    3    0    3
 -2      1843      4280      2096      1782
 -1     16469    3    0    3
 -2      4843      1782      4280      2731
 -1     16470    3    0    3
 -2      5482      5485       531      4002
 -1     16471    3    0    3
 -2      4374       532       554      3700
 -1     16472    3    0    3
 -2      2387      2478      2386      4879
 -1     16473    3    0    3
 -2      4273        67       541        68
 -1     16474    3    0    3
 -2      4059      4909      3587      3830
 -1     16475    3    0    3
 -2      4914      4913      3530      4079
 -1     16476    3    0    3
 -2      4280      2754       385      1843
 -1     16477    3    0    3
 -2      1905       388       387      2765
 -1     16478    3    0    3
 -2      4909      2727      2751      2737
 -1     16479    3    0    3
 -2      5653      5690      2480      5712
 -1     16480    3    0    3
 -2      4137      4035      4847      3569
 -1     16481    3    0    3
 -2      2717      2707      2112      6234
 -1     16482    3    0    3
 -2      3758      4871      4873      3810
 -1     16483    3    0    3
 -2      4845      4137      4433      3569
 -1     16484    3    0    3
 -2      4911      3999      4913      3530
 -1     16485    3    0    3
 -2      5789      1069      1663      5858
 -1     16486    3    0    3
 -2      2189      1921      4881      5682
 -1     16487    3    0    3
 -2      5698      2649      4840      6259
 -1     16488    3    0    3
 -2      5402      3930      4839      3959
 -1     16489    3    0    3
 -2      4833      4826      4053      6211
 -1     16490    3    0    3
 -2      4907      4905      4909      4059
 -1     16491    3    0    3
 -2      4507      5465      4901      4481
 -1     16492    3    0    3
 -2      4132      5814      6050      6666
 -1     16493    3    0    3
 -2      4828      4829      2736      4830
 -1     16494    3    0    3
 -2      5469      4906      3866      3830
 -1     16495    3    0    3
 -2      5471      5469      2737      2781
 -1     16496    3    0    3
 -2      2735      2736      4828      2733
 -1     16497    3    0    3
 -2      5411      3836      3902      5400
 -1     16498    3    0    3
 -2      2773      4846      5406      2745
 -1     16499    3    0    3
 -2      4128      3930      4433      5405
 -1     16500    3    0    3
 -2      4841      4195      2748      2741
 -1     16501    3    0    3
 -2      4262      2773      4844      2741
 -1     16502    3    0    3
 -2      1782       386       385      2731
 -1     16503    3    0    3
 -2      4018      3953      5294      4014
 -1     16504    3    0    3
 -2      6257      5685      6185      6259
 -1     16505    3    0    3
 -2      2742      4195      2741      2740
 -1     16506    3    0    3
 -2      6764        12       291       281
 -1     16507    3    0    3
 -2      4847      4433      4137      3569
 -1     16508    3    0    3
 -2      4827      3663      4828      3876
 -1     16509    3    0    3
 -2      2738       826      2746       242
 -1     16510    3    0    3
 -2      4846      4843      4262      3569
 -1     16511    3    0    3
 -2      4842      2765      4262      4841
 -1     16512    3    0    3
 -2      4844      4462      4262      4845
 -1     16513    3    0    3
 -2      2782      2753      4049      5390
 -1     16514    3    0    3
 -2      5470      5473      5469      4344
 -1     16515    3    0    3
 -2      4828      4829      3663      4827
 -1     16516    3    0    3
 -2      4137      4433      3930      4845
 -1     16517    3    0    3
 -2      2733      1810      1811       391
 -1     16518    3    0    3
 -2      4841      2748      2765      2741
 -1     16519    3    0    3
 -2      2694      2626      2711      6261
 -1     16520    3    0    3
 -2      5445      4165       870      5669
 -1     16521    3    0    3
 -2      1411      5762      5840      5841
 -1     16522    3    0    3
 -2      4971      3397      4966      5530
 -1     16523    3    0    3
 -2      4909      4906      4905      2727
 -1     16524    3    0    3
 -2       101      1892       102       534
 -1     16525    3    0    3
 -2      2730      1782      1783      4843
 -1     16526    3    0    3
 -2       101      4923      4920       552
 -1     16527    3    0    3
 -2      4850      3587      3779      3804
 -1     16528    3    0    3
 -2      4423      3999      4851      4850
 -1     16529    3    0    3
 -2       541      4914      4079      4273
 -1     16530    3    0    3
 -2       534      4387      4919       582
 -1     16531    3    0    3
 -2      6107      1429      5438      6287
 -1     16532    3    0    3
 -2      1947      2134      1948      4882
 -1     16533    3    0    3
 -2      2468      2629      4883      6379
 -1     16534    3    0    3
 -2      5469      5471      5473      2781
 -1     16535    3    0    3
 -2      1575      1550      1658      5401
 -1     16536    3    0    3
 -2      4851      4423      4850      5679
 -1     16537    3    0    3
 -2       641      3899        70      5477
 -1     16538    3    0    3
 -2      4916       103      1847       582
 -1     16539    3    0    3
 -2       872       871      5446      1234
 -1     16540    3    0    3
 -2      4273      4498      4079        67
 -1     16541    3    0    3
 -2      3994       767      5453      1018
 -1     16542    3    0    3
 -2      3779      4910      4913      4304
 -1     16543    3    0    3
 -2       541      4273        68       617
 -1     16544    3    0    3
 -2      5676      2228      2386      6709
 -1     16545    3    0    3
 -2      2771      5473      5471      2781
 -1     16546    3    0    3
 -2      5425      3844      5435      6264
 -1     16547    3    0    3
 -2      3732      2773      2763      2769
 -1     16548    3    0    3
 -2      3587      4423      2123      4850
 -1     16549    3    0    3
 -2      2740      2768      2742      3989
 -1     16550    3    0    3
 -2      3866      4847      4433      5410
 -1     16551    3    0    3
 -2      4877      2467      6084      6582
 -1     16552    3    0    3
 -2      1629      1574      1617      5399
 -1     16553    3    0    3
 -2      2034      1766      1874      6659
 -1     16554    3    0    3
 -2      4829      2736      4830      2753
 -1     16555    3    0    3
 -2      3697      4881      5445      3670
 -1     16556    3    0    3
 -2       921       731      5370      6034
 -1     16557    3    0    3
 -2      4850      5675      5679      5699
 -1     16558    3    0    3
 -2      2137      5986      2358      5773
 -1     16559    3    0    3
 -2        67       541      4079      4273
 -1     16560    3    0    3
 -2      4423      3587      3999      4850
 -1     16561    3    0    3
 -2      1444      1303      1302      5412
 -1     16562    3    0    3
 -2      4831      2264      6058      6678
 -1     16563    3    0    3
 -2      6222      2314      4880      6772
 -1     16564    3    0    3
 -2      3966      4820      4823      6674
 -1     16565    3    0    3
 -2      5413      3868      4850      5685
 -1     16566    3    0    3
 -2      5395      3934      3966      5398
 -1     16567    3    0    3
 -2      3753      5445      4881      3699
 -1     16568    3    0    3
 -2      3907      5399      5398      3872
 -1     16569    3    0    3
 -2      3972      4026      4821      5384
 -1     16570    3    0    3
 -2      3844      4871      4836      6706
 -1     16571    3    0    3
 -2      4850      3868      4848      6259
 -1     16572    3    0    3
 -2      3072      3027      4807      6267
 -1     16573    3    0    3
 -2      3955      5404      4462      5405
 -1     16574    3    0    3
 -2      4059      3587      4850      3830
 -1     16575    3    0    3
 -2      1912      6791      4569      6646
 -1     16576    3    0    3
 -2      5404      4844      2742      3989
 -1     16577    3    0    3
 -2      4830      4518      5390      5391
 -1     16578    3    0    3
 -2      6222      2314      2481      2482
 -1     16579    3    0    3
 -2      4842      2765      4843      4262
 -1     16580    3    0    3
 -2      1882      4825      1732      1997
 -1     16581    3    0    3
 -2      4829      4222      3825      4020
 -1     16582    3    0    3
 -2      1394      5808      6075      6069
 -1     16583    3    0    3
 -2      2264      2446      6058      6678
 -1     16584    3    0    3
 -2      4202      6655      5974      5158
 -1     16585    3    0    3
 -2       953      6337      6336      5367
 -1     16586    3    0    3
 -2      4845      4844      4462      3955
 -1     16587    3    0    3
 -2      4845      3930      3955      5405
 -1     16588    3    0    3
 -2       918      1663      1064      5789
 -1     16589    3    0    3
 -2      1235       916       921      6077
 -1     16590    3    0    3
 -2      6685      4813      4810      6691
 -1     16591    3    0    3
 -2      3028      3061      3041      4806
 -1     16592    3    0    3
 -2      5928      5939      5927      2799
 -1     16593    3    0    3
 -2      5368      4805      4202      4168
 -1     16594    3    0    3
 -2      4083      5814      4132      6666
 -1     16595    3    0    3
 -2       722       235      3074       234
 -1     16596    3    0    3
 -2      5169      5158      4225      4202
 -1     16597    3    0    3
 -2      4026      3996      4821      5384
 -1     16598    3    0    3
 -2      5852      1468      1450      1590
 -1     16599    3    0    3
 -2      5169      1220      1386      1217
 -1     16600    3    0    3
 -2      4865      4092      3317      4288
 -1     16601    3    0    3
 -2      2627      2566      2470      4816
 -1     16602    3    0    3
 -2      3937      4823      4821      6261
 -1     16603    3    0    3
 -2      4252      4367      3556      5508
 -1     16604    3    0    3
 -2      4609      6634      4607      6201
 -1     16605    3    0    3
 -2      6053      6732      2348      4719
 -1     16606    3    0    3
 -2      2311      2385      2612      4812
 -1     16607    3    0    3
 -2      1197      1101      5167      6503
 -1     16608    3    0    3
 -2      1422      1424      5173      1423
 -1     16609    3    0    3
 -2      4111      4810      5373      4060
 -1     16610    3    0    3
 -2      4818      3996      4820      6233
 -1     16611    3    0    3
 -2      1958      2078      2257      4817
 -1     16612    3    0    3
 -2      1424      1426      1422      5173
 -1     16613    3    0    3
 -2      4659      3917      5223      3976
 -1     16614    3    0    3
 -2      3976      4610      4814      4032
 -1     16615    3    0    3
 -2      3088      3085      3072      5971
 -1     16616    3    0    3
 -2      3907      3996      3966      5386
 -1     16617    3    0    3
 -2      4143      4809      4111      5372
 -1     16618    3    0    3
 -2      3066       233       682      6728
 -1     16619    3    0    3
 -2      1466      1635      1621      6505
 -1     16620    3    0    3
 -2      1596      1424      1597      6466
 -1     16621    3    0    3
 -2      3086      3088      3040      6658
 -1     16622    3    0    3
 -2      3585      4475      4938      4449
 -1     16623    3    0    3
 -2      3907      3996      5386      3937
 -1     16624    3    0    3
 -2      5844      4834      2714      5654
 -1     16625    3    0    3
 -2       817       501        49      5608
 -1     16626    3    0    3
 -2      6086      1248      5423      1309
 -1     16627    3    0    3
 -2      5399      5435      1574      6081
 -1     16628    3    0    3
 -2      4511      3764      4859      3981
 -1     16629    3    0    3
 -2      2694      4824      2636      6261
 -1     16630    3    0    3
 -2      3966      3907      5386      5398
 -1     16631    3    0    3
 -2      5399      4836      3844      3810
 -1     16632    3    0    3
 -2      6703      2033      4875      6705
 -1     16633    3    0    3
 -2      5977      5368       682      6728
 -1     16634    3    0    3
 -2      4807      4817      4136      4107
 -1     16635    3    0    3
 -2      4831      6676      2264      6215
 -1     16636    3    0    3
 -2      4934      4330      4504      3649
 -1     16637    3    0    3
 -2      3872      5398      5400      5845
 -1     16638    3    0    3
 -2      4869      4426      3410      6713
 -1     16639    3    0    3
 -2      4861      4860      3790      3815
 -1     16640    3    0    3
 -2      4816      4854      3911      6700
 -1     16641    3    0    3
 -2      4861      3764      4859      3815
 -1     16642    3    0    3
 -2      5500      4159      5502      3589
 -1     16643    3    0    3
 -2      4864      3317      3416      3316
 -1     16644    3    0    3
 -2      4823      3996      3937      4821
 -1     16645    3    0    3
 -2       753       861       790      6067
 -1     16646    3    0    3
 -2      3047       672      5966      6034
 -1     16647    3    0    3
 -2      4875      3703      4877      3641
 -1     16648    3    0    3
 -2      4875      5439      3703      3641
 -1     16649    3    0    3
 -2       568      4000       569       628
 -1     16650    3    0    3
 -2      3585      4277      4900      6275
 -1     16651    3    0    3
 -2      3767      5478      5481      5669
 -1     16652    3    0    3
 -2      4872      3733      4861      3790
 -1     16653    3    0    3
 -2      4866      3981      4511      4863
 -1     16654    3    0    3
 -2      2365      4617      2547      2312
 -1     16655    3    0    3
 -2      5431      3716      5430      4272
 -1     16656    3    0    3
 -2      2063      2115      3712      2250
 -1     16657    3    0    3
 -2      6301      3831      3780      5301
 -1     16658    3    0    3
 -2      5450      5463      3518      6218
 -1     16659    3    0    3
 -2      4169      4921      4201      5483
 -1     16660    3    0    3
 -2      2384      2452      4877      6088
 -1     16661    3    0    3
 -2      5399      5401      3810      6081
 -1     16662    3    0    3
 -2      5425      5426      3790      3815
 -1     16663    3    0    3
 -2      5434      3442      5433      3547
 -1     16664    3    0    3
 -2      5973      3539      3480      4778
 -1     16665    3    0    3
 -2      3790      3733      4861      5426
 -1     16666    3    0    3
 -2      2564      4836      4824      2568
 -1     16667    3    0    3
 -2      3999      3779      3752      4851
 -1     16668    3    0    3
 -2      4864      3317      4092      4867
 -1     16669    3    0    3
 -2      3438      4857      5420      3439
 -1     16670    3    0    3
 -2      4312      4866      4288      5428
 -1     16671    3    0    3
 -2      5447      5441      6107      6269
 -1     16672    3    0    3
 -2      5430      5431      4272      5429
 -1     16673    3    0    3
 -2      5428      4312      3764      4392
 -1     16674    3    0    3
 -2      3329      3341      3317      4288
 -1     16675    3    0    3
 -2      5418      5417      3849      6151
 -1     16676    3    0    3
 -2      5417      1308      1512      5423
 -1     16677    3    0    3
 -2      4857      3408      3409      3439
 -1     16678    3    0    3
 -2      3317      4857      3341      3408
 -1     16679    3    0    3
 -2      3215      3213      3177      4512
 -1     16680    3    0    3
 -2      6232      3349      4455      4399
 -1     16681    3    0    3
 -2      4816      4822      3972      6285
 -1     16682    3    0    3
 -2      2438      4779      4780      5964
 -1     16683    3    0    3
 -2      4855      6099      2002      6720
 -1     16684    3    0    3
 -2      5426      1140      4392      5424
 -1     16685    3    0    3
 -2      4337      3792      4009      4857
 -1     16686    3    0    3
 -2      5747      6666      6050      4825
 -1     16687    3    0    3
 -2      6232      3349      3357      3436
 -1     16688    3    0    3
 -2      3317      4857      4865      3341
 -1     16689    3    0    3
 -2      4365      5456      3994      5457
 -1     16690    3    0    3
 -2       854       939      5440       685
 -1     16691    3    0    3
 -2      4307      3382      3378      3440
 -1     16692    3    0    3
 -2      6379      3675      3612      4877
 -1     16693    3    0    3
 -2      3359      4890      3358      3399
 -1     16694    3    0    3
 -2      5434      1025       854       813
 -1     16695    3    0    3
 -2      3817      3604      4922      4925
 -1     16696    3    0    3
 -2      5495      4193      3486      5497
 -1     16697    3    0    3
 -2      5452       767       768      1026
 -1     16698    3    0    3
 -2      6280      3699      5444      6281
 -1     16699    3    0    3
 -2      5431       852       146       831
 -1     16700    3    0    3
 -2        12      6334       254       777
 -1     16701    3    0    3
 -2      2605      4797      4791      5972
 -1     16702    3    0    3
 -2      4507      4331      3654      4898
 -1     16703    3    0    3
 -2       817      6383      5611      5608
 -1     16704    3    0    3
 -2      6240      5468      3556      6242
 -1     16705    3    0    3
 -2      1774      1773      1916      4940
 -1     16706    3    0    3
 -2      3814      4039      4893      4894
 -1     16707    3    0    3
 -2      3814      3359      3389      3399
 -1     16708    3    0    3
 -2       556        93      1866      4939
 -1     16709    3    0    3
 -2      4837      3836      3872      5400
 -1     16710    3    0    3
 -2      4342      5468      5543      4370
 -1     16711    3    0    3
 -2      6764        12       281       814
 -1     16712    3    0    3
 -2       618       611      4281      3589
 -1     16713    3    0    3
 -2      4943      3610       514       513
 -1     16714    3    0    3
 -2      1954      1702      2048      4284
 -1     16715    3    0    3
 -2      4155      3553      3755      5451
 -1     16716    3    0    3
 -2      1996      2193      1947      6438
 -1     16717    3    0    3
 -2      1296      5546      6781      6391
 -1     16718    3    0    3
 -2      4933      3783      4934      4003
 -1     16719    3    0    3
 -2      3894      5496      5499      3974
 -1     16720    3    0    3
 -2      5466      4455      4424      5465
 -1     16721    3    0    3
 -2      4901      4478      4898      6573
 -1     16722    3    0    3
 -2      5546      1296      6781      5766
 -1     16723    3    0    3
 -2       866      3515       688      6289
 -1     16724    3    0    3
 -2      6282       757      5485       872
 -1     16725    3    0    3
 -2      4263      3246      3287      4275
 -1     16726    3    0    3
 -2      3796      3987       623       500
 -1     16727    3    0    3
 -2       795      5669       962       870
 -1     16728    3    0    3
 -2      5503      3884      5504      4000
 -1     16729    3    0    3
 -2      3854      3698      3821      5507
 -1     16730    3    0    3
 -2      4071      3524      5039      5038
 -1     16731    3    0    3
 -2      4201      5483      5480      4002
 -1     16732    3    0    3
 -2      4882      1948      4489      6677
 -1     16733    3    0    3
 -2      3359      4412      4067      3553
 -1     16734    3    0    3
 -2      4440      3604      3817      4925
 -1     16735    3    0    3
 -2      4101      4468      5488      5490
 -1     16736    3    0    3
 -2      1166      5461      1267      6091
 -1     16737    3    0    3
 -2      4141      3604      4922      5484
 -1     16738    3    0    3
 -2      5483      4374      5485      4002
 -1     16739    3    0    3
 -2      2478      2489      2659      5672
 -1     16740    3    0    3
 -2      3860      5467      4395      3452
 -1     16741    3    0    3
 -2       663      5493       507      5490
 -1     16742    3    0    3
 -2      3864      3634      3670      5446
 -1     16743    3    0    3
 -2      3799      4878      4876      1961
 -1     16744    3    0    3
 -2      3574      4885      5449      3544
 -1     16745    3    0    3
 -2      4929      3833      4930      4061
 -1     16746    3    0    3
 -2      3833      4286       561      4090
 -1     16747    3    0    3
 -2      4468      4101       507      5490
 -1     16748    3    0    3
 -2      4489      3881      4921      3634
 -1     16749    3    0    3
 -2       757      5485       872       758
 -1     16750    3    0    3
 -2      6701      2185      4861      3981
 -1     16751    3    0    3
 -2       553      3901       512       552
 -1     16752    3    0    3
 -2      6219      2275      4766      6110
 -1     16753    3    0    3
 -2      6222      2481      4879      6254
 -1     16754    3    0    3
 -2      3881      3474      4881      6677
 -1     16755    3    0    3
 -2      2659      4838      2477      5672
 -1     16756    3    0    3
 -2      2313      4875      2259      2254
 -1     16757    3    0    3
 -2      5494      5492      3793      4340
 -1     16758    3    0    3
 -2       609      3916      4938      3942
 -1     16759    3    0    3
 -2      1014      5502      3762       955
 -1     16760    3    0    3
 -2      1962      2259      2268      6296
 -1     16761    3    0    3
 -2      4039      4894      5455      3459
 -1     16762    3    0    3
 -2      6243      2367      4897      6299
 -1     16763    3    0    3
 -2       608      4937      3727      4185
 -1     16764    3    0    3
 -2      3544      3768      4381      4929
 -1     16765    3    0    3
 -2      4886      3484      4381      3707
 -1     16766    3    0    3
 -2       663        60       507        59
 -1     16767    3    0    3
 -2      3544      5449      3558      3967
 -1     16768    3    0    3
 -2      3707      3484      4330      4899
 -1     16769    3    0    3
 -2      4930      3833      4381      4928
 -1     16770    3    0    3
 -2      3597      4167      1041      5526
 -1     16771    3    0    3
 -2      1961      3799      4878      2180
 -1     16772    3    0    3
 -2      1607      5438      5437      6115
 -1     16773    3    0    3
 -2      3783      4330      4933      4934
 -1     16774    3    0    3
 -2      4468       507      5493      5490
 -1     16775    3    0    3
 -2      6280      6279      5443      6281
 -1     16776    3    0    3
 -2      5450      1163       914      6342
 -1     16777    3    0    3
 -2      1017      5494       830       914
 -1     16778    3    0    3
 -2      3720      5542      4975      3693
 -1     16779    3    0    3
 -2      4185      3649      4935      4932
 -1     16780    3    0    3
 -2      4899      3484      4330      3456
 -1     16781    3    0    3
 -2      2222      2223      2441      5784
 -1     16782    3    0    3
 -2      4381      4930      4928      3707
 -1     16783    3    0    3
 -2      4342      5468      3556      5543
 -1     16784    3    0    3
 -2      3785      3872      4838      3836
 -1     16785    3    0    3
 -2      4504      4934      4937      3974
 -1     16786    3    0    3
 -2      4112       553       555       554
 -1     16787    3    0    3
 -2       641      3899       614        70
 -1     16788    3    0    3
 -2      4406      5923      6637      4378
 -1     16789    3    0    3
 -2      4903      3527      4395      4227
 -1     16790    3    0    3
 -2        93      1866        94       556
 -1     16791    3    0    3
 -2      1019      5462      1208      1165
 -1     16792    3    0    3
 -2      1139       857      1137      6242
 -1     16793    3    0    3
 -2      4395      4424      4903      5467
 -1     16794    3    0    3
 -2      4000      3884      5504       570
 -1     16795    3    0    3
 -2      3916       563      3884       569
 -1     16796    3    0    3
 -2      3515       946      5465       866
 -1     16797    3    0    3
 -2      4395      4252      3860      5507
 -1     16798    3    0    3
 -2      4000      5506      3452      5505
 -1     16799    3    0    3
 -2      4245      5606      5041      4268
 -1     16800    3    0    3
 -2       857       855      1137      6242
 -1     16801    3    0    3
 -2      5504      3452      5503      4000
 -1     16802    3    0    3
 -2      3698      5508      4252      5510
 -1     16803    3    0    3
 -2      5496      5498      4066      3486
 -1     16804    3    0    3
 -2      1133      1155      1387      6393
 -1     16805    3    0    3
 -2      5611      3684      5609      4241
 -1     16806    3    0    3
 -2      5546      3667      5545      4384
 -1     16807    3    0    3
 -2       939      1084      1025      6093
 -1     16808    3    0    3
 -2      5449      3604      5446      3636
 -1     16809    3    0    3
 -2      5462      4491      5461      1165
 -1     16810    3    0    3
 -2      1165      4491      5461      6288
 -1     16811    3    0    3
 -2      5426      5436      3733      6102
 -1     16812    3    0    3
 -2      3604      5449      5446      4256
 -1     16813    3    0    3
 -2      5609       502      4245      4217
 -1     16814    3    0    3
 -2       555      4112      4468       597
 -1     16815    3    0    3
 -2       568      5505      4000       628
 -1     16816    3    0    3
 -2      4066      5463      3662      6302
 -1     16817    3    0    3
 -2      5487      3700      4101      5489
 -1     16818    3    0    3
 -2      5488      3544      3574      3558
 -1     16819    3    0    3
 -2      3455      3670      5445      5446
 -1     16820    3    0    3
 -2      6329      5639       973       974
 -1     16821    3    0    3
 -2      1430      1376      5447      1361
 -1     16822    3    0    3
 -2      5467      4159      3452      6241
 -1     16823    3    0    3
 -2      5464      5462      3458      6235
 -1     16824    3    0    3
 -2      5448      5447      3577      6290
 -1     16825    3    0    3
 -2      2082      4974      1860      2073
 -1     16826    3    0    3
 -2      3670      3634      4882      5446
 -1     16827    3    0    3
 -2      3864      3670      3455      5446
 -1     16828    3    0    3
 -2      3604      3634      3864      5446
 -1     16829    3    0    3
 -2      4331      2115      3712      4891
 -1     16830    3    0    3
 -2       518      3776       632      4450
 -1     16831    3    0    3
 -2      3946      4450      5636      5634
 -1     16832    3    0    3
 -2      4179       815       752       244
 -1     16833    3    0    3
 -2      3745      5040      5605      4342
 -1     16834    3    0    3
 -2      5466       865       646      6207
 -1     16835    3    0    3
 -2       601       832       762        50
 -1     16836    3    0    3
 -2      6396      6390      5304      6401
 -1     16837    3    0    3
 -2      5451      3553      3354      3383
 -1     16838    3    0    3
 -2      5460       154       794       688
 -1     16839    3    0    3
 -2      1019      6288      4491      1165
 -1     16840    3    0    3
 -2      5463      5461      3518      6218
 -1     16841    3    0    3
 -2      3758      3675      4874      3703
 -1     16842    3    0    3
 -2      4151      3553      3581      4888
 -1     16843    3    0    3
 -2      5973      3539      5964      4780
 -1     16844    3    0    3
 -2      4111      4026      5375      4087
 -1     16845    3    0    3
 -2      4681      6135      6145      1924
 -1     16846    3    0    3
 -2       967      1224      5222      6313
 -1     16847    3    0    3
 -2      5378      4001      5376      6014
 -1     16848    3    0    3
 -2      1422      1589      1588      6312
 -1     16849    3    0    3
 -2      1906      4500      3420      1857
 -1     16850    3    0    3
 -2      1025      5434       854      6093
 -1     16851    3    0    3
 -2      3333      3315      4856       325
 -1     16852    3    0    3
 -2      5429       831      3318       145
 -1     16853    3    0    3
 -2      5424      3849      5423      6151
 -1     16854    3    0    3
 -2      1339      6408      5552      5550
 -1     16855    3    0    3
 -2      1970      6238      1810      4827
 -1     16856    3    0    3
 -2      3382      4307      3378       685
 -1     16857    3    0    3
 -2      3612      5447      5448      6269
 -1     16858    3    0    3
 -2      1352      1377      5444      1460
 -1     16859    3    0    3
 -2       150       768       685      5452
 -1     16860    3    0    3
 -2      5436      5439      3733      6102
 -1     16861    3    0    3
 -2      5392      4242      1015       774
 -1     16862    3    0    3
 -2      4835      3966      3934      5398
 -1     16863    3    0    3
 -2      4860      3844      4871      3790
 -1     16864    3    0    3
 -2      3733      4872      3703      5436
 -1     16865    3    0    3
 -2      4420      3792      5420      5427
 -1     16866    3    0    3
 -2      1512      5417      1449      1357
 -1     16867    3    0    3
 -2      6102      1162      1085      6134
 -1     16868    3    0    3
 -2      5442      3612      5448      6269
 -1     16869    3    0    3
 -2      5462      5461      3458      6235
 -1     16870    3    0    3
 -2      3814      4891      4890      4892
 -1     16871    3    0    3
 -2      4392       960      3716      5430
 -1     16872    3    0    3
 -2      1449      6014      1511      1587
 -1     16873    3    0    3
 -2      4331      3814      4894      4892
 -1     16874    3    0    3
 -2      1444      1483      1303      5412
 -1     16875    3    0    3
 -2       886       731      5370       921
 -1     16876    3    0    3
 -2      3911      5379      5385      6011
 -1     16877    3    0    3
 -2      3358      4412      3353      6708
 -1     16878    3    0    3
 -2      4202      6655      4225      4594
 -1     16879    3    0    3
 -2      3911      3877      4858      5423
 -1     16880    3    0    3
 -2       953      6337      5367       772
 -1     16881    3    0    3
 -2      5606       500      3987      4268
 -1     16882    3    0    3
 -2      1814       564      5050        84
 -1     16883    3    0    3
 -2      3966      3996      4820      5383
 -1     16884    3    0    3
 -2      6008      5384      1628      6033
 -1     16885    3    0    3
 -2      4832      4023      4831      3993
 -1     16886    3    0    3
 -2      5384      5381      6029      6033
 -1     16887    3    0    3
 -2      1309      1250      5425      6086
 -1     16888    3    0    3
 -2      5423      5385      1512      6011
 -1     16889    3    0    3
 -2      2693      2640      2710      6796
 -1     16890    3    0    3
 -2      4811      4111      4809      4168
 -1     16891    3    0    3
 -2      5973      3539      4780      3480
 -1     16892    3    0    3
 -2      5372      1082      1226      5987
 -1     16893    3    0    3
 -2      4512      3217      3215      3213
 -1     16894    3    0    3
 -2      4463      3711      3222      3928
 -1     16895    3    0    3
 -2      5372      5373      4143      6022
 -1     16896    3    0    3
 -2      4822      3911      3972      5385
 -1     16897    3    0    3
 -2      5383      1349      1510      6029
 -1     16898    3    0    3
 -2      5378      1647      1666      1656
 -1     16899    3    0    3
 -2      5874      5871      3031      5877
 -1     16900    3    0    3
 -2      4056      4819      4023      5382
 -1     16901    3    0    3
 -2      1389      5375      1582      1453
 -1     16902    3    0    3
 -2       251       773      2766      5861
 -1     16903    3    0    3
 -2      5811      2119      2141      2001
 -1     16904    3    0    3
 -2      6555      1568      5150      6122
 -1     16905    3    0    3
 -2       226      3059       227       753
 -1     16906    3    0    3
 -2      5393      5392      2776       774
 -1     16907    3    0    3
 -2      1539      1628      1626      6033
 -1     16908    3    0    3
 -2      5733      2102      1821      5035
 -1     16909    3    0    3
 -2      6102      4392      6134      5432
 -1     16910    3    0    3
 -2      4848      3868      3806      5411
 -1     16911    3    0    3
 -2       462       226        11       790
 -1     16912    3    0    3
 -2      3868      4840      5403      3902
 -1     16913    3    0    3
 -2      5648       110      3573      5651
 -1     16914    3    0    3
 -2      5742      5564      5595      6329
 -1     16915    3    0    3
 -2      4240      5592      4293      5598
 -1     16916    3    0    3
 -2      1931      5074      5075      4113
 -1     16917    3    0    3
 -2      2452      2313      2475      6582
 -1     16918    3    0    3
 -2      3841      5632      5631      4356
 -1     16919    3    0    3
 -2      4067      4412      4265      4889
 -1     16920    3    0    3
 -2      3841       895      5632      6429
 -1     16921    3    0    3
 -2      4113      4335      5076      4313
 -1     16922    3    0    3
 -2      3471      5643      4177       593
 -1     16923    3    0    3
 -2      5906      2620      2642      2404
 -1     16924    3    0    3
 -2      2811      1818      1833      5034
 -1     16925    3    0    3
 -2      1931      5074      1798      5075
 -1     16926    3    0    3
 -2      1039      3624       809      3657
 -1     16927    3    0    3
 -2      1990      3583      5066      4223
 -1     16928    3    0    3
 -2      3737      5534      3672      3874
 -1     16929    3    0    3
 -2      1144      1169      5599       987
 -1     16930    3    0    3
 -2      5776      5656      5604      6692
 -1     16931    3    0    3
 -2      1009      6617      6694      6699
 -1     16932    3    0    3
 -2      2369      5027      2607      5906
 -1     16933    3    0    3
 -2      1689      1684      1676      5604
 -1     16934    3    0    3
 -2      6690       290      2852      6764
 -1     16935    3    0    3
 -2       571      4002      5482       531
 -1     16936    3    0    3
 -2      5647       549      4266      5648
 -1     16937    3    0    3
 -2      6694      6617      4240      6699
 -1     16938    3    0    3
 -2      5776      5604      1677      6692
 -1     16939    3    0    3
 -2      4261      5030      5031      5677
 -1     16940    3    0    3
 -2      1078       902      1009      6694
 -1     16941    3    0    3
 -2      5603      5728      5775      5776
 -1     16942    3    0    3
 -2      1333      1268      1242      6621
 -1     16943    3    0    3
 -2      5592      4267      5590      5753
 -1     16944    3    0    3
 -2      5648       650       800       987
 -1     16945    3    0    3
 -2      5598      4240      5592      6617
 -1     16946    3    0    3
 -2      4293      5592      5591      6343
 -1     16947    3    0    3
 -2      1475      5591      1328      1601
 -1     16948    3    0    3
 -2      5753      5592      5602      6694
 -1     16949    3    0    3
 -2      6617      1078      1009      6694
 -1     16950    3    0    3
 -2      5591      4369      5588      6361
 -1     16951    3    0    3
 -2      4293      5591      5597      6343
 -1     16952    3    0    3
 -2      5596      4414      4050      4289
 -1     16953    3    0    3
 -2      5640       782      5639       596
 -1     16954    3    0    3
 -2      5603      5598      4214      5731
 -1     16955    3    0    3
 -2      5032      5033      4235      4429
 -1     16956    3    0    3
 -2      2345      2248      2310      5736
 -1     16957    3    0    3
 -2      1549      6321      1447      6349
 -1     16958    3    0    3
 -2       894       895      1210      6429
 -1     16959    3    0    3
 -2      4335      5596      5029      4364
 -1     16960    3    0    3
 -2      2773      4262      4846      2744
 -1     16961    3    0    3
 -2      2465      5899      5010      2466
 -1     16962    3    0    3
 -2       800       954       810      5651
 -1     16963    3    0    3
 -2      2583      4832      6214      6213
 -1     16964    3    0    3
 -2      4414      3742      5599      5666
 -1     16965    3    0    3
 -2      6619      1454      1598      6765
 -1     16966    3    0    3
 -2      1364      1324      5553      1480
 -1     16967    3    0    3
 -2      5527      1189      1252      5655
 -1     16968    3    0    3
 -2      1584      1644      5587      1668
 -1     16969    3    0    3
 -2      6243      2367      2287      6268
 -1     16970    3    0    3
 -2      5586      1488      1651      1645
 -1     16971    3    0    3
 -2      5597      1413      1391      6725
 -1     16972    3    0    3
 -2      2241      5769      2296      2432
 -1     16973    3    0    3
 -2      3657      1039      1385      1005
 -1     16974    3    0    3
 -2      5866      4493      4982      5856
 -1     16975    3    0    3
 -2      5647       577       650      5644
 -1     16976    3    0    3
 -2      4316      5030      4261      5032
 -1     16977    3    0    3
 -2      5759      1602      1503      6707
 -1     16978    3    0    3
 -2      4214      4186      5600      5033
 -1     16979    3    0    3
 -2      5078      4484      3950      5080
 -1     16980    3    0    3
 -2      1391      5598      5597      6725
 -1     16981    3    0    3
 -2      6686      2852      2851      6715
 -1     16982    3    0    3
 -2      1001       667       903      6624
 -1     16983    3    0    3
 -2      5599      4235      5032      4261
 -1     16984    3    0    3
 -2      1601      1328      1362      6343
 -1     16985    3    0    3
 -2      3737       163      5533      3418
 -1     16986    3    0    3
 -2      6701      6705      6713      4868
 -1     16987    3    0    3
 -2      1468      1333      5579      1268
 -1     16988    3    0    3
 -2      1847      6677      4916      4919
 -1     16989    3    0    3
 -2      1181      1273      1182      5578
 -1     16990    3    0    3
 -2      5732      6624      4267      5602
 -1     16991    3    0    3
 -2      2811      2836      2867      5903
 -1     16992    3    0    3
 -2      5754       874       873      6346
 -1     16993    3    0    3
 -2      3018      1807      4529      2976
 -1     16994    3    0    3
 -2      5579      1450      1268      6347
 -1     16995    3    0    3
 -2      2835       780       271       754
 -1     16996    3    0    3
 -2      4428      5854      4460      5574
 -1     16997    3    0    3
 -2       274      2807       651       273
 -1     16998    3    0    3
 -2      2870      5581      2834      2835
 -1     16999    3    0    3
 -2      5005      5572      4403      4352
 -1     17000    3    0    3
 -2      3753      3785      5412      5443
 -1     17001    3    0    3
 -2      5323      3924      3226      5317
 -1     17002    3    0    3
 -2       271      2834       272       780
 -1     17003    3    0    3
 -2      5820      3588      2399      4764
 -1     17004    3    0    3
 -2      3504      4490      3475      4797
 -1     17005    3    0    3
 -2      5566      3499      4999      3469
 -1     17006    3    0    3
 -2      5517      1253      1492      1388
 -1     17007    3    0    3
 -2      1571      5573      1583      1431
 -1     17008    3    0    3
 -2      1305      1547      1353      5327
 -1     17009    3    0    3
 -2      2827      1838      1736       373
 -1     17010    3    0    3
 -2      5568      1600      1599      6351
 -1     17011    3    0    3
 -2      5572      1097      1334      5889
 -1     17012    3    0    3
 -2      1600      5568      1599      1641
 -1     17013    3    0    3
 -2      5569      4465      4520      5362
 -1     17014    3    0    3
 -2      5578      1274      1097      5889
 -1     17015    3    0    3
 -2      6192      6276      6278      5344
 -1     17016    3    0    3
 -2      3652      6095      4764      3616
 -1     17017    3    0    3
 -2      3469      5565      5567      5886
 -1     17018    3    0    3
 -2      3559      3499      5565      4998
 -1     17019    3    0    3
 -2      1150      1325      1102      6362
 -1     17020    3    0    3
 -2      5923      4406      5867      5014
 -1     17021    3    0    3
 -2      2835       780      5581      2834
 -1     17022    3    0    3
 -2      5820      3588      4764      3559
 -1     17023    3    0    3
 -2      5567      5568      3469      5886
 -1     17024    3    0    3
 -2      6631      1571      1572      6775
 -1     17025    3    0    3
 -2      4233      6555      5148      4287
 -1     17026    3    0    3
 -2      5589      1475      5591      6616
 -1     17027    3    0    3
 -2      1181       874      1242      6346
 -1     17028    3    0    3
 -2      2653      5007      2698      5805
 -1     17029    3    0    3
 -2      5567      5517      1492      3526
 -1     17030    3    0    3
 -2      1572      1479      5574      1642
 -1     17031    3    0    3
 -2      5886      5567      5568      6351
 -1     17032    3    0    3
 -2      5577      4460      5854      6763
 -1     17033    3    0    3
 -2      2639      4794      4797      2638
 -1     17034    3    0    3
 -2      1651      5576      5575      1570
 -1     17035    3    0    3
 -2      4544      1749      1999      4541
 -1     17036    3    0    3
 -2      5580      4375      4349      5579
 -1     17037    3    0    3
 -2      4408       167       654      3321
 -1     17038    3    0    3
 -2      5569      4486      5002      4434
 -1     17039    3    0    3
 -2       485      6761       484      3680
 -1     17040    3    0    3
 -2      4486      5571      5569      6349
 -1     17041    3    0    3
 -2      4341      5591      5588      6753
 -1     17042    3    0    3
 -2      4321      5590      5589      5695
 -1     17043    3    0    3
 -2      5592      1077      1328      1078
 -1     17044    3    0    3
 -2      5589      4349      5579      6358
 -1     17045    3    0    3
 -2      4874      6084      2637      6582
 -1     17046    3    0    3
 -2      6358      5579      1333      6621
 -1     17047    3    0    3
 -2      1181      5580      1242      1268
 -1     17048    3    0    3
 -2      2793       666       277      5779
 -1     17049    3    0    3
 -2      4349      5012      5013      5913
 -1     17050    3    0    3
 -2      1311      5589      1485      6358
 -1     17051    3    0    3
 -2      1489      5529      1330      1583
 -1     17052    3    0    3
 -2      1333      5579      1485      1468
 -1     17053    3    0    3
 -2      5818      1624      1605      6611
 -1     17054    3    0    3
 -2      3580      5528      4963      3522
 -1     17055    3    0    3
 -2      2481      2482      2699      6222
 -1     17056    3    0    3
 -2      3457      5554      5556      4477
 -1     17057    3    0    3
 -2      6631      5573      1571      6775
 -1     17058    3    0    3
 -2      1464      5591      1475      1601
 -1     17059    3    0    3
 -2      2813      2795      5584      5756
 -1     17060    3    0    3
 -2       902      1077       903      5753
 -1     17061    3    0    3
 -2      5576      1590      1486      5806
 -1     17062    3    0    3
 -2      5589      4369      5591      6361
 -1     17063    3    0    3
 -2      5591      1464      1475      6361
 -1     17064    3    0    3
 -2      2012      5794      4980      5770
 -1     17065    3    0    3
 -2      5799      5554      5556      5818
 -1     17066    3    0    3
 -2      1486      5576      5586      1651
 -1     17067    3    0    3
 -2      4459      4094      5440      6093
 -1     17068    3    0    3
 -2      5585      5554      4506      4477
 -1     17069    3    0    3
 -2      1605      1608      1630      6611
 -1     17070    3    0    3
 -2       645      5541      5771       951
 -1     17071    3    0    3
 -2      5553      3488      5528      6613
 -1     17072    3    0    3
 -2      2404      2620      2417      5746
 -1     17073    3    0    3
 -2      1143      1041      5526      3597
 -1     17074    3    0    3
 -2      5524      3871      3461      5523
 -1     17075    3    0    3
 -2      1518      5768      5561      6409
 -1     17076    3    0    3
 -2      5512      3365      3330      5513
 -1     17077    3    0    3
 -2       645      5541       950      5787
 -1     17078    3    0    3
 -2      5615       907      3948       906
 -1     17079    3    0    3
 -2      4989      4502      3457      4988
 -1     17080    3    0    3
 -2      1325      5783      5593      6765
 -1     17081    3    0    3
 -2      1643      5575      1489      1583
 -1     17082    3    0    3
 -2      5577      4428      5579      5852
 -1     17083    3    0    3
 -2      1431      5573      5527      6653
 -1     17084    3    0    3
 -2      3584      5517      5516      3555
 -1     17085    3    0    3
 -2      4138       896      5551      5839
 -1     17086    3    0    3
 -2      5522      1041       958      3597
 -1     17087    3    0    3
 -2      4965      3342      3394      3443
 -1     17088    3    0    3
 -2      5527      5526      3522      5876
 -1     17089    3    0    3
 -2      1143      5526      1189      5876
 -1     17090    3    0    3
 -2      4221      4917      5479      3697
 -1     17091    3    0    3
 -2      4963      4961      2151      3798
 -1     17092    3    0    3
 -2      2549      4964      2550      2697
 -1     17093    3    0    3
 -2      2439      5872      4739      6053
 -1     17094    3    0    3
 -2      1866      6275      2092      4936
 -1     17095    3    0    3
 -2      1388      5517      1229      5515
 -1     17096    3    0    3
 -2      3630      4167      5518      3615
 -1     17097    3    0    3
 -2      5020      4422      5021      5910
 -1     17098    3    0    3
 -2      1488      1486      5586      1651
 -1     17099    3    0    3
 -2      3615      4346      4961      4150
 -1     17100    3    0    3
 -2      5691       992      1229      6741
 -1     17101    3    0    3
 -2      1236      1252      5517      1253
 -1     17102    3    0    3
 -2      5566      1549      1599      5683
 -1     17103    3    0    3
 -2      5883      5822      3863      6750
 -1     17104    3    0    3
 -2      6353      3526      5565      1388
 -1     17105    3    0    3
 -2      4919      3881      4489      6677
 -1     17106    3    0    3
 -2      2692      2474      4871      6246
 -1     17107    3    0    3
 -2      4198      5513       926      6018
 -1     17108    3    0    3
 -2      5824      1351      1240      6279
 -1     17109    3    0    3
 -2      5518      3615      4150      4956
 -1     17110    3    0    3
 -2      5520      3630      5513       926
 -1     17111    3    0    3
 -2      3647      3431      5511      3665
 -1     17112    3    0    3
 -2      3365       805       171       170
 -1     17113    3    0    3
 -2      1110      1331      5528      1143
 -1     17114    3    0    3
 -2      2644      5000      5006      5819
 -1     17115    3    0    3
 -2      5519      5522      3770      4291
 -1     17116    3    0    3
 -2      2614      5000      2552      2644
 -1     17117    3    0    3
 -2       161      5531      5538       851
 -1     17118    3    0    3
 -2      1492      1528      5565      1523
 -1     17119    3    0    3
 -2      3499      5565      5358      3559
 -1     17120    3    0    3
 -2      3559      3526      4950      4998
 -1     17121    3    0    3
 -2      2533      4796      4795      6373
 -1     17122    3    0    3
 -2      5517      1236      1229      5691
 -1     17123    3    0    3
 -2      3526      1388      5517      1492
 -1     17124    3    0    3
 -2      4762      2214      4761      6374
 -1     17125    3    0    3
 -2      3330       170       169       653
 -1     17126    3    0    3
 -2      5578      4375      5580      6347
 -1     17127    3    0    3
 -2      3526      1388      1492      5565
 -1     17128    3    0    3
 -2      3271      3702      6051      3160
 -1     17129    3    0    3
 -2      3271      3702      3159      6472
 -1     17130    3    0    3
 -2       485       484      3166      3680
 -1     17131    3    0    3
 -2      1229      1127      1388      5515
 -1     17132    3    0    3
 -2       170      5513       805       653
 -1     17133    3    0    3
 -2      2929      5230      2954       847
 -1     17134    3    0    3
 -2      3391      4175      3432      4368
 -1     17135    3    0    3
 -2      5532      3600      5533      4138
 -1     17136    3    0    3
 -2       896       843      5533       763
 -1     17137    3    0    3
 -2      1132      5547       907      1133
 -1     17138    3    0    3
 -2       755      3372       162       163
 -1     17139    3    0    3
 -2      3418      5533      3406       164
 -1     17140    3    0    3
 -2      3326       158       785       159
 -1     17141    3    0    3
 -2        43      5623        42       498
 -1     17142    3    0    3
 -2       523       525      4029       524
 -1     17143    3    0    3
 -2      1490      1295      1367      5557
 -1     17144    3    0    3
 -2      5530      4300      5531      3396
 -1     17145    3    0    3
 -2       755      5537       756       162
 -1     17146    3    0    3
 -2      3419       161       756       162
 -1     17147    3    0    3
 -2      3524      6485      4976      5782
 -1     17148    3    0    3
 -2       784       160       851      5531
 -1     17149    3    0    3
 -2      3510      6381      6410      6421
 -1     17150    3    0    3
 -2      3715      4517      5606      3845
 -1     17151    3    0    3
 -2      3356      3380      3423      5787
 -1     17152    3    0    3
 -2      4088       579      5613      4453
 -1     17153    3    0    3
 -2      5632      4356       605       539
 -1     17154    3    0    3
 -2      5672      2478      2489      6254
 -1     17155    3    0    3
 -2      4326      5595      3946      6329
 -1     17156    3    0    3
 -2       390       389      4828      2735
 -1     17157    3    0    3
 -2       974      1203       973      6329
 -1     17158    3    0    3
 -2      4995      2619      4989      5746
 -1     17159    3    0    3
 -2       519      5636      5635       769
 -1     17160    3    0    3
 -2      5028      4362      5595      4388
 -1     17161    3    0    3
 -2       894       770      5635       769
 -1     17162    3    0    3
 -2      3429      3428      3427      3638
 -1     17163    3    0    3
 -2      5761      5542      5541      6395
 -1     17164    3    0    3
 -2      1050       679      5623       841
 -1     17165    3    0    3
 -2      1367      1295      1296      5557
 -1     17166    3    0    3
 -2      1556      1340      1342      5558
 -1     17167    3    0    3
 -2      4884      2384      2468      6379
 -1     17168    3    0    3
 -2      4274      4446      4473      5065
 -1     17169    3    0    3
 -2      5546      3571      5557      5766
 -1     17170    3    0    3
 -2       505      3666      5067      5066
 -1     17171    3    0    3
 -2      4992      2241      2296      2040
 -1     17172    3    0    3
 -2      4086       519       585       633
 -1     17173    3    0    3
 -2      5629      4516      3841      4499
 -1     17174    3    0    3
 -2      5635        37       605       519
 -1     17175    3    0    3
 -2      3537      5636       894      5635
 -1     17176    3    0    3
 -2      5595      4362      3946      4388
 -1     17177    3    0    3
 -2       770      6429       894      5635
 -1     17178    3    0    3
 -2       853        35        36       518
 -1     17179    3    0    3
 -2      4326       973      5595      6329
 -1     17180    3    0    3
 -2       710      6244      5498      1013
 -1     17181    3    0    3
 -2      4356       540       629       539
 -1     17182    3    0    3
 -2      3776      5637      5639      4326
 -1     17183    3    0    3
 -2      1156      1049      1052      6464
 -1     17184    3    0    3
 -2      6084      4874      2637      6222
 -1     17185    3    0    3
 -2      5624       897      1050       841
 -1     17186    3    0    3
 -2       938       897      5627       649
 -1     17187    3    0    3
 -2      5631      5632       693       539
 -1     17188    3    0    3
 -2        38       693      5632       539
 -1     17189    3    0    3
 -2      6553      2502      6569      2538
 -1     17190    3    0    3
 -2       636      4181      3476      5618
 -1     17191    3    0    3
 -2      4996      2283      4994      5767
 -1     17192    3    0    3
 -2      4372      3854       622       570
 -1     17193    3    0    3
 -2      3509      5622      5621      4057
 -1     17194    3    0    3
 -2      4054      4418      5559      6378
 -1     17195    3    0    3
 -2      4328      5548      3646      3598
 -1     17196    3    0    3
 -2      5044      5609      3715      4245
 -1     17197    3    0    3
 -2       498       499      5620      3476
 -1     17198    3    0    3
 -2      4340       914      5494      6342
 -1     17199    3    0    3
 -2      5613       579      4166      4453
 -1     17200    3    0    3
 -2       545      4181       499       638
 -1     17201    3    0    3
 -2        47        46       529       776
 -1     17202    3    0    3
 -2      1675      6773      1687      1694
 -1     17203    3    0    3
 -2       529        46      5615       776
 -1     17204    3    0    3
 -2      5609       502      3684      4357
 -1     17205    3    0    3
 -2      4228       558       616      3828
 -1     17206    3    0    3
 -2      4903      4395      5467      4419
 -1     17207    3    0    3
 -2      5547      1213       906      1133
 -1     17208    3    0    3
 -2       621      3821       622       623
 -1     17209    3    0    3
 -2      4192       530       579      4088
 -1     17210    3    0    3
 -2      5505       816       825       856
 -1     17211    3    0    3
 -2      5041      3745      3524      5040
 -1     17212    3    0    3
 -2      1842      4028      1973      2038
 -1     17213    3    0    3
 -2      1135      1136      1137      6324
 -1     17214    3    0    3
 -2       577      4266      5647       549
 -1     17215    3    0    3
 -2       784      3396      4300      6223
 -1     17216    3    0    3
 -2      5510       857       858      6242
 -1     17217    3    0    3
 -2       869       868      1109      5542
 -1     17218    3    0    3
 -2      1932      3621      4030      6152
 -1     17219    3    0    3
 -2      5557      3542      3510      4990
 -1     17220    3    0    3
 -2      3466      3659      5045      3873
 -1     17221    3    0    3
 -2      1049      1161      1050      6378
 -1     17222    3    0    3
 -2       907      1132      1052      5796
 -1     17223    3    0    3
 -2      6611      1604      5556      1624
 -1     17224    3    0    3
 -2      4012      5538      5535      3607
 -1     17225    3    0    3
 -2      5614      4453      5616      3948
 -1     17226    3    0    3
 -2      1073      6383      5761      1087
 -1     17227    3    0    3
 -2      5613      3626      5048      3659
 -1     17228    3    0    3
 -2      4291      3321      5521      3434
 -1     17229    3    0    3
 -2       762      5510      5509       857
 -1     17230    3    0    3
 -2      1090       950       951      5541
 -1     17231    3    0    3
 -2       756      5537      3419       162
 -1     17232    3    0    3
 -2      6041      3774      4743      6068
 -1     17233    3    0    3
 -2      3720      4978      5545      3693
 -1     17234    3    0    3
 -2      4012      5536      5535      3468
 -1     17235    3    0    3
 -2      5771      6395      5541      3913
 -1     17236    3    0    3
 -2       752      2762      5409      2772
 -1     17237    3    0    3
 -2      3468      5534      3373      5537
 -1     17238    3    0    3
 -2      2204      6208      2205      6249
 -1     17239    3    0    3
 -2      4971      5535      3696      4250
 -1     17240    3    0    3
 -2      4978      4970      4969      3472
 -1     17241    3    0    3
 -2      5540      4384      5546      5793
 -1     17242    3    0    3
 -2       934      5540      1201      5793
 -1     17243    3    0    3
 -2       981      5540       934       755
 -1     17244    3    0    3
 -2      6392      5551      5540      6487
 -1     17245    3    0    3
 -2      5532      3371      3672      3737
 -1     17246    3    0    3
 -2      2659      4838      4873      6712
 -1     17247    3    0    3
 -2      4384      5539      3874      5536
 -1     17248    3    0    3
 -2      1363      1387      6391      6486
 -1     17249    3    0    3
 -2       581      4445      4019       522
 -1     17250    3    0    3
 -2       529        47       776      5612
 -1     17251    3    0    3
 -2      4977      5794      5790      3693
 -1     17252    3    0    3
 -2      4192      5610      5045      4217
 -1     17253    3    0    3
 -2      1215      1155      1056      5545
 -1     17254    3    0    3
 -2      4085      3536      5056      5053
 -1     17255    3    0    3
 -2       602      5608      3987      5607
 -1     17256    3    0    3
 -2      3715      5543      4517      3845
 -1     17257    3    0    3
 -2      3720      4978      3696      5545
 -1     17258    3    0    3
 -2       869       784      4300      6223
 -1     17259    3    0    3
 -2      6243      2222      4900      6577
 -1     17260    3    0    3
 -2      5761      6478      5542      6395
 -1     17261    3    0    3
 -2      5543      3745      3715      4517
 -1     17262    3    0    3
 -2      3607       868      4300      5542
 -1     17263    3    0    3
 -2       784      4300       868       869
 -1     17264    3    0    3
 -2      5619       737      5620      1052
 -1     17265    3    0    3
 -2        75      5070       592      1760
 -1     17266    3    0    3
 -2      3684       529      4088      5612
 -1     17267    3    0    3
 -2      4897      2368      6268      6579
 -1     17268    3    0    3
 -2      5535      4012      3607      3696
 -1     17269    3    0    3
 -2      5782      5785      6485      4976
 -1     17270    3    0    3
 -2      2283      4996      4994      5797
 -1     17271    3    0    3
 -2      4978      3667      4979      3880
 -1     17272    3    0    3
 -2      1052      5548      3646      5796
 -1     17273    3    0    3
 -2       908      5612      4241       988
 -1     17274    3    0    3
 -2      5606      4517      5608      3845
 -1     17275    3    0    3
 -2      1014       955      5464      1099
 -1     17276    3    0    3
 -2      5609      3684      5610      4241
 -1     17277    3    0    3
 -2       795      5669      5481      5478
 -1     17278    3    0    3
 -2      5048      4166      4192       496
 -1     17279    3    0    3
 -2      3783       525      4232       560
 -1     17280    3    0    3
 -2      5607      5605      4098      3556
 -1     17281    3    0    3
 -2       752      2762       819      5409
 -1     17282    3    0    3
 -2       523       561      3833       493
 -1     17283    3    0    3
 -2      3987      4098       602      5607
 -1     17284    3    0    3
 -2       551      4916       103      1848
 -1     17285    3    0    3
 -2       988      4241       908      5544
 -1     17286    3    0    3
 -2      5605      3796      4098      5508
 -1     17287    3    0    3
 -2      3845      5611      5609      4241
 -1     17288    3    0    3
 -2      5606      5608      4357      3845
 -1     17289    3    0    3
 -2      3381      3777      4300      3913
 -1     17290    3    0    3
 -2      3749      5541      5543      5761
 -1     17291    3    0    3
 -2      3845      5609      3715      4241
 -1     17292    3    0    3
 -2      4061      4468      4090       597
 -1     17293    3    0    3
 -2       950       646       645      5787
 -1     17294    3    0    3
 -2      3394      3998      3528      3405
 -1     17295    3    0    3
 -2      4945      4395      3854      5507
 -1     17296    3    0    3
 -2      1136       865      1138      6740
 -1     17297    3    0    3
 -2       817       832       975      5608
 -1     17298    3    0    3
 -2       502       500       501      4357
 -1     17299    3    0    3
 -2      5619      3781      4181       545
 -1     17300    3    0    3
 -2       501       528       502      4357
 -1     17301    3    0    3
 -2      4181       499      5620      5619
 -1     17302    3    0    3
 -2      5056      3536      3759      5053
 -1     17303    3    0    3
 -2      6138      1918      6492      4270
 -1     17304    3    0    3
 -2      5622      5624      4418      3882
 -1     17305    3    0    3
 -2      3476       499      5620      4181
 -1     17306    3    0    3
 -2      3646      5619      4328      5617
 -1     17307    3    0    3
 -2      5620      6378      6464      1049
 -1     17308    3    0    3
 -2      5618       636      4181      4108
 -1     17309    3    0    3
 -2      5615      3540      5612      6445
 -1     17310    3    0    3
 -2      5619      4181       499       545
 -1     17311    3    0    3
 -2      5617      3781      4328      5614
 -1     17312    3    0    3
 -2       529      5615      4088      5612
 -1     17313    3    0    3
 -2      1212      6409      1199      1271
 -1     17314    3    0    3
 -2       551       103       104      1848
 -1     17315    3    0    3
 -2      4241      5611      3684      5612
 -1     17316    3    0    3
 -2      3540      4241      5612      6445
 -1     17317    3    0    3
 -2        47       528       823      5612
 -1     17318    3    0    3
 -2      5611       528      3684      5612
 -1     17319    3    0    3
 -2       906       907      5547      1133
 -1     17320    3    0    3
 -2      4012      5536      4384      3667
 -1     17321    3    0    3
 -2       610       533       567      4169
 -1     17322    3    0    3
 -2      5048      5049      4166      3952
 -1     17323    3    0    3
 -2      3540      3948      5613      3626
 -1     17324    3    0    3
 -2      5560      5563      4499      3453
 -1     17325    3    0    3
 -2      3646      4181      5620      5619
 -1     17326    3    0    3
 -2       738       737      5619      1052
 -1     17327    3    0    3
 -2       906      5615       775       776
 -1     17328    3    0    3
 -2      1907       494      1879        97
 -1     17329    3    0    3
 -2      1052      1156      5548      1132
 -1     17330    3    0    3
 -2      3450      4146      5625      5626
 -1     17331    3    0    3
 -2      1847      4919      1892      1948
 -1     17332    3    0    3
 -2      1164      6747      5560      6381
 -1     17333    3    0    3
 -2      3667      4978      4979      3631
 -1     17334    3    0    3
 -2      5774      5547      5545      6393
 -1     17335    3    0    3
 -2       775        45      5616       738
 -1     17336    3    0    3
 -2      3841      4446      5563      4238
 -1     17337    3    0    3
 -2      5620       737      1049      1052
 -1     17338    3    0    3
 -2      4418      3746      5559      6422
 -1     17339    3    0    3
 -2      1164      6747      1340      1199
 -1     17340    3    0    3
 -2      5560      5559      3746      6422
 -1     17341    3    0    3
 -2       897      1164       938      5560
 -1     17342    3    0    3
 -2      6410      5557      3510      6421
 -1     17343    3    0    3
 -2      5624      1050      5623       841
 -1     17344    3    0    3
 -2      4146       897       938      5560
 -1     17345    3    0    3
 -2       770      6429      5635      5632
 -1     17346    3    0    3
 -2      1340      5558      6409      6747
 -1     17347    3    0    3
 -2       605        37       770        38
 -1     17348    3    0    3
 -2       499      5620        43       498
 -1     17349    3    0    3
 -2      5629      5630      4356      3938
 -1     17350    3    0    3
 -2      4274      4446      4996      4473
 -1     17351    3    0    3
 -2      6611      1604      1608      6707
 -1     17352    3    0    3
 -2      4927      1772      4928       493
 -1     17353    3    0    3
 -2      5628      5627      4146      3575
 -1     17354    3    0    3
 -2      5065      3719      5064      4274
 -1     17355    3    0    3
 -2      4516      5628      5626      3985
 -1     17356    3    0    3
 -2      1630      1608      6404      6611
 -1     17357    3    0    3
 -2      5560      4146       897      6422
 -1     17358    3    0    3
 -2      5542      3720      5545      3693
 -1     17359    3    0    3
 -2      5367      5867      5932      2843
 -1     17360    3    0    3
 -2      1342      6747      1164      6381
 -1     17361    3    0    3
 -2      3909       585       606       584
 -1     17362    3    0    3
 -2       519      5635        37       769
 -1     17363    3    0    3
 -2      5635      5636       894       769
 -1     17364    3    0    3
 -2      5631       693       895       969
 -1     17365    3    0    3
 -2      4356       629      3681       605
 -1     17366    3    0    3
 -2      5635       770      5632       605
 -1     17367    3    0    3
 -2      4356      3681      5632       605
 -1     17368    3    0    3
 -2      5056      4057      3828      5057
 -1     17369    3    0    3
 -2      4146      5625      3746      3450
 -1     17370    3    0    3
 -2       770        37      5635       769
 -1     17371    3    0    3
 -2      5561      5562      4474      4502
 -1     17372    3    0    3
 -2      4113      4335      5029      3463
 -1     17373    3    0    3
 -2      5595      3643      4362      4335
 -1     17374    3    0    3
 -2      5564      4474      5562      4417
 -1     17375    3    0    3
 -2      4146       938      5628      4516
 -1     17376    3    0    3
 -2      4474      5563      5561      3453
 -1     17377    3    0    3
 -2      1518      1340      1556      6409
 -1     17378    3    0    3
 -2      2282      2283      2339      5797
 -1     17379    3    0    3
 -2        37       519       769        36
 -1     17380    3    0    3
 -2      1342      1164      1160      6381
 -1     17381    3    0    3
 -2      5525      5550      3611      3549
 -1     17382    3    0    3
 -2      5529      5527      3460      3522
 -1     17383    3    0    3
 -2      5550      5552      3516      6408
 -1     17384    3    0    3
 -2       982      1211      1023      6547
 -1     17385    3    0    3
 -2      6169      2196      6173      6583
 -1     17386    3    0    3
 -2      3479      4418      5622      3746
 -1     17387    3    0    3
 -2      1387      1297      1363      6391
 -1     17388    3    0    3
 -2       896      1198      5551      5839
 -1     17389    3    0    3
 -2        42      5624      5623       841
 -1     17390    3    0    3
 -2      3997      4228      4025      5060
 -1     17391    3    0    3
 -2       616       558       586      3828
 -1     17392    3    0    3
 -2      1295      5557      6410      6421
 -1     17393    3    0    3
 -2      4516      4146      3450      5626
 -1     17394    3    0    3
 -2      5561      1517      1271      1270
 -1     17395    3    0    3
 -2      3510      4991      3542      5558
 -1     17396    3    0    3
 -2      5794      6477      4977      2290
 -1     17397    3    0    3
 -2      6405      1321      1269      1149
 -1     17398    3    0    3
 -2      2662      2455      5719      6367
 -1     17399    3    0    3
 -2      3523      5067      4223      5763
 -1     17400    3    0    3
 -2      3997      4228      3775       537
 -1     17401    3    0    3
 -2      1132      1387      1363      6486
 -1     17402    3    0    3
 -2      5793      1201      1297      6392
 -1     17403    3    0    3
 -2      5949      5985      4801      5936
 -1     17404    3    0    3
 -2      5555      1630      1472      5768
 -1     17405    3    0    3
 -2      5839      1198      5551      6496
 -1     17406    3    0    3
 -2      4924       100        99       512
 -1     17407    3    0    3
 -2      1472      1630      1518      5768
 -1     17408    3    0    3
 -2      1517      1518      5561      1271
 -1     17409    3    0    3
 -2      5550      3516      5553      6408
 -1     17410    3    0    3
 -2       166      5524      3339      3422
 -1     17411    3    0    3
 -2      4957      3798      4346      3580
 -1     17412    3    0    3
 -2      4827      2734      6238      1810
 -1     17413    3    0    3
 -2      1269      1149      1210      6405
 -1     17414    3    0    3
 -2      4916      1847      4919       582
 -1     17415    3    0    3
 -2      5560      4146      3450      4516
 -1     17416    3    0    3
 -2      5282      1381      6412      1120
 -1     17417    3    0    3
 -2      5562      5561      4474      5759
 -1     17418    3    0    3
 -2      5501      5502       618      4281
 -1     17419    3    0    3
 -2      1050      4418      6378      5559
 -1     17420    3    0    3
 -2      5555      1472      1471      5552
 -1     17421    3    0    3
 -2      3455      4165      5480      5482
 -1     17422    3    0    3
 -2      2394      2212      2397      5780
 -1     17423    3    0    3
 -2      1624      1605      1482      5818
 -1     17424    3    0    3
 -2      4223      4997      3523      5763
 -1     17425    3    0    3
 -2      5635      3537      5633      4238
 -1     17426    3    0    3
 -2      1947      4919      4489      1948
 -1     17427    3    0    3
 -2      4474      5564      5562      6405
 -1     17428    3    0    3
 -2      4108      4085      4278      5053
 -1     17429    3    0    3
 -2       895      5632      5631      3841
 -1     17430    3    0    3
 -2      6663      1439      5360      5357
 -1     17431    3    0    3
 -2      5563      5564      6405      6429
 -1     17432    3    0    3
 -2      5559      5560      6381      6422
 -1     17433    3    0    3
 -2      3958      4334       567       534
 -1     17434    3    0    3
 -2      5367      5867      2843      5581
 -1     17435    3    0    3
 -2      5563       969      1212      6326
 -1     17436    3    0    3
 -2       969      5628       938      4516
 -1     17437    3    0    3
 -2       693       895       770      5632
 -1     17438    3    0    3
 -2       969      1212       895      5563
 -1     17439    3    0    3
 -2       538      5631        39       539
 -1     17440    3    0    3
 -2       693        39      5631       539
 -1     17441    3    0    3
 -2        39       692       693      5631
 -1     17442    3    0    3
 -2      5632       693       895      5631
 -1     17443    3    0    3
 -2      5483      3634      3864      5484
 -1     17444    3    0    3
 -2       534      4919       102       582
 -1     17445    3    0    3
 -2      5631       692       693       969
 -1     17446    3    0    3
 -2      4489      4919      4920      3958
 -1     17447    3    0    3
 -2      4516      5563      5560      6326
 -1     17448    3    0    3
 -2      5564      5563      4238      6429
 -1     17449    3    0    3
 -2       897       938      5627      4146
 -1     17450    3    0    3
 -2      3746      4146      3450      5560
 -1     17451    3    0    3
 -2      5627       938      5628      4146
 -1     17452    3    0    3
 -2      5632      5635      3681      4238
 -1     17453    3    0    3
 -2      4025      3575      4269       508
 -1     17454    3    0    3
 -2      3544      3574      4926      5488
 -1     17455    3    0    3
 -2      5628       692      5631       969
 -1     17456    3    0    3
 -2      5628       938       692       969
 -1     17457    3    0    3
 -2      1271      5561      1270      6428
 -1     17458    3    0    3
 -2      5564      4474      5563      6405
 -1     17459    3    0    3
 -2      4238      5633      3681      5630
 -1     17460    3    0    3
 -2       551      4915      4916      1848
 -1     17461    3    0    3
 -2      1907       494       560      4931
 -1     17462    3    0    3
 -2      6381      5558      3510      6410
 -1     17463    3    0    3
 -2      6024      5330      1354      5955
 -1     17464    3    0    3
 -2      2065      1760      1797      5071
 -1     17465    3    0    3
 -2      1132      6781      6486      1363
 -1     17466    3    0    3
 -2      5018      5585      4506      4477
 -1     17467    3    0    3
 -2      1849       101      4920      1892
 -1     17468    3    0    3
 -2       679      6378      5620      1049
 -1     17469    3    0    3
 -2      5548      3571      5546      5766
 -1     17470    3    0    3
 -2      1387      1215      1297      6391
 -1     17471    3    0    3
 -2      3571      5548      5559      5766
 -1     17472    3    0    3
 -2      3479      4418      5559      3509
 -1     17473    3    0    3
 -2      1342      5558      6381      6410
 -1     17474    3    0    3
 -2      6611      1604      6707      5556
 -1     17475    3    0    3
 -2      6577      4931      4899      1943
 -1     17476    3    0    3
 -2      1161      5559      1160      1050
 -1     17477    3    0    3
 -2      5624      5627      3746      6422
 -1     17478    3    0    3
 -2      3720      5542      5545      3607
 -1     17479    3    0    3
 -2      3746      5627      4146      6422
 -1     17480    3    0    3
 -2      4980      5547      3659      3626
 -1     17481    3    0    3
 -2      4181      3646      5620      5618
 -1     17482    3    0    3
 -2      5623      5621      4054      4418
 -1     17483    3    0    3
 -2      4882      3817      4489      6438
 -1     17484    3    0    3
 -2      4025      3575       508      3997
 -1     17485    3    0    3
 -2      4146      5627      5625      3575
 -1     17486    3    0    3
 -2       524       515      4193       625
 -1     17487    3    0    3
 -2      4418      5624      3746      6422
 -1     17488    3    0    3
 -2      1215      5545      5546      6778
 -1     17489    3    0    3
 -2      4054      5623      4418      6378
 -1     17490    3    0    3
 -2      3841      4446      5630      4473
 -1     17491    3    0    3
 -2       737      1049       679      5620
 -1     17492    3    0    3
 -2      5563      6405      6428      6429
 -1     17493    3    0    3
 -2      4108      5052      4278       566
 -1     17494    3    0    3
 -2      5563      3841      4516      4499
 -1     17495    3    0    3
 -2       169      5520      3322      3330
 -1     17496    3    0    3
 -2      5621      5623      4054      3476
 -1     17497    3    0    3
 -2      5625      5622      4025      4269
 -1     17498    3    0    3
 -2      5621      5622      4418      3882
 -1     17499    3    0    3
 -2      4269      5625      5627      3575
 -1     17500    3    0    3
 -2      4984      2140      2119      5866
 -1     17501    3    0    3
 -2      4094      3733      5432      3677
 -1     17502    3    0    3
 -2      5065      3909       606      4117
 -1     17503    3    0    3
 -2      3746      5624      5622      4269
 -1     17504    3    0    3
 -2      4228       559      3775       537
 -1     17505    3    0    3
 -2      3510      6747      5560      3453
 -1     17506    3    0    3
 -2       508      3575       510      3997
 -1     17507    3    0    3
 -2      5825      5879      4952      2295
 -1     17508    3    0    3
 -2      4269      5624      5622      3882
 -1     17509    3    0    3
 -2      5818      1480      5553      6408
 -1     17510    3    0    3
 -2      3833      4928      4232       494
 -1     17511    3    0    3
 -2      3536      4981      5548      3571
 -1     17512    3    0    3
 -2      3571      3510      5559      4992
 -1     17513    3    0    3
 -2      5484      4141      3604      5487
 -1     17514    3    0    3
 -2      2154      5792      2419      2142
 -1     17515    3    0    3
 -2      2418      4995      2617      2383
 -1     17516    3    0    3
 -2      3707      4928      4931      4232
 -1     17517    3    0    3
 -2      6577      4931      1943      4932
 -1     17518    3    0    3
 -2      4931      4933      3707      4232
 -1     17519    3    0    3
 -2      5551      5557      3542      5673
 -1     17520    3    0    3
 -2      6235      1099      1209      6244
 -1     17521    3    0    3
 -2       679      6378      1049      1050
 -1     17522    3    0    3
 -2       679      6378      5623      5620
 -1     17523    3    0    3
 -2      5621      3536      4085      5618
 -1     17524    3    0    3
 -2      4453      5616      3781      5614
 -1     17525    3    0    3
 -2      5631      5628       969      4516
 -1     17526    3    0    3
 -2      3901      4925      4440      4923
 -1     17527    3    0    3
 -2      4019      4915      4916       551
 -1     17528    3    0    3
 -2       534      4920      4334       552
 -1     17529    3    0    3
 -2      3474      4916      1920      6677
 -1     17530    3    0    3
 -2      5559      4054      5548      3536
 -1     17531    3    0    3
 -2      2227      4897      6579      2338
 -1     17532    3    0    3
 -2      1996      1849      1771      4923
 -1     17533    3    0    3
 -2      3348      3600      5533      5532
 -1     17534    3    0    3
 -2      4920      1849      1892      1947
 -1     17535    3    0    3
 -2      1974      3583      4274      5063
 -1     17536    3    0    3
 -2      5769      2432      2430      2296
 -1     17537    3    0    3
 -2      5558      3510      4991      3453
 -1     17538    3    0    3
 -2      2846      4784      6345      2848
 -1     17539    3    0    3
 -2      5560      3510      5559      6381
 -1     17540    3    0    3
 -2      2012      5770      1926      2256
 -1     17541    3    0    3
 -2      1860      4974      3345      5813
 -1     17542    3    0    3
 -2       509      5624      5627      4269
 -1     17543    3    0    3
 -2      4996      5563      4474      3453
 -1     17544    3    0    3
 -2      3482      5552      5558      5768
 -1     17545    3    0    3
 -2      3909      5633      3878      5068
 -1     17546    3    0    3
 -2      3881      4916      3474      6677
 -1     17547    3    0    3
 -2      6381      3510      5559      6421
 -1     17548    3    0    3
 -2       605      3681       519       585
 -1     17549    3    0    3
 -2       770      6429       895       894
 -1     17550    3    0    3
 -2      3571      5546      5557      3602
 -1     17551    3    0    3
 -2      3600      3347      3406      3339
 -1     17552    3    0    3
 -2      5780      3798      4960      3549
 -1     17553    3    0    3
 -2       523      4930      3833      4061
 -1     17554    3    0    3
 -2      4286      4927      3833       493
 -1     17555    3    0    3
 -2      1771        99      1772      4924
 -1     17556    3    0    3
 -2      3474      3881      4881      3697
 -1     17557    3    0    3
 -2      5549      4138      3635      5551
 -1     17558    3    0    3
 -2      3574      3604      4440      4925
 -1     17559    3    0    3
 -2      3958      4922      4921      4169
 -1     17560    3    0    3
 -2      4384      5539      1215      5793
 -1     17561    3    0    3
 -2       509      5624       535        41
 -1     17562    3    0    3
 -2      4474      3482      4502      4994
 -1     17563    3    0    3
 -2      3997      4228       537      4025
 -1     17564    3    0    3
 -2      4334      4925      3901      4923
 -1     17565    3    0    3
 -2      3854      3698       622      3821
 -1     17566    3    0    3
 -2      3602      5546      5557      6392
 -1     17567    3    0    3
 -2      1920      4881      3474      6677
 -1     17568    3    0    3
 -2      2193      2444      2378      6245
 -1     17569    3    0    3
 -2       509      5624      4269       535
 -1     17570    3    0    3
 -2      4224      4384      5536      3667
 -1     17571    3    0    3
 -2      3681      5632      4238      5630
 -1     17572    3    0    3
 -2      4889      2180      2227      6247
 -1     17573    3    0    3
 -2      5633      3681      5635      4238
 -1     17574    3    0    3
 -2      3817      4920      4334      4922
 -1     17575    3    0    3
 -2      5424      3764      5426      3815
 -1     17576    3    0    3
 -2      3901      4440      4924      4923
 -1     17577    3    0    3
 -2      3841      4238      5632      5630
 -1     17578    3    0    3
 -2       493      4924        99       512
 -1     17579    3    0    3
 -2      4061      4468      3793      5491
 -1     17580    3    0    3
 -2      1270      1602      1269      5759
 -1     17581    3    0    3
 -2      6037       643      5262      5259
 -1     17582    3    0    3
 -2      5759      5562      5742      6405
 -1     17583    3    0    3
 -2      2250      2367      4897      2338
 -1     17584    3    0    3
 -2      2433      2397      4983      5684
 -1     17585    3    0    3
 -2      6747       938      1199      1164
 -1     17586    3    0    3
 -2      4474      4996      3453      4994
 -1     17587    3    0    3
 -2      5540      4973      3667      4224
 -1     17588    3    0    3
 -2      5367      5867      5581      4406
 -1     17589    3    0    3
 -2      2417      5026      2181      2262
 -1     17590    3    0    3
 -2      4238      5632      5635      6429
 -1     17591    3    0    3
 -2      4388      3537      5564      4413
 -1     17592    3    0    3
 -2      5742      5562      5564      6405
 -1     17593    3    0    3
 -2      4274      4446      5065      3583
 -1     17594    3    0    3
 -2      1342      1295      1490      6410
 -1     17595    3    0    3
 -2      4928      4381      3707      6432
 -1     17596    3    0    3
 -2      1073      6383      1087       975
 -1     17597    3    0    3
 -2       555       597      4468       507
 -1     17598    3    0    3
 -2      3484      4330      4933      3707
 -1     17599    3    0    3
 -2      4459       685       854      5440
 -1     17600    3    0    3
 -2      4899      4330      4504      3456
 -1     17601    3    0    3
 -2       770      6429      5632       895
 -1     17602    3    0    3
 -2      6405      4474      5563      6428
 -1     17603    3    0    3
 -2      6409      1199      1340      6747
 -1     17604    3    0    3
 -2      6326      5563      5560      6747
 -1     17605    3    0    3
 -2      5558      1556      1340      6409
 -1     17606    3    0    3
 -2      6589      4886      4885      3768
 -1     17607    3    0    3
 -2      5558      1342      1490      6410
 -1     17608    3    0    3
 -2      5742      5564      1149      6405
 -1     17609    3    0    3
 -2      5633      4238      4413      4446
 -1     17610    3    0    3
 -2        76       511      5067       505
 -1     17611    3    0    3
 -2      4499      3969      5626      5061
 -1     17612    3    0    3
 -2      5636      5635      4086       519
 -1     17613    3    0    3
 -2      4516      3841      5631      5629
 -1     17614    3    0    3
 -2      5563      4474      5561      6428
 -1     17615    3    0    3
 -2      4238      3841      5632      6429
 -1     17616    3    0    3
 -2      1199      1212       969      6326
 -1     17617    3    0    3
 -2      1132      6393      6486      5547
 -1     17618    3    0    3
 -2      1132      6393      5547      1133
 -1     17619    3    0    3
 -2      5629      3841      5631      4356
 -1     17620    3    0    3
 -2      5065      3938      5630      4473
 -1     17621    3    0    3
 -2      3938      3969      5629      5064
 -1     17622    3    0    3
 -2      3969      5626      5629      4499
 -1     17623    3    0    3
 -2        42      5624        41       535
 -1     17624    3    0    3
 -2      4086      3681      5633       585
 -1     17625    3    0    3
 -2      3601      4170      5071      5070
 -1     17626    3    0    3
 -2       738      5796      5619      5616
 -1     17627    3    0    3
 -2      5071       592      3601      5070
 -1     17628    3    0    3
 -2        39       693        38       539
 -1     17629    3    0    3
 -2      5631      4516      5629      3985
 -1     17630    3    0    3
 -2      3453      3510      4991      4993
 -1     17631    3    0    3
 -2       605      4356       629       539
 -1     17632    3    0    3
 -2      2433      6801      5684      4985
 -1     17633    3    0    3
 -2      5629       540      4356      3985
 -1     17634    3    0    3
 -2      5056      3509      5621      4057
 -1     17635    3    0    3
 -2      5063      5065      3719      4117
 -1     17636    3    0    3
 -2      3518      6249      3577      4884
 -1     17637    3    0    3
 -2      4886      4885      3768      3544
 -1     17638    3    0    3
 -2       509      3575       538       510
 -1     17639    3    0    3
 -2      4057      4025       508       616
 -1     17640    3    0    3
 -2      5626      4146      5625      3575
 -1     17641    3    0    3
 -2       629      3681      5630      4356
 -1     17642    3    0    3
 -2      5630      3681      5632      4356
 -1     17643    3    0    3
 -2      5626      5629      4516      3985
 -1     17644    3    0    3
 -2      5632      3841      5630      4356
 -1     17645    3    0    3
 -2      5630      3841      5629      4356
 -1     17646    3    0    3
 -2      3882      4269      5624       535
 -1     17647    3    0    3
 -2      4057      4228       616      3828
 -1     17648    3    0    3
 -2       576       636      4085       587
 -1     17649    3    0    3
 -2      5623      4418      5624      3882
 -1     17650    3    0    3
 -2      5627        40        41       509
 -1     17651    3    0    3
 -2      3985      5628      5626      3575
 -1     17652    3    0    3
 -2      4221       588       550      4201
 -1     17653    3    0    3
 -2      4915      3474      1921      5682
 -1     17654    3    0    3
 -2      5628       509      5627      3575
 -1     17655    3    0    3
 -2      4919      4916      3881      6677
 -1     17656    3    0    3
 -2        79      5062       562       599
 -1     17657    3    0    3
 -2        79      5062       599      1762
 -1     17658    3    0    3
 -2      4356      5632      5631       539
 -1     17659    3    0    3
 -2        79      5062      1762      1802
 -1     17660    3    0    3
 -2        40       509      5628       538
 -1     17661    3    0    3
 -2      1921      4881      3474      1920
 -1     17662    3    0    3
 -2      3985      5631      5628       538
 -1     17663    3    0    3
 -2      5625      3450      5626      3997
 -1     17664    3    0    3
 -2      3729      6772      3699      4879
 -1     17665    3    0    3
 -2       710      6244      1013      1014
 -1     17666    3    0    3
 -2      5632       605        38       539
 -1     17667    3    0    3
 -2      6405      1321      5759      1269
 -1     17668    3    0    3
 -2      3681      5635       605       519
 -1     17669    3    0    3
 -2      5635      3681      4086       519
 -1     17670    3    0    3
 -2      3938      5630       629      3909
 -1     17671    3    0    3
 -2       938      5627      5628       649
 -1     17672    3    0    3
 -2       938      5628       692       649
 -1     17673    3    0    3
 -2      1955      5739      5717      2100
 -1     17674    3    0    3
 -2      1955      5739      2372      6730
 -1     17675    3    0    3
 -2      4241      3659      5544      3540
 -1     17676    3    0    3
 -2      1955      5739      6730      5717
 -1     17677    3    0    3
 -2      1955      5739      2100      2372
 -1     17678    3    0    3
 -2      4241      3659      3540      5610
 -1     17679    3    0    3
 -2      4012       868      1056      5538
 -1     17680    3    0    3
 -2       564       566      5050       565
 -1     17681    3    0    3
 -2       605       770      5632        38
 -1     17682    3    0    3
 -2       770       693      5632        38
 -1     17683    3    0    3
 -2      4356      5631      3985       539
 -1     17684    3    0    3
 -2       538      3985      5631       539
 -1     17685    3    0    3
 -2      3985       540      4356       539
 -1     17686    3    0    3
 -2       538       540      3985       539
 -1     17687    3    0    3
 -2      3575      5628       509       538
 -1     17688    3    0    3
 -2      3575      3985      5628       538
 -1     17689    3    0    3
 -2       510       536      3997      3969
 -1     17690    3    0    3
 -2       710      6244      1014      5501
 -1     17691    3    0    3
 -2      5058        81       558      1877
 -1     17692    3    0    3
 -2      3583      5068      5066      4223
 -1     17693    3    0    3
 -2      3523      4362      5028      4388
 -1     17694    3    0    3
 -2       511      3666      5067       505
 -1     17695    3    0    3
 -2      3729      6772      6222      4880
 -1     17696    3    0    3
 -2      4413      4997      3583      4446
 -1     17697    3    0    3
 -2      4086      5636      4450      5634
 -1     17698    3    0    3
 -2      4278       586       564      5051
 -1     17699    3    0    3
 -2       540       538      3985       510
 -1     17700    3    0    3
 -2       538      3575      3985       510
 -1     17701    3    0    3
 -2      3626      5614      5049      3598
 -1     17702    3    0    3
 -2      4450      3946      5636      5639
 -1     17703    3    0    3
 -2      4450      5637      3776       632
 -1     17704    3    0    3
 -2       504        78       599      5063
 -1     17705    3    0    3
 -2      1297      1215      5546      6391
 -1     17706    3    0    3
 -2      4054      3646      3536      5618
 -1     17707    3    0    3
 -2      5627        40      5628       649
 -1     17708    3    0    3
 -2      2629      2318      2468      4883
 -1     17709    3    0    3
 -2      5624      5623      3882       535
 -1     17710    3    0    3
 -2       508      4269      3882       535
 -1     17711    3    0    3
 -2      3438      4857      3408      3341
 -1     17712    3    0    3
 -2      3490      3550      4897      5461
 -1     17713    3    0    3
 -2       509      4269       508       535
 -1     17714    3    0    3
 -2       576      3882       498       535
 -1     17715    3    0    3
 -2       498      5623        42       535
 -1     17716    3    0    3
 -2       679       737      5620        43
 -1     17717    3    0    3
 -2      5620       737       499        43
 -1     17718    3    0    3
 -2       499       737        44        43
 -1     17719    3    0    3
 -2      4884      2384      4878      2337
 -1     17720    3    0    3
 -2      4884      2384      6379      4878
 -1     17721    3    0    3
 -2      5627        40       649        41
 -1     17722    3    0    3
 -2      3636      3729      3699      5444
 -1     17723    3    0    3
 -2      4054      5623      5620      3476
 -1     17724    3    0    3
 -2      3882      5623       498       535
 -1     17725    3    0    3
 -2      4057      4228      5057      4025
 -1     17726    3    0    3
 -2      4057      4228      4025       616
 -1     17727    3    0    3
 -2      4012       868      5545      1056
 -1     17728    3    0    3
 -2       576      5621      3882      4057
 -1     17729    3    0    3
 -2      5438      5437      3758      3729
 -1     17730    3    0    3
 -2       576       508      3882       535
 -1     17731    3    0    3
 -2      4012       868      5538      3607
 -1     17732    3    0    3
 -2      5623       679        42       841
 -1     17733    3    0    3
 -2        44      5619       737       499
 -1     17734    3    0    3
 -2       649      5627        41       841
 -1     17735    3    0    3
 -2      6084      4874      4877      6582
 -1     17736    3    0    3
 -2      5839       765      1023      6547
 -1     17737    3    0    3
 -2      5052      4108      4278      5053
 -1     17738    3    0    3
 -2      5620      5623       498      3476
 -1     17739    3    0    3
 -2      5623      3882       498      3476
 -1     17740    3    0    3
 -2      3882      5623      5621      3476
 -1     17741    3    0    3
 -2      3882       576       498      3476
 -1     17742    3    0    3
 -2      5621       576      3882      3476
 -1     17743    3    0    3
 -2      5618      4085       636      4108
 -1     17744    3    0    3
 -2      3536      5056      5621      4085
 -1     17745    3    0    3
 -2       545      3781      4181       638
 -1     17746    3    0    3
 -2      4992      5559      3536      3509
 -1     17747    3    0    3
 -2      4181      3476       499       636
 -1     17748    3    0    3
 -2      3476      5621       576      4085
 -1     17749    3    0    3
 -2      3828       587       586       616
 -1     17750    3    0    3
 -2      3476       498       499       636
 -1     17751    3    0    3
 -2      3476       576       498       636
 -1     17752    3    0    3
 -2      3510      6747      5558      6381
 -1     17753    3    0    3
 -2      4108       636      4181       638
 -1     17754    3    0    3
 -2      4882      4489      3881      6677
 -1     17755    3    0    3
 -2      3536      5621      4054      5618
 -1     17756    3    0    3
 -2      3806      4851      4850      5675
 -1     17757    3    0    3
 -2      4431      5051      5053      5052
 -1     17758    3    0    3
 -2      4085       636      3476      5618
 -1     17759    3    0    3
 -2      5620      4054      3476      5618
 -1     17760    3    0    3
 -2      5620      3646      4054      5618
 -1     17761    3    0    3
 -2       627      4453      3781      5614
 -1     17762    3    0    3
 -2      1904      4915      1848      1921
 -1     17763    3    0    3
 -2      4453      5613      5615      3948
 -1     17764    3    0    3
 -2      5839       765      5549       843
 -1     17765    3    0    3
 -2      5618      4181      3646      5617
 -1     17766    3    0    3
 -2      3510      6747      3453      5558
 -1     17767    3    0    3
 -2      4057       508       576       616
 -1     17768    3    0    3
 -2      4085      5621       576      4057
 -1     17769    3    0    3
 -2      4085      5056      5621      4057
 -1     17770    3    0    3
 -2      4011      3466      5045      5043
 -1     17771    3    0    3
 -2      5613      4166      4192      5048
 -1     17772    3    0    3
 -2      3626      4166      5613      5048
 -1     17773    3    0    3
 -2      5619      3646      4181      5617
 -1     17774    3    0    3
 -2      3781      5619      4181      5617
 -1     17775    3    0    3
 -2       564       587      4278       566
 -1     17776    3    0    3
 -2      1266      1166      1267      6091
 -1     17777    3    0    3
 -2      3649      4330      4504      4899
 -1     17778    3    0    3
 -2      3629      2079      4557      4036
 -1     17779    3    0    3
 -2       497      4166       579       627
 -1     17780    3    0    3
 -2      4166       497      4134       627
 -1     17781    3    0    3
 -2      3546      4290      5131      3769
 -1     17782    3    0    3
 -2      4108      5618      4085      5053
 -1     17783    3    0    3
 -2      5043       527      5042      1753
 -1     17784    3    0    3
 -2       497       496      3952       495
 -1     17785    3    0    3
 -2       855      5506       825       856
 -1     17786    3    0    3
 -2      6138      1918      4270      2120
 -1     17787    3    0    3
 -2      4891      1891      4265      4890
 -1     17788    3    0    3
 -2      3913      3381      3777      3380
 -1     17789    3    0    3
 -2      5613      4088      5615      3540
 -1     17790    3    0    3
 -2      3452      4449      4419      5503
 -1     17791    3    0    3
 -2       545       627      3781       638
 -1     17792    3    0    3
 -2       914      4340      5494      5493
 -1     17793    3    0    3
 -2       738      5796      5616       907
 -1     17794    3    0    3
 -2      3781       627      4134       638
 -1     17795    3    0    3
 -2      2064      3799      1961      2180
 -1     17796    3    0    3
 -2        45        46       775       544
 -1     17797    3    0    3
 -2      4893      4265      4891      3712
 -1     17798    3    0    3
 -2      3684       530       502      4217
 -1     17799    3    0    3
 -2      4883      2318      2468      6208
 -1     17800    3    0    3
 -2      5613      3540      3626      3659
 -1     17801    3    0    3
 -2       579       627      4453       544
 -1     17802    3    0    3
 -2      4192       579      5613      4088
 -1     17803    3    0    3
 -2      3841      4446      4473      5563
 -1     17804    3    0    3
 -2      4481      3388      3414      4284
 -1     17805    3    0    3
 -2       544       627      3781       545
 -1     17806    3    0    3
 -2       627      4166       579      4453
 -1     17807    3    0    3
 -2      5617      4134      3781      5614
 -1     17808    3    0    3
 -2      4453       529      5615      4088
 -1     17809    3    0    3
 -2      4328      3781      5616      5614
 -1     17810    3    0    3
 -2      4181      5618      4108      5617
 -1     17811    3    0    3
 -2      4884      3612      4883      3577
 -1     17812    3    0    3
 -2      3781      5616      5619      4328
 -1     17813    3    0    3
 -2      5615       907      5616      3948
 -1     17814    3    0    3
 -2      4884      2468      2317      6208
 -1     17815    3    0    3
 -2       737      5620       499      5619
 -1     17816    3    0    3
 -2      5620      6378      5623      4054
 -1     17817    3    0    3
 -2      5898      1644      5585      5587
 -1     17818    3    0    3
 -2      5616      4453      3781       544
 -1     17819    3    0    3
 -2      1891       332      1775      6708
 -1     17820    3    0    3
 -2        45       775      5616       544
 -1     17821    3    0    3
 -2      4453      5616      5615       544
 -1     17822    3    0    3
 -2      5615      5616       775       544
 -1     17823    3    0    3
 -2        46      5615       775       544
 -1     17824    3    0    3
 -2      2268      1961      4878      2180
 -1     17825    3    0    3
 -2      5606       500      4268      4245
 -1     17826    3    0    3
 -2      3466      3659      3691      5045
 -1     17827    3    0    3
 -2      5461      3550      4897      3518
 -1     17828    3    0    3
 -2      3466      3659      3873      4977
 -1     17829    3    0    3
 -2      5606       500      4245      4357
 -1     17830    3    0    3
 -2      1212      6409      6326      1199
 -1     17831    3    0    3
 -2       738      5616      5619       545
 -1     17832    3    0    3
 -2      1891      1775      2064      6708
 -1     17833    3    0    3
 -2      6245      2193      2444      6266
 -1     17834    3    0    3
 -2       738        44        45       545
 -1     17835    3    0    3
 -2      6568      4901      4902      5816
 -1     17836    3    0    3
 -2      3604      4440      3817      4885
 -1     17837    3    0    3
 -2       608       517       624      3974
 -1     17838    3    0    3
 -2      3641      3677      4094      5440
 -1     17839    3    0    3
 -2       738        45      5616       545
 -1     17840    3    0    3
 -2      5616        45       544       545
 -1     17841    3    0    3
 -2      3781      5616       544       545
 -1     17842    3    0    3
 -2      2752      2760      4049      3825
 -1     17843    3    0    3
 -2      3571      5769      4992      5795
 -1     17844    3    0    3
 -2       738      5796       907      1052
 -1     17845    3    0    3
 -2       544        46      5615       529
 -1     17846    3    0    3
 -2       499      4181       636       638
 -1     17847    3    0    3
 -2       573      4071       526       503
 -1     17848    3    0    3
 -2      4899      3707      4886      6432
 -1     17849    3    0    3
 -2      5056      5054      3828      4278
 -1     17850    3    0    3
 -2      3759      4278      5056      5053
 -1     17851    3    0    3
 -2       832       602        49        50
 -1     17852    3    0    3
 -2      5688      1639      1555      1664
 -1     17853    3    0    3
 -2      4517      5605      3745      5606
 -1     17854    3    0    3
 -2      4878      2268      2180      2384
 -1     17855    3    0    3
 -2      6268      2204      4886      6249
 -1     17856    3    0    3
 -2      3674       542      4940      4077
 -1     17857    3    0    3
 -2      5042      4442      4011      5044
 -1     17858    3    0    3
 -2      3691      3715      3466      5044
 -1     17859    3    0    3
 -2      3796      4098      3987      5605
 -1     17860    3    0    3
 -2       573      4245       500       612
 -1     17861    3    0    3
 -2      5606      4357      5609      3845
 -1     17862    3    0    3
 -2       502       528      3684      4357
 -1     17863    3    0    3
 -2      4517      3745      3715      5606
 -1     17864    3    0    3
 -2      3684      5611      5609      4357
 -1     17865    3    0    3
 -2      3720      4978      3939      3696
 -1     17866    3    0    3
 -2       886      6000      6005      5370
 -1     17867    3    0    3
 -2       100      1771      1849      4923
 -1     17868    3    0    3
 -2      3684       528       529      5612
 -1     17869    3    0    3
 -2       528       529       530      3684
 -1     17870    3    0    3
 -2      4357       500       501      3987
 -1     17871    3    0    3
 -2      4088      5613      5610      3540
 -1     17872    3    0    3
 -2       528       501      5611      4357
 -1     17873    3    0    3
 -2       529      4088       530      3684
 -1     17874    3    0    3
 -2      6138      1918      2120      2484
 -1     17875    3    0    3
 -2      3693      5542      5544      5774
 -1     17876    3    0    3
 -2       776        47       823      5612
 -1     17877    3    0    3
 -2       528        47       823        48
 -1     17878    3    0    3
 -2       823      5611       528        48
 -1     17879    3    0    3
 -2      3698      5509       547       601
 -1     17880    3    0    3
 -2       528       530       502      3684
 -1     17881    3    0    3
 -2      5041      4442      5044      4245
 -1     17882    3    0    3
 -2      5613      4192      4088      5610
 -1     17883    3    0    3
 -2      3948      5613      5615      3540
 -1     17884    3    0    3
 -2       823       817      5611        48
 -1     17885    3    0    3
 -2      3987      3796       623      4098
 -1     17886    3    0    3
 -2       501       528      5611        48
 -1     17887    3    0    3
 -2      2222      6243      2441      2272
 -1     17888    3    0    3
 -2       832       817        49      5608
 -1     17889    3    0    3
 -2       501       602        49      5608
 -1     17890    3    0    3
 -2       602       832        49      5608
 -1     17891    3    0    3
 -2      4517      5608      3987      5606
 -1     17892    3    0    3
 -2      5606      5605      3745      4268
 -1     17893    3    0    3
 -2      3987      5608      4357      5606
 -1     17894    3    0    3
 -2      4071      5041      5040      4268
 -1     17895    3    0    3
 -2      3987      5605      4517      5606
 -1     17896    3    0    3
 -2      1135      1137       855      6324
 -1     17897    3    0    3
 -2       573      4268      4071       572
 -1     17898    3    0    3
 -2      4268       500      3796       572
 -1     17899    3    0    3
 -2      3516      3611      4983      3576
 -1     17900    3    0    3
 -2      3470      4367      4904      4174
 -1     17901    3    0    3
 -2      3935      5039      4442      5041
 -1     17902    3    0    3
 -2       501      5608      4357      3987
 -1     17903    3    0    3
 -2      5608       501       602      3987
 -1     17904    3    0    3
 -2       501       500       602      3987
 -1     17905    3    0    3
 -2      4517      5608       975      5607
 -1     17906    3    0    3
 -2       612       502       530      4217
 -1     17907    3    0    3
 -2      5608       832       975      5607
 -1     17908    3    0    3
 -2      5923      4406      6637      5581
 -1     17909    3    0    3
 -2      5541      4370      5466      4399
 -1     17910    3    0    3
 -2       855       857      5509      6242
 -1     17911    3    0    3
 -2      2222      6243      2272      6577
 -1     17912    3    0    3
 -2      3845      5608      5611      6383
 -1     17913    3    0    3
 -2       906       988      1213      6445
 -1     17914    3    0    3
 -2      3715      3524      3935      5041
 -1     17915    3    0    3
 -2      5040      5041      3745      4268
 -1     17916    3    0    3
 -2      3715      3745      3524      5041
 -1     17917    3    0    3
 -2       530      3684      5610      4217
 -1     17918    3    0    3
 -2      3684      4088       530      5610
 -1     17919    3    0    3
 -2      4088      4192       530      5610
 -1     17920    3    0    3
 -2      4241      3684      5610      5612
 -1     17921    3    0    3
 -2       528        47       529      5612
 -1     17922    3    0    3
 -2      5616      4453      5615      3948
 -1     17923    3    0    3
 -2      1751      5816      6562      1954
 -1     17924    3    0    3
 -2      4071      4245      5041      4268
 -1     17925    3    0    3
 -2      1165      1208      6235      5462
 -1     17926    3    0    3
 -2      3873      4485      5048      5046
 -1     17927    3    0    3
 -2      3693      4975      5781      5790
 -1     17928    3    0    3
 -2      5045       557      4383      4192
 -1     17929    3    0    3
 -2      4227      4942      4395      4419
 -1     17930    3    0    3
 -2      5468      5543      4370      6239
 -1     17931    3    0    3
 -2      5608      4517      3987      5607
 -1     17932    3    0    3
 -2      5605      5040      3796      4342
 -1     17933    3    0    3
 -2      4330      3649      4932      6577
 -1     17934    3    0    3
 -2      5608       602       832      5607
 -1     17935    3    0    3
 -2      5610      5609      4241      3691
 -1     17936    3    0    3
 -2       988       908      1086      5544
 -1     17937    3    0    3
 -2      4395      4904      4903      4424
 -1     17938    3    0    3
 -2      4357      5611      5609      3845
 -1     17939    3    0    3
 -2      4357      5608      5611      3845
 -1     17940    3    0    3
 -2      2368      2287      2367      6268
 -1     17941    3    0    3
 -2      5563      5560      4499      4516
 -1     17942    3    0    3
 -2       795      5669      5478       962
 -1     17943    3    0    3
 -2      4892       334      1696      3399
 -1     17944    3    0    3
 -2      5784      2441      6243      6752
 -1     17945    3    0    3
 -2      4892       334      3399      3387
 -1     17946    3    0    3
 -2      5608      4517       975      6383
 -1     17947    3    0    3
 -2       752      2762       245       819
 -1     17948    3    0    3
 -2        75      5070      1761       511
 -1     17949    3    0    3
 -2      5610      3684      4088      5612
 -1     17950    3    0    3
 -2      3626      5049      4166      5048
 -1     17951    3    0    3
 -2      1195      5363      5846      1221
 -1     17952    3    0    3
 -2      4977      3715      3466      3691
 -1     17953    3    0    3
 -2      4453       529       579       544
 -1     17954    3    0    3
 -2      1086      1087      1108      6476
 -1     17955    3    0    3
 -2      5614      5049      4166      3626
 -1     17956    3    0    3
 -2      5701      1929      6662      6211
 -1     17957    3    0    3
 -2      5619      3781      4328      5617
 -1     17958    3    0    3
 -2       627      3781      4134      5614
 -1     17959    3    0    3
 -2      4278      4085      5056      5053
 -1     17960    3    0    3
 -2      3626      4328      5614      3598
 -1     17961    3    0    3
 -2      5614      4134      5049      3598
 -1     17962    3    0    3
 -2      5048      5045      3873      4383
 -1     17963    3    0    3
 -2      5614      5617      4134      3598
 -1     17964    3    0    3
 -2      4166      5613      4453      5614
 -1     17965    3    0    3
 -2      4284      2221      5741      2048
 -1     17966    3    0    3
 -2       572       500      3796       623
 -1     17967    3    0    3
 -2      4936      4938      4123      3585
 -1     17968    3    0    3
 -2      4941      4939      4123      3585
 -1     17969    3    0    3
 -2      4284      2221      4901      5741
 -1     17970    3    0    3
 -2      4277      4475      4938      3585
 -1     17971    3    0    3
 -2      5465      5466      4455      3927
 -1     17972    3    0    3
 -2      6250      4904      4902      6568
 -1     17973    3    0    3
 -2      1212      6409      1271      6428
 -1     17974    3    0    3
 -2      4980      3598      5547      3626
 -1     17975    3    0    3
 -2      6560      4944      2159      4904
 -1     17976    3    0    3
 -2      5614      5613      4453      3948
 -1     17977    3    0    3
 -2      5614      4166      5613      3626
 -1     17978    3    0    3
 -2      4928      4931      6432      3707
 -1     17979    3    0    3
 -2      1049      5620      1052      6464
 -1     17980    3    0    3
 -2      6393      5547      1213      5774
 -1     17981    3    0    3
 -2      1156      1052      5548      6464
 -1     17982    3    0    3
 -2      5548      1052      3646      6464
 -1     17983    3    0    3
 -2      1487      5806      1486      1485
 -1     17984    3    0    3
 -2      5548      1052      1132      5796
 -1     17985    3    0    3
 -2      5548      5547      4328      5796
 -1     17986    3    0    3
 -2      3948      5614      5613      3626
 -1     17987    3    0    3
 -2      5616      4328      5614      3948
 -1     17988    3    0    3
 -2       902      6624       903       747
 -1     17989    3    0    3
 -2      3948      5547      4328      3626
 -1     17990    3    0    3
 -2      3948      4328      5614      3626
 -1     17991    3    0    3
 -2      5615       529       776      5612
 -1     17992    3    0    3
 -2      4863      6701      2185      1935
 -1     17993    3    0    3
 -2      5771      6395      3913      6223
 -1     17994    3    0    3
 -2      3749      3777      5541      5542
 -1     17995    3    0    3
 -2      5799      1640      5585      5554
 -1     17996    3    0    3
 -2      6383      5761      1087      6476
 -1     17997    3    0    3
 -2      3757      5997      4275      5324
 -1     17998    3    0    3
 -2      5045      5048      3873      3659
 -1     17999    3    0    3
 -2      1109       868      1155      6473
 -1     18000    3    0    3
 -2      3540      4088      5615      5612
 -1     18001    3    0    3
 -2       823       776      5612       988
 -1     18002    3    0    3
 -2      4241      5610      3540      5612
 -1     18003    3    0    3
 -2      5610      4088      3540      5612
 -1     18004    3    0    3
 -2      4442      5042      3935      5044
 -1     18005    3    0    3
 -2      2094      4981      5051      5758
 -1     18006    3    0    3
 -2      3399      3814      4890      4892
 -1     18007    3    0    3
 -2      4977      5544      3715      3691
 -1     18008    3    0    3
 -2      3399      4890      1696      4892
 -1     18009    3    0    3
 -2      4300      5530      3720      3751
 -1     18010    3    0    3
 -2      2365      6618      2547      4617
 -1     18011    3    0    3
 -2      5052      4431      5051      5050
 -1     18012    3    0    3
 -2      6289      3351      3404      3350
 -1     18013    3    0    3
 -2      1139      1073       858      6240
 -1     18014    3    0    3
 -2       858      5607      5510      6240
 -1     18015    3    0    3
 -2      5605      3987      4517      5607
 -1     18016    3    0    3
 -2      5605      4098      3987      5607
 -1     18017    3    0    3
 -2      3556      5605      4098      5508
 -1     18018    3    0    3
 -2      6354      5339      1579      6307
 -1     18019    3    0    3
 -2      3854      3698      5507      4372
 -1     18020    3    0    3
 -2      5541      3749      5543      4370
 -1     18021    3    0    3
 -2      1906      6703      1857      1962
 -1     18022    3    0    3
 -2      4898      4507      4901      3654
 -1     18023    3    0    3
 -2      4974      3749      5541      4370
 -1     18024    3    0    3
 -2        43      5623       679        42
 -1     18025    3    0    3
 -2      4424      4901      4478      5465
 -1     18026    3    0    3
 -2      3326      3423      3913      5771
 -1     18027    3    0    3
 -2      3515      5465      4455      3927
 -1     18028    3    0    3
 -2       908      5612      5611      4241
 -1     18029    3    0    3
 -2       868       784       851      5531
 -1     18030    3    0    3
 -2      4300       784       868      5531
 -1     18031    3    0    3
 -2      2082      2160      4974      2073
 -1     18032    3    0    3
 -2      6041      3774      4744      3803
 -1     18033    3    0    3
 -2       851       868      5531      5538
 -1     18034    3    0    3
 -2      3381      6223      3913      4300
 -1     18035    3    0    3
 -2      5538      5535      5531      3395
 -1     18036    3    0    3
 -2      3874      5534      3468      5537
 -1     18037    3    0    3
 -2      5537      5539       934       756
 -1     18038    3    0    3
 -2       161      5538      3419       756
 -1     18039    3    0    3
 -2      3468      5539      3874      5537
 -1     18040    3    0    3
 -2      1086      1108      1109      6476
 -1     18041    3    0    3
 -2       896      4138      5551      6487
 -1     18042    3    0    3
 -2      4474      3482      4994      3453
 -1     18043    3    0    3
 -2      5563      6429      1212       895
 -1     18044    3    0    3
 -2      4972      3880      4224      3667
 -1     18045    3    0    3
 -2      3777      5787      3913      3380
 -1     18046    3    0    3
 -2      5536      5534      3874      4224
 -1     18047    3    0    3
 -2      5545      1215      5546      4384
 -1     18048    3    0    3
 -2      3571      4981      5548      3631
 -1     18049    3    0    3
 -2      5539      5536      4012      3468
 -1     18050    3    0    3
 -2      4051      4972      4970      4415
 -1     18051    3    0    3
 -2      1108      1087      1090      5761
 -1     18052    3    0    3
 -2      3571      5548      5546      3631
 -1     18053    3    0    3
 -2      5538      4012      5535      3468
 -1     18054    3    0    3
 -2      4012      5538      5539      3468
 -1     18055    3    0    3
 -2      5538       868      5531      3607
 -1     18056    3    0    3
 -2      2290      4977      2026      6477
 -1     18057    3    0    3
 -2      5536      4384      5539      4012
 -1     18058    3    0    3
 -2      3472      4978      3880      3667
 -1     18059    3    0    3
 -2      4395      4904      5468      4367
 -1     18060    3    0    3
 -2      6041      3774      3803      4743
 -1     18061    3    0    3
 -2      1056      5538      5539      4012
 -1     18062    3    0    3
 -2      4904      4395      5468      4424
 -1     18063    3    0    3
 -2      1056      1215      5545      4012
 -1     18064    3    0    3
 -2      3423      3913      5787      3380
 -1     18065    3    0    3
 -2      1215      1056      5539      4012
 -1     18066    3    0    3
 -2      3374      4948      4373      3415
 -1     18067    3    0    3
 -2       868      4300      5531      3607
 -1     18068    3    0    3
 -2      2040      4992      2241      5801
 -1     18069    3    0    3
 -2      5535      5538      5531      3607
 -1     18070    3    0    3
 -2       908      5612       988       823
 -1     18071    3    0    3
 -2       338      1860      3345      5813
 -1     18072    3    0    3
 -2      4972      3472      3667      3696
 -1     18073    3    0    3
 -2      6383      5544      5761      6476
 -1     18074    3    0    3
 -2      4883      4884      6249      6208
 -1     18075    3    0    3
 -2      3799      6708      4887      4412
 -1     18076    3    0    3
 -2      1073      1090      1087      5761
 -1     18077    3    0    3
 -2      3654      4894      4896      4895
 -1     18078    3    0    3
 -2      3357      3356      3349      4399
 -1     18079    3    0    3
 -2      4051      4224      4972      4415
 -1     18080    3    0    3
 -2      2083      3998      1718      1795
 -1     18081    3    0    3
 -2      2092      4277      4900      1944
 -1     18082    3    0    3
 -2      5531      5535      3607      5530
 -1     18083    3    0    3
 -2      3607      4300      5531      5530
 -1     18084    3    0    3
 -2      5545      4978      3631      3693
 -1     18085    3    0    3
 -2      5774      5544      3540      6445
 -1     18086    3    0    3
 -2      3777      5787      3380      4399
 -1     18087    3    0    3
 -2      3373      3737      3371      3372
 -1     18088    3    0    3
 -2      5533       163       763       164
 -1     18089    3    0    3
 -2      4504      4900      5464      4475
 -1     18090    3    0    3
 -2      4225      6503      5157      6502
 -1     18091    3    0    3
 -2      3362      5534      4224      3672
 -1     18092    3    0    3
 -2      4440      1998      3768      4924
 -1     18093    3    0    3
 -2      4278      5052      5053      5051
 -1     18094    3    0    3
 -2       157      5787       646      3398
 -1     18095    3    0    3
 -2       645      3423       158      5771
 -1     18096    3    0    3
 -2      4944      2159      4904      6485
 -1     18097    3    0    3
 -2      5542      4300      3777      3913
 -1     18098    3    0    3
 -2      5542      3777      5541      3913
 -1     18099    3    0    3
 -2      5530      3405      4966      3751
 -1     18100    3    0    3
 -2      5530      3381      4300      3396
 -1     18101    3    0    3
 -2      3874      5539       934      5537
 -1     18102    3    0    3
 -2      4440      1998      4885      3768
 -1     18103    3    0    3
 -2      1208      1165      6235      1272
 -1     18104    3    0    3
 -2      5534      5536      3874      3468
 -1     18105    3    0    3
 -2      4227      4903      2077      6275
 -1     18106    3    0    3
 -2      4224      5536      5534      4250
 -1     18107    3    0    3
 -2      3470      4946      4367      4174
 -1     18108    3    0    3
 -2      2202      2083      2082      5788
 -1     18109    3    0    3
 -2      3880      4973      2093      4415
 -1     18110    3    0    3
 -2      5535      5536      3696      4250
 -1     18111    3    0    3
 -2      1132      5547      5796       907
 -1     18112    3    0    3
 -2      2914      1853      4665       439
 -1     18113    3    0    3
 -2       158      3423      3326      5771
 -1     18114    3    0    3
 -2       785       645       158      5771
 -1     18115    3    0    3
 -2      3418      3371      3737      3372
 -1     18116    3    0    3
 -2      4958      2104      1742      5831
 -1     18117    3    0    3
 -2      3348      5533      3418      3737
 -1     18118    3    0    3
 -2      3348      3371      5532      3737
 -1     18119    3    0    3
 -2      4224      3672      3445      3362
 -1     18120    3    0    3
 -2       581      4445       522       580
 -1     18121    3    0    3
 -2       981       896      5533       763
 -1     18122    3    0    3
 -2      1887       346      1888      3337
 -1     18123    3    0    3
 -2      2367      6243      4897      6268
 -1     18124    3    0    3
 -2      5551      5540      3602      6392
 -1     18125    3    0    3
 -2      2162      6225      6560      6568
 -1     18126    3    0    3
 -2      5530      3405      3751      3381
 -1     18127    3    0    3
 -2      5531       784       160      3396
 -1     18128    3    0    3
 -2      4284      3591      4481      4901
 -1     18129    3    0    3
 -2      4224      3672      3874      5540
 -1     18130    3    0    3
 -2       728       568       825      5506
 -1     18131    3    0    3
 -2      3371      3348      3418      3737
 -1     18132    3    0    3
 -2      5533      3348      5532      3737
 -1     18133    3    0    3
 -2      4224      3874      4384      5540
 -1     18134    3    0    3
 -2      4904      4342      5468      4367
 -1     18135    3    0    3
 -2      3468      5538      5539      5537
 -1     18136    3    0    3
 -2      5539      3874       934      5793
 -1     18137    3    0    3
 -2      1880      4949      2006      2007
 -1     18138    3    0    3
 -2      4395      4252      4367      5468
 -1     18139    3    0    3
 -2      3796       572      3610      4016
 -1     18140    3    0    3
 -2       728       568      5506       547
 -1     18141    3    0    3
 -2      5539       934      1215      5793
 -1     18142    3    0    3
 -2      5539      4384      3874      5793
 -1     18143    3    0    3
 -2      4384      1215      5546      5793
 -1     18144    3    0    3
 -2      5782      2161      2030      6485
 -1     18145    3    0    3
 -2      4138      5532      3600      3635
 -1     18146    3    0    3
 -2      2001      2119      1792      4967
 -1     18147    3    0    3
 -2      2212      2394      2150      5780
 -1     18148    3    0    3
 -2      3667      4012      5536      3696
 -1     18149    3    0    3
 -2      4943      1773      1916      1915
 -1     18150    3    0    3
 -2      4978      3880      4979      2165
 -1     18151    3    0    3
 -2      6289       154       688       155
 -1     18152    3    0    3
 -2      4901      4903      6568      4424
 -1     18153    3    0    3
 -2      4138      3737      5540      6487
 -1     18154    3    0    3
 -2      5551      3602      5557      6392
 -1     18155    3    0    3
 -2      5038      5040      3524      3470
 -1     18156    3    0    3
 -2      1916      4943      1915      6560
 -1     18157    3    0    3
 -2      3737      3672      4138      5540
 -1     18158    3    0    3
 -2       509      5624        41      5627
 -1     18159    3    0    3
 -2      6375      5359      1448      1619
 -1     18160    3    0    3
 -2      4138      3672      3635      5540
 -1     18161    3    0    3
 -2       728       568       547        52
 -1     18162    3    0    3
 -2       581      4445      4917      4019
 -1     18163    3    0    3
 -2      1159       981       896      6487
 -1     18164    3    0    3
 -2      4943      1859      4944       513
 -1     18165    3    0    3
 -2      5537      3468      5538      3419
 -1     18166    3    0    3
 -2       728       568        52       825
 -1     18167    3    0    3
 -2       503      1794        89        90
 -1     18168    3    0    3
 -2      5794      6477      2290      2012
 -1     18169    3    0    3
 -2      5537      3737      3372       755
 -1     18170    3    0    3
 -2       981      3737      5540       755
 -1     18171    3    0    3
 -2       934      5537       756       755
 -1     18172    3    0    3
 -2      5535      5538      3468      3395
 -1     18173    3    0    3
 -2      3468      3435      5535      3395
 -1     18174    3    0    3
 -2      3373      3468      5537      3419
 -1     18175    3    0    3
 -2      3373      3435      3468      3419
 -1     18176    3    0    3
 -2      3372      3373      5537      3419
 -1     18177    3    0    3
 -2      1880      4949      6097      5883
 -1     18178    3    0    3
 -2      3381      5530      3397      3396
 -1     18179    3    0    3
 -2       161       851      5538       756
 -1     18180    3    0    3
 -2      5538       851      1056       756
 -1     18181    3    0    3
 -2      3347      3348      3600      3406
 -1     18182    3    0    3
 -2      5533      3348      3418      3406
 -1     18183    3    0    3
 -2       866      5465      6207      6325
 -1     18184    3    0    3
 -2      3600      3348      5533      3406
 -1     18185    3    0    3
 -2      5533       843      3600      3406
 -1     18186    3    0    3
 -2      4507      4898      4901      4478
 -1     18187    3    0    3
 -2      3396       784       160       159
 -1     18188    3    0    3
 -2      5806      4428      5579      4398
 -1     18189    3    0    3
 -2      4232       525       523       494
 -1     18190    3    0    3
 -2      5466      5541      4399      5787
 -1     18191    3    0    3
 -2      2159      2030      2161      6485
 -1     18192    3    0    3
 -2       158      3326       785      5771
 -1     18193    3    0    3
 -2      2247      4902      6568      6250
 -1     18194    3    0    3
 -2      5456      3425       152      3424
 -1     18195    3    0    3
 -2      3419      3468      5538      3395
 -1     18196    3    0    3
 -2      2491      6801      2492      4988
 -1     18197    3    0    3
 -2       160      5531      3396      3395
 -1     18198    3    0    3
 -2      5538      1056      5539       756
 -1     18199    3    0    3
 -2      3419      3435      3468      3395
 -1     18200    3    0    3
 -2      4903      2224      2077      6275
 -1     18201    3    0    3
 -2      6046      5872      4739      2219
 -1     18202    3    0    3
 -2      4070      4199      5472      3492
 -1     18203    3    0    3
 -2      3380      3913      3381      3326
 -1     18204    3    0    3
 -2      3423      3913      3380      3326
 -1     18205    3    0    3
 -2      4440      1998      1996      4885
 -1     18206    3    0    3
 -2      3372      5537       755       162
 -1     18207    3    0    3
 -2      5537      3372      3419       162
 -1     18208    3    0    3
 -2      2161      6250      2160      2159
 -1     18209    3    0    3
 -2      3332      4948      3331      3390
 -1     18210    3    0    3
 -2      3332      4948      5512      3331
 -1     18211    3    0    3
 -2      3332      4948      3390      3444
 -1     18212    3    0    3
 -2       763       843      5533       164
 -1     18213    3    0    3
 -2      3373      3737      5537      5534
 -1     18214    3    0    3
 -2      3406      5533       843       164
 -1     18215    3    0    3
 -2      3649      4934      4330      4932
 -1     18216    3    0    3
 -2       843      3406       164       165
 -1     18217    3    0    3
 -2      1430      5447      1524      1361
 -1     18218    3    0    3
 -2      5738      2087      2253      6688
 -1     18219    3    0    3
 -2      1880      4949      2007      6097
 -1     18220    3    0    3
 -2      5513      5520      3330      5512
 -1     18221    3    0    3
 -2      2159      6560      2162      1915
 -1     18222    3    0    3
 -2      4931      1907      1979      1943
 -1     18223    3    0    3
 -2       345      1792      4967      3334
 -1     18224    3    0    3
 -2      3339      3422      3461      3428
 -1     18225    3    0    3
 -2      4907       383      1767      1805
 -1     18226    3    0    3
 -2      4926      4925      3901      4112
 -1     18227    3    0    3
 -2      4967      3335      4390      1888
 -1     18228    3    0    3
 -2      5785      2161      2201      5782
 -1     18229    3    0    3
 -2      3422      5523      3428      3433
 -1     18230    3    0    3
 -2       992       691      5514      6532
 -1     18231    3    0    3
 -2      3647      4182      5511      3444
 -1     18232    3    0    3
 -2       817      6383       975       908
 -1     18233    3    0    3
 -2      3757      5997      5324       881
 -1     18234    3    0    3
 -2      2227      2337      2338      6579
 -1     18235    3    0    3
 -2      4330      3484      4933      3456
 -1     18236    3    0    3
 -2       645      5541      5787      5771
 -1     18237    3    0    3
 -2       992       690       691      6532
 -1     18238    3    0    3
 -2       691       992      5514       883
 -1     18239    3    0    3
 -2      5822      4949      1880      5883
 -1     18240    3    0    3
 -2      3863      3366      5883      6750
 -1     18241    3    0    3
 -2      6043      6024      1365      5331
 -1     18242    3    0    3
 -2      1943      1944      2272      6577
 -1     18243    3    0    3
 -2       486      3376      3340      5868
 -1     18244    3    0    3
 -2      3054      6210      5157      6538
 -1     18245    3    0    3
 -2      5012      4375      4349      5013
 -1     18246    3    0    3
 -2      4954      4368      5873      4472
 -1     18247    3    0    3
 -2      5517      3497      5527      3555
 -1     18248    3    0    3
 -2       556      1866        94      4936
 -1     18249    3    0    3
 -2      6408      3457      5553      5818
 -1     18250    3    0    3
 -2        90       503      1794      1859
 -1     18251    3    0    3
 -2      5002      4486      4999      5810
 -1     18252    3    0    3
 -2      4951      5822      5843      5879
 -1     18253    3    0    3
 -2      4797      2639      6015      5982
 -1     18254    3    0    3
 -2      4762      3619      3686      5325
 -1     18255    3    0    3
 -2      3431      3340      3369      3665
 -1     18256    3    0    3
 -2      4182      3332      4948      5512
 -1     18257    3    0    3
 -2       959       736       654      4408
 -1     18258    3    0    3
 -2      1364      5528      1110      1331
 -1     18259    3    0    3
 -2      5518      5512      3630      3615
 -1     18260    3    0    3
 -2      5868      5843      5514      6009
 -1     18261    3    0    3
 -2      5519      3770      4180      4291
 -1     18262    3    0    3
 -2      1215      6393      1387      1155
 -1     18263    3    0    3
 -2      1866      6275      4936      4939
 -1     18264    3    0    3
 -2      1994      1804      1993      4953
 -1     18265    3    0    3
 -2      3457      5553      3488      4986
 -1     18266    3    0    3
 -2      2092      1777      1866      4936
 -1     18267    3    0    3
 -2      5825      5879      1994      4951
 -1     18268    3    0    3
 -2      4938      4941      4123      3585
 -1     18269    3    0    3
 -2      4940        92      1773       514
 -1     18270    3    0    3
 -2      4167       926      3630      5520
 -1     18271    3    0    3
 -2      4934      4504      4937      3649
 -1     18272    3    0    3
 -2      4408      5525      4175      4291
 -1     18273    3    0    3
 -2      4932      4931      1907       560
 -1     18274    3    0    3
 -2       736      5524       166      3422
 -1     18275    3    0    3
 -2      4935      1777        95      1776
 -1     18276    3    0    3
 -2      4472      4960      3798      3614
 -1     18277    3    0    3
 -2      5841      1167      1399      1006
 -1     18278    3    0    3
 -2       171      3368       690      6018
 -1     18279    3    0    3
 -2      3630      5513      4198      5512
 -1     18280    3    0    3
 -2      5511      4198      3647      3665
 -1     18281    3    0    3
 -2       349      1832      3392      4954
 -1     18282    3    0    3
 -2      4167      5520      3630      5518
 -1     18283    3    0    3
 -2        95       548      4935       607
 -1     18284    3    0    3
 -2      1809      2749      2756      5701
 -1     18285    3    0    3
 -2      4159      3762      4475      5500
 -1     18286    3    0    3
 -2      4167      3770      5520      5518
 -1     18287    3    0    3
 -2      3322      3770      3330      5520
 -1     18288    3    0    3
 -2      1143      1331      5528      5876
 -1     18289    3    0    3
 -2      3833       523       493       494
 -1     18290    3    0    3
 -2      4998      4999      3499      3469
 -1     18291    3    0    3
 -2      4954      4368      4472      3391
 -1     18292    3    0    3
 -2      5326      5324      3652      6385
 -1     18293    3    0    3
 -2      6353      3526      1388      5515
 -1     18294    3    0    3
 -2      5513      3365      3330       170
 -1     18295    3    0    3
 -2      5824      1351      5443      1366
 -1     18296    3    0    3
 -2      5349      1435      6365      6360
 -1     18297    3    0    3
 -2      3630      5520      5513      5512
 -1     18298    3    0    3
 -2       542      4940      1774      4939
 -1     18299    3    0    3
 -2        92        91      1773       514
 -1     18300    3    0    3
 -2       817      6383      5608       975
 -1     18301    3    0    3
 -2      3330      3331      3332      5512
 -1     18302    3    0    3
 -2      5519      3597      5522      4291
 -1     18303    3    0    3
 -2      4949      5822      1880      2006
 -1     18304    3    0    3
 -2       926      5513       805      6018
 -1     18305    3    0    3
 -2      4935      4185      4932       607
 -1     18306    3    0    3
 -2      3420      4870      3410      4869
 -1     18307    3    0    3
 -2      3615      5518      5512      4948
 -1     18308    3    0    3
 -2      3615      4198      3630      5516
 -1     18309    3    0    3
 -2      1777       548      4936      4935
 -1     18310    3    0    3
 -2      5512      4198      3615      4182
 -1     18311    3    0    3
 -2      3365      3369      3368      3665
 -1     18312    3    0    3
 -2      3522      4961      5526      3555
 -1     18313    3    0    3
 -2      5868      5843      6761      5514
 -1     18314    3    0    3
 -2       111       759         5       487
 -1     18315    3    0    3
 -2       543       542      3674      4077
 -1     18316    3    0    3
 -2      4180      3331      3770      5518
 -1     18317    3    0    3
 -2      5503      4000      5505      3589
 -1     18318    3    0    3
 -2        94      1777        95       548
 -1     18319    3    0    3
 -2      5512      5520      3330      5518
 -1     18320    3    0    3
 -2      3610      4944      4016       513
 -1     18321    3    0    3
 -2      1859        91        90       513
 -1     18322    3    0    3
 -2      5512      3330      3331      5518
 -1     18323    3    0    3
 -2      5520      3770      3330      5518
 -1     18324    3    0    3
 -2      3330      3770      3331      5518
 -1     18325    3    0    3
 -2      3630      5526      4167      3615
 -1     18326    3    0    3
 -2      4175      4960      4472      3614
 -1     18327    3    0    3
 -2      4150      4346      4957      4956
 -1     18328    3    0    3
 -2      4373      3615      4948      3826
 -1     18329    3    0    3
 -2      5863      2151      3798      4963
 -1     18330    3    0    3
 -2      4957      4180      4472      3614
 -1     18331    3    0    3
 -2      4185      4935       548       607
 -1     18332    3    0    3
 -2      4956      3615      4346      3826
 -1     18333    3    0    3
 -2      3469      4999      4486      5001
 -1     18334    3    0    3
 -2      4342      4370      4976      4904
 -1     18335    3    0    3
 -2      5868      6380      6742      5514
 -1     18336    3    0    3
 -2      1809      2749      5701      1731
 -1     18337    3    0    3
 -2      4485      5770      2012      4980
 -1     18338    3    0    3
 -2      5824      1351      6279      5443
 -1     18339    3    0    3
 -2      4182      3332      5512      5511
 -1     18340    3    0    3
 -2      4198      4182      5511      3647
 -1     18341    3    0    3
 -2      5868      5843      6009      3647
 -1     18342    3    0    3
 -2      4485      5770      4980      3811
 -1     18343    3    0    3
 -2      5508      4252      4367      5507
 -1     18344    3    0    3
 -2      3470      4944      4946      4174
 -1     18345    3    0    3
 -2      4936      1944      4935      4277
 -1     18346    3    0    3
 -2      5442      3581      5453      3550
 -1     18347    3    0    3
 -2      4016      5038      4944      3470
 -1     18348    3    0    3
 -2      4944      4904      3470      6485
 -1     18349    3    0    3
 -2      5843      5883      6761      4949
 -1     18350    3    0    3
 -2      3680      4949      4763      3616
 -1     18351    3    0    3
 -2      4571      3103      4574      3116
 -1     18352    3    0    3
 -2      3615      3630      5526      5516
 -1     18353    3    0    3
 -2      1923      2161      2030      5782
 -1     18354    3    0    3
 -2      4182      4198      3615      5516
 -1     18355    3    0    3
 -2      4373      3647      4182      4951
 -1     18356    3    0    3
 -2      1450      1468      5579      1268
 -1     18357    3    0    3
 -2      4949      2006      2007      5826
 -1     18358    3    0    3
 -2      4962      5527      3497      3555
 -1     18359    3    0    3
 -2      5691      3584      5516      6009
 -1     18360    3    0    3
 -2      3665      4198      3647      5516
 -1     18361    3    0    3
 -2      5038      4016      5040      3470
 -1     18362    3    0    3
 -2      3647      4198      4182      5516
 -1     18363    3    0    3
 -2      2077      1866      1774      4939
 -1     18364    3    0    3
 -2      4367      4945      3821      5507
 -1     18365    3    0    3
 -2        96      1907        97       560
 -1     18366    3    0    3
 -2      2162      1916      1915      6560
 -1     18367    3    0    3
 -2      2785      5756      5857      5926
 -1     18368    3    0    3
 -2      3349      4455      5466      3927
 -1     18369    3    0    3
 -2      1859      4943      4944      1915
 -1     18370    3    0    3
 -2      5040      4946      4342      3470
 -1     18371    3    0    3
 -2      3555      5526      5527      5655
 -1     18372    3    0    3
 -2       503       572      4016       513
 -1     18373    3    0    3
 -2      4449      5500      3916      5503
 -1     18374    3    0    3
 -2      4225      6503      6502      5167
 -1     18375    3    0    3
 -2      5000      4515      5006      5819
 -1     18376    3    0    3
 -2      4485      5770      5047      2012
 -1     18377    3    0    3
 -2      4395      4904      4174      3527
 -1     18378    3    0    3
 -2       690       805       171      6018
 -1     18379    3    0    3
 -2      6764        12       814       777
 -1     18380    3    0    3
 -2      4936      1944      1777      4935
 -1     18381    3    0    3
 -2      6027       691       759      6742
 -1     18382    3    0    3
 -2       882       684       890      6371
 -1     18383    3    0    3
 -2      4811      2207      4809      5740
 -1     18384    3    0    3
 -2      1401      6035      1400      5300
 -1     18385    3    0    3
 -2      4945      3610      4943      4174
 -1     18386    3    0    3
 -2      4936      1944      4277      2092
 -1     18387    3    0    3
 -2      2030      1859      4944      1915
 -1     18388    3    0    3
 -2      4932        96      1907      1776
 -1     18389    3    0    3
 -2      4940      1773      1916      4943
 -1     18390    3    0    3
 -2      5515      5517      1229      5691
 -1     18391    3    0    3
 -2      1229      1236       925      5691
 -1     18392    3    0    3
 -2      5516       925      1236      5691
 -1     18393    3    0    3
 -2      5935      4406      5003      5014
 -1     18394    3    0    3
 -2      4932        96      1776       607
 -1     18395    3    0    3
 -2      5517      3584      5516      5691
 -1     18396    3    0    3
 -2      5510      4098      5607       601
 -1     18397    3    0    3
 -2      2207      4811      4809      5989
 -1     18398    3    0    3
 -2       542      3674       563       543
 -1     18399    3    0    3
 -2      3686      4758      4762      6374
 -1     18400    3    0    3
 -2      6532      3376       691      6742
 -1     18401    3    0    3
 -2      1401      6035      6021      1527
 -1     18402    3    0    3
 -2       503      4944      1859       513
 -1     18403    3    0    3
 -2      1859        90       503       513
 -1     18404    3    0    3
 -2       805      3365       171      6018
 -1     18405    3    0    3
 -2      3368       690       172       171
 -1     18406    3    0    3
 -2      3368       171      3365      6018
 -1     18407    3    0    3
 -2      5791      3355      4974      3998
 -1     18408    3    0    3
 -2      4943      4940      1773       514
 -1     18409    3    0    3
 -2       817      6383       908      5611
 -1     18410    3    0    3
 -2      4729      3199       300      1788
 -1     18411    3    0    3
 -2      1866        93      1774      4939
 -1     18412    3    0    3
 -2      4475      4937      4938      3942
 -1     18413    3    0    3
 -2      1943      4931      1907      4932
 -1     18414    3    0    3
 -2      5465      4478      5467      6292
 -1     18415    3    0    3
 -2       608      3727       548      4185
 -1     18416    3    0    3
 -2       547      3698       601       622
 -1     18417    3    0    3
 -2      3365      5513       805       170
 -1     18418    3    0    3
 -2      5520      5513      3330       653
 -1     18419    3    0    3
 -2       926      5526      1189      1041
 -1     18420    3    0    3
 -2      5607      4098       602       601
 -1     18421    3    0    3
 -2      4000      4372       568       570
 -1     18422    3    0    3
 -2      1134      5321      1372      6388
 -1     18423    3    0    3
 -2      5935      4406      4800      5003
 -1     18424    3    0    3
 -2      4342      5543      4976      4370
 -1     18425    3    0    3
 -2      1774        93        92       542
 -1     18426    3    0    3
 -2      5516      4198      3630       926
 -1     18427    3    0    3
 -2      5575      5008      4483      4454
 -1     18428    3    0    3
 -2      5719      5021      2662      6367
 -1     18429    3    0    3
 -2      3527      4940      4942      4227
 -1     18430    3    0    3
 -2      1866       556      4939      4936
 -1     18431    3    0    3
 -2      5501      3762      5502      4281
 -1     18432    3    0    3
 -2       514      4943      4940      4077
 -1     18433    3    0    3
 -2      4123       556       548      4936
 -1     18434    3    0    3
 -2      5513      4198      3365      6018
 -1     18435    3    0    3
 -2      5801      5051      5054      3759
 -1     18436    3    0    3
 -2       168       167      3321       654
 -1     18437    3    0    3
 -2      4900      4277      4504      3649
 -1     18438    3    0    3
 -2      5506      5504      4372      4000
 -1     18439    3    0    3
 -2       655       169      3322       168
 -1     18440    3    0    3
 -2      3916       611      5500      3942
 -1     18441    3    0    3
 -2       653      5513       805       926
 -1     18442    3    0    3
 -2      5554      1481      5529      6613
 -1     18443    3    0    3
 -2      3930      4847      5410      4433
 -1     18444    3    0    3
 -2       556       542        93      4939
 -1     18445    3    0    3
 -2        95      4935      1776       607
 -1     18446    3    0    3
 -2      5513      3630      4198       926
 -1     18447    3    0    3
 -2       653      5520      5513       926
 -1     18448    3    0    3
 -2       926       653      5520      1041
 -1     18449    3    0    3
 -2      5541      1090       950      6239
 -1     18450    3    0    3
 -2      3368      3365      3665      6018
 -1     18451    3    0    3
 -2      2193      4882      1947      6438
 -1     18452    3    0    3
 -2      4939      4123      3674      4941
 -1     18453    3    0    3
 -2      4935      4932      1776       607
 -1     18454    3    0    3
 -2      4941      4938      4123      3916
 -1     18455    3    0    3
 -2      4449      4227      4903      4419
 -1     18456    3    0    3
 -2       542      1774        93      4939
 -1     18457    3    0    3
 -2      5507      5504      3854      4372
 -1     18458    3    0    3
 -2      5040      3745      3524      4342
 -1     18459    3    0    3
 -2      3727      4935       548      4185
 -1     18460    3    0    3
 -2       556      4123      4939      4936
 -1     18461    3    0    3
 -2      4934      3783      4330      4932
 -1     18462    3    0    3
 -2        94      1866      1777      4936
 -1     18463    3    0    3
 -2       556        94       548      4936
 -1     18464    3    0    3
 -2       548        94      1777      4936
 -1     18465    3    0    3
 -2       548      1777        95      4935
 -1     18466    3    0    3
 -2       926       925      5516      6018
 -1     18467    3    0    3
 -2      4085       576       616      4057
 -1     18468    3    0    3
 -2       712       153       794      5458
 -1     18469    3    0    3
 -2      5533      5549      4138      3600
 -1     18470    3    0    3
 -2      4367      4252      3556      5468
 -1     18471    3    0    3
 -2       926      5516      4198      6018
 -1     18472    3    0    3
 -2      1471      5555      5552      6408
 -1     18473    3    0    3
 -2      3821      3854       621       622
 -1     18474    3    0    3
 -2      3674       556       542       563
 -1     18475    3    0    3
 -2      4939       556       542      3674
 -1     18476    3    0    3
 -2      4123       556      4939      3674
 -1     18477    3    0    3
 -2      1324      1480      1471      6408
 -1     18478    3    0    3
 -2      5507      5508      4252      3698
 -1     18479    3    0    3
 -2       517      3894       624      3974
 -1     18480    3    0    3
 -2      4227      3585      4903      6275
 -1     18481    3    0    3
 -2      4935       548      4936      3727
 -1     18482    3    0    3
 -2      2092      2224      2222      4900
 -1     18483    3    0    3
 -2      4227      4939      4941      3585
 -1     18484    3    0    3
 -2      5741      2221      4901      6573
 -1     18485    3    0    3
 -2      2077      2224      2092      6275
 -1     18486    3    0    3
 -2      4478      5462      3458      5464
 -1     18487    3    0    3
 -2      4395      4903      4227      4419
 -1     18488    3    0    3
 -2      3894      5498      5496      3486
 -1     18489    3    0    3
 -2      6235      1099      1272      1209
 -1     18490    3    0    3
 -2       622       547      4372       570
 -1     18491    3    0    3
 -2      1324      1364      5553      5804
 -1     18492    3    0    3
 -2      4123      4938      3727       609
 -1     18493    3    0    3
 -2      4931      4330      3783      4932
 -1     18494    3    0    3
 -2      3796      3610       621      3821
 -1     18495    3    0    3
 -2      3674      4123       556       563
 -1     18496    3    0    3
 -2       609      3727       548       608
 -1     18497    3    0    3
 -2      5533      5549       843      5839
 -1     18498    3    0    3
 -2      3916      4123       563       609
 -1     18499    3    0    3
 -2       548      4123      4936      3727
 -1     18500    3    0    3
 -2      1330      1143      1189      5876
 -1     18501    3    0    3
 -2      4938      4936      4123      3727
 -1     18502    3    0    3
 -2      1041      5526      1189      1143
 -1     18503    3    0    3
 -2      4515      5573      5006      4483
 -1     18504    3    0    3
 -2      4159      5502      3762      5500
 -1     18505    3    0    3
 -2      3783       598       525       560
 -1     18506    3    0    3
 -2      1215      6393      5545      6778
 -1     18507    3    0    3
 -2      4962      4964      3460      3522
 -1     18508    3    0    3
 -2      5801      1813      5051      2091
 -1     18509    3    0    3
 -2      3392      3391      3363      4954
 -1     18510    3    0    3
 -2      6152      2289      2216      1933
 -1     18511    3    0    3
 -2      4123      4941      3916       563
 -1     18512    3    0    3
 -2      4941      4123      3674       563
 -1     18513    3    0    3
 -2      3322       655       168      5521
 -1     18514    3    0    3
 -2      5872      2439      4739      2219
 -1     18515    3    0    3
 -2      5504      3860      5506      4372
 -1     18516    3    0    3
 -2      2247      2162      2159      6568
 -1     18517    3    0    3
 -2      3916      4938      4123       609
 -1     18518    3    0    3
 -2      3727       548      4123       609
 -1     18519    3    0    3
 -2       563      4123       556       609
 -1     18520    3    0    3
 -2       556      4123       548       609
 -1     18521    3    0    3
 -2      5868      6532      6009      5514
 -1     18522    3    0    3
 -2       168      3322      5521      3321
 -1     18523    3    0    3
 -2        96        95      1776       607
 -1     18524    3    0    3
 -2      5521       655       168       654
 -1     18525    3    0    3
 -2      5521      3770      5522      4291
 -1     18526    3    0    3
 -2      4232      4931      3783       560
 -1     18527    3    0    3
 -2      6408      3457      5818      5555
 -1     18528    3    0    3
 -2       563      3916       609       611
 -1     18529    3    0    3
 -2      5791      3355      3998      3320
 -1     18530    3    0    3
 -2       628      4000       569      3589
 -1     18531    3    0    3
 -2      4408      4175      3433      4291
 -1     18532    3    0    3
 -2      5801      1813      5054      5051
 -1     18533    3    0    3
 -2      6408      3457      5555      3516
 -1     18534    3    0    3
 -2      5528       958      1143      3597
 -1     18535    3    0    3
 -2       523      4930      4029      4232
 -1     18536    3    0    3
 -2      5528      3488      4963      3522
 -1     18537    3    0    3
 -2      1471      1472      1470      5552
 -1     18538    3    0    3
 -2      5528       958      6544      1110
 -1     18539    3    0    3
 -2      1866      6275      4939      2077
 -1     18540    3    0    3
 -2      5553      3488      5554      3457
 -1     18541    3    0    3
 -2       513      3610       514       621
 -1     18542    3    0    3
 -2       513       572      3610       621
 -1     18543    3    0    3
 -2      5524      5523      3422      4408
 -1     18544    3    0    3
 -2      6547      3871      5524      6550
 -1     18545    3    0    3
 -2       572      3796      3610       621
 -1     18546    3    0    3
 -2      5524       736       166       765
 -1     18547    3    0    3
 -2      1480      1324      5553      6408
 -1     18548    3    0    3
 -2      3576      5549      5551      5839
 -1     18549    3    0    3
 -2      5801      1813      2091      2040
 -1     18550    3    0    3
 -2      4474      4417      4997      4995
 -1     18551    3    0    3
 -2      3537      4238      5564      4413
 -1     18552    3    0    3
 -2      3997      4228      5060      3775
 -1     18553    3    0    3
 -2      1159      1338      1367      5551
 -1     18554    3    0    3
 -2      4493      3822      4959      3638
 -1     18555    3    0    3
 -2      1023       765       982      6547
 -1     18556    3    0    3
 -2      3461       765      5549      6547
 -1     18557    3    0    3
 -2      3549      5553      5528      5804
 -1     18558    3    0    3
 -2      4000       569      3884       570
 -1     18559    3    0    3
 -2      5504      3884      3854       570
 -1     18560    3    0    3
 -2      4954      4953      3392      3971
 -1     18561    3    0    3
 -2      3610      4943       514      4077
 -1     18562    3    0    3
 -2      1640      5585      5575      1651
 -1     18563    3    0    3
 -2      1132      6781      5548      6486
 -1     18564    3    0    3
 -2      4077      4940      4942      3527
 -1     18565    3    0    3
 -2      4945      3854      3821      5507
 -1     18566    3    0    3
 -2       569      3884      5503      4000
 -1     18567    3    0    3
 -2      3516      3611      3549      4983
 -1     18568    3    0    3
 -2      4000      5504      4372       570
 -1     18569    3    0    3
 -2      3516      5552      5555      6408
 -1     18570    3    0    3
 -2      6404      5555      1630      6611
 -1     18571    3    0    3
 -2      1464      1488      1475      6361
 -1     18572    3    0    3
 -2       543       514       542      4077
 -1     18573    3    0    3
 -2       542       514      4940      4077
 -1     18574    3    0    3
 -2       543      3674       563      3884
 -1     18575    3    0    3
 -2      4942      4395      4945      3527
 -1     18576    3    0    3
 -2      3674      4941       563      3884
 -1     18577    3    0    3
 -2      5620      3646      1052      6464
 -1     18578    3    0    3
 -2       563      4941      3916      3884
 -1     18579    3    0    3
 -2      3524      3745      4976      4342
 -1     18580    3    0    3
 -2      6582      4872      2313      2475
 -1     18581    3    0    3
 -2      4896      3387      4895      4894
 -1     18582    3    0    3
 -2      3821      3796      3610      4946
 -1     18583    3    0    3
 -2      1923      2030      5038      5782
 -1     18584    3    0    3
 -2      4016      3796      5040      4946
 -1     18585    3    0    3
 -2      4016      3610      3796      4946
 -1     18586    3    0    3
 -2      4944      3610      4016      4946
 -1     18587    3    0    3
 -2      3516      3611      3576      5550
 -1     18588    3    0    3
 -2      4943      3610      4944      4174
 -1     18589    3    0    3
 -2      4945      3821      4946      4367
 -1     18590    3    0    3
 -2      3452      4159      4449      5503
 -1     18591    3    0    3
 -2      4077       543       621      3854
 -1     18592    3    0    3
 -2      4946      3610      4945      4174
 -1     18593    3    0    3
 -2      4940      3674      4077      4942
 -1     18594    3    0    3
 -2      3860      5504      5507      4372
 -1     18595    3    0    3
 -2      3516      3611      5550      3549
 -1     18596    3    0    3
 -2      4946      3796      5040      4342
 -1     18597    3    0    3
 -2      5507      5509      3860      4372
 -1     18598    3    0    3
 -2      3884      3674      4941      4942
 -1     18599    3    0    3
 -2      2119      3851      4984      5866
 -1     18600    3    0    3
 -2      1866      6275      2077      2092
 -1     18601    3    0    3
 -2      2223      2224      6573      5784
 -1     18602    3    0    3
 -2      4077      3610      4943      4945
 -1     18603    3    0    3
 -2      4946      4944      3610      4174
 -1     18604    3    0    3
 -2      3610      3821      4946      4945
 -1     18605    3    0    3
 -2      5528      5525      3580      3549
 -1     18606    3    0    3
 -2      2224      2223      6573      2221
 -1     18607    3    0    3
 -2      2231      2232      2162      6225
 -1     18608    3    0    3
 -2      1086      5544      6383      6476
 -1     18609    3    0    3
 -2      4277      4938      4936      3585
 -1     18610    3    0    3
 -2       645      5541       951       950
 -1     18611    3    0    3
 -2      4252      4395      4367      5507
 -1     18612    3    0    3
 -2      5508      4367      3821      5507
 -1     18613    3    0    3
 -2      6560      4944      4174      4943
 -1     18614    3    0    3
 -2      3458      4898      4900      6752
 -1     18615    3    0    3
 -2      3488      4987      3457      4986
 -1     18616    3    0    3
 -2      1953      6568      4902      5816
 -1     18617    3    0    3
 -2      5868      5843      3647      6761
 -1     18618    3    0    3
 -2      4904      4976      3470      6485
 -1     18619    3    0    3
 -2      4976      4904      6250      6485
 -1     18620    3    0    3
 -2      3524      5040      4342      3470
 -1     18621    3    0    3
 -2      4942      3674      4941      4227
 -1     18622    3    0    3
 -2      4945      4395      4174      3527
 -1     18623    3    0    3
 -2      4942      4945      4077      3527
 -1     18624    3    0    3
 -2      4943      4945      4174      3527
 -1     18625    3    0    3
 -2      4395      4945      3854      4942
 -1     18626    3    0    3
 -2      4945      4077      3854      4942
 -1     18627    3    0    3
 -2      4077      4943      4940      3527
 -1     18628    3    0    3
 -2      2412      5696      2458      2463
 -1     18629    3    0    3
 -2      1041       958       655      5522
 -1     18630    3    0    3
 -2      4943      4077      4945      3527
 -1     18631    3    0    3
 -2      3412      3413      3414      3591
 -1     18632    3    0    3
 -2      3580      4957      5519      4150
 -1     18633    3    0    3
 -2      4936      1944      2092      1777
 -1     18634    3    0    3
 -2      4342      4367      4904      3470
 -1     18635    3    0    3
 -2      4342      4946      4367      3470
 -1     18636    3    0    3
 -2       655      5520       653      1041
 -1     18637    3    0    3
 -2      4946      4945      4367      4174
 -1     18638    3    0    3
 -2      4904      4367      4395      4174
 -1     18639    3    0    3
 -2      4395      4367      4945      4174
 -1     18640    3    0    3
 -2      3674      4939      4941      4227
 -1     18641    3    0    3
 -2      4901      4898      5741      6573
 -1     18642    3    0    3
 -2      4291      3321      3434      3433
 -1     18643    3    0    3
 -2      4284      4481      4507      4901
 -1     18644    3    0    3
 -2      5526      5528      1143      3597
 -1     18645    3    0    3
 -2       736      6547       765      5524
 -1     18646    3    0    3
 -2       736      6547      6550       982
 -1     18647    3    0    3
 -2      3527      4904      4174      6560
 -1     18648    3    0    3
 -2      4174      4943      3527      6560
 -1     18649    3    0    3
 -2      3770      4167      5520      5522
 -1     18650    3    0    3
 -2      1041      5520      4167      5522
 -1     18651    3    0    3
 -2       338      3345      3346      5813
 -1     18652    3    0    3
 -2      1041       655      5520      5522
 -1     18653    3    0    3
 -2      3611      3822      4175      4960
 -1     18654    3    0    3
 -2      3611      4983      4982      3822
 -1     18655    3    0    3
 -2      4903      4901      6568      6225
 -1     18656    3    0    3
 -2      3549      5528      4963      3580
 -1     18657    3    0    3
 -2      4983      3611      4982      3576
 -1     18658    3    0    3
 -2      5522       655      5520      5521
 -1     18659    3    0    3
 -2      5520      3770      5522      5521
 -1     18660    3    0    3
 -2       655      3322      5520      5521
 -1     18661    3    0    3
 -2      5520      3322      3770      5521
 -1     18662    3    0    3
 -2      5816      1954      2231      6574
 -1     18663    3    0    3
 -2       654      5525       959      4408
 -1     18664    3    0    3
 -2       736       166       167      3422
 -1     18665    3    0    3
 -2      5831      4960      5863      5873
 -1     18666    3    0    3
 -2      4940        92       514       542
 -1     18667    3    0    3
 -2      3822      4368      4175      4960
 -1     18668    3    0    3
 -2      4940        92      1774      1773
 -1     18669    3    0    3
 -2      6550      1211      6547      5550
 -1     18670    3    0    3
 -2      2367      2250      4897      6299
 -1     18671    3    0    3
 -2      3357      3345      3355      4399
 -1     18672    3    0    3
 -2      3591      5816      6562      6564
 -1     18673    3    0    3
 -2       154       794       153      3407
 -1     18674    3    0    3
 -2      3349      3351      4455      3927
 -1     18675    3    0    3
 -2      5816      4902      1953      6564
 -1     18676    3    0    3
 -2      3345      4974      3355      4399
 -1     18677    3    0    3
 -2      1198       896      1023      5839
 -1     18678    3    0    3
 -2      1750      2073      1860      5813
 -1     18679    3    0    3
 -2      3018      1807       423      1846
 -1     18680    3    0    3
 -2      5816      3591      4902      6564
 -1     18681    3    0    3
 -2      4904      4370      4976      6250
 -1     18682    3    0    3
 -2       337      3346      3413      6564
 -1     18683    3    0    3
 -2      4481      3388      4896      5459
 -1     18684    3    0    3
 -2      3600      4138      3635      5549
 -1     18685    3    0    3
 -2      4408       654      5525      4291
 -1     18686    3    0    3
 -2      3355      3380      3356      4399
 -1     18687    3    0    3
 -2       543      4942      3674      3884
 -1     18688    3    0    3
 -2      4408       959       736      6550
 -1     18689    3    0    3
 -2      6550      1211      1111       982
 -1     18690    3    0    3
 -2      4896      3387      3389      3388
 -1     18691    3    0    3
 -2      1023       896       843      5839
 -1     18692    3    0    3
 -2      5524       166      3339       765
 -1     18693    3    0    3
 -2       165      3339       166       765
 -1     18694    3    0    3
 -2      4390      3336      4968      4204
 -1     18695    3    0    3
 -2      3339      5524       765      3461
 -1     18696    3    0    3
 -2      5456       712      5457      5458
 -1     18697    3    0    3
 -2      4481      3591      4455      4901
 -1     18698    3    0    3
 -2      4940      4939      3674      4227
 -1     18699    3    0    3
 -2      3339      3600      3347      3461
 -1     18700    3    0    3
 -2      3436      3414      4455      3349
 -1     18701    3    0    3
 -2       820      2762       819       246
 -1     18702    3    0    3
 -2      1090      1138       950      6239
 -1     18703    3    0    3
 -2       337      3413      1751      6564
 -1     18704    3    0    3
 -2      4455      5465      4901      4424
 -1     18705    3    0    3
 -2      4902      4901      4455      3591
 -1     18706    3    0    3
 -2      3490      3994      5453      4491
 -1     18707    3    0    3
 -2      2224      4900      6573      5784
 -1     18708    3    0    3
 -2      4878      4889      3550      6247
 -1     18709    3    0    3
 -2      4878      4889      2180      3799
 -1     18710    3    0    3
 -2      4894      4893      4331      3459
 -1     18711    3    0    3
 -2      3591      3412      3413      6562
 -1     18712    3    0    3
 -2      3414      3591      4481      4284
 -1     18713    3    0    3
 -2      4863      6701      1935      3512
 -1     18714    3    0    3
 -2      3422      5524      3339      3461
 -1     18715    3    0    3
 -2      4475      4277      4900      3585
 -1     18716    3    0    3
 -2      5525      3611      4960      3549
 -1     18717    3    0    3
 -2      3387      3814      3399      4892
 -1     18718    3    0    3
 -2       553      4925      4141      4112
 -1     18719    3    0    3
 -2      4481      4507      4896      4284
 -1     18720    3    0    3
 -2      4894      4331      4507      3459
 -1     18721    3    0    3
 -2      4061       597       561       523
 -1     18722    3    0    3
 -2      3387      3389      3814      4894
 -1     18723    3    0    3
 -2      6560      4944      4943      1915
 -1     18724    3    0    3
 -2      5741      1697      4895      2048
 -1     18725    3    0    3
 -2      5741      1697      2048      2115
 -1     18726    3    0    3
 -2      3414      3412      3591      4284
 -1     18727    3    0    3
 -2      3412       335      1702      4895
 -1     18728    3    0    3
 -2       553      4925      4112      3901
 -1     18729    3    0    3
 -2      3414      3388      3412      4284
 -1     18730    3    0    3
 -2      6547      5550      3871      6550
 -1     18731    3    0    3
 -2      4896      4284      3654      4895
 -1     18732    3    0    3
 -2      4284      3388      3412      4895
 -1     18733    3    0    3
 -2      2250      4898      4897      6299
 -1     18734    3    0    3
 -2      4896      3388      4284      4895
 -1     18735    3    0    3
 -2      4331      4894      4507      3654
 -1     18736    3    0    3
 -2      4894      4896      4507      3654
 -1     18737    3    0    3
 -2      5799      1640      5554      1482
 -1     18738    3    0    3
 -2      1338      1339      5552      6496
 -1     18739    3    0    3
 -2      5550      1111      1324      5804
 -1     18740    3    0    3
 -2      4893      3814      4894      4331
 -1     18741    3    0    3
 -2      4893      4891      3814      4331
 -1     18742    3    0    3
 -2      3814      3387      4894      4892
 -1     18743    3    0    3
 -2      5818      5556      1624      6611
 -1     18744    3    0    3
 -2      3461      5524       765      6547
 -1     18745    3    0    3
 -2      4895      3654      4894      4892
 -1     18746    3    0    3
 -2      3549      5550      5553      5804
 -1     18747    3    0    3
 -2       820      2762      2724      5409
 -1     18748    3    0    3
 -2      3412      3388      3387      4895
 -1     18749    3    0    3
 -2      4892      4895      3654      5741
 -1     18750    3    0    3
 -2      4284      1702      2048      4895
 -1     18751    3    0    3
 -2      4175      5523      4959      3611
 -1     18752    3    0    3
 -2      4983      3549      3516      4986
 -1     18753    3    0    3
 -2      4878      2337      2180      6247
 -1     18754    3    0    3
 -2      4984      2426      5837      5860
 -1     18755    3    0    3
 -2      4944      6560      2159      1915
 -1     18756    3    0    3
 -2      4895       335      1702      1697
 -1     18757    3    0    3
 -2      4892      3387      4895      1697
 -1     18758    3    0    3
 -2      4895      3387       335      1697
 -1     18759    3    0    3
 -2       334       335      3387      1697
 -1     18760    3    0    3
 -2      5799      1640      1482      1644
 -1     18761    3    0    3
 -2      4895      1702      2048      1697
 -1     18762    3    0    3
 -2      1605      1480      5818      6408
 -1     18763    3    0    3
 -2      4991      5558      3453      3482
 -1     18764    3    0    3
 -2      1697      4892      1696      2115
 -1     18765    3    0    3
 -2      4892      4891      1696      2115
 -1     18766    3    0    3
 -2      4594      3036      5974      6655
 -1     18767    3    0    3
 -2      3452      5467      4395      4419
 -1     18768    3    0    3
 -2      1751      1702      1954      6562
 -1     18769    3    0    3
 -2      2232      2224      2077      4903
 -1     18770    3    0    3
 -2      1605      1471      1480      6408
 -1     18771    3    0    3
 -2      5551      5549      4138      5839
 -1     18772    3    0    3
 -2      1198      1159       896      5551
 -1     18773    3    0    3
 -2      4475      4159      5500      4449
 -1     18774    3    0    3
 -2      3527      1916      6560      4943
 -1     18775    3    0    3
 -2      4904      6250      2159      6568
 -1     18776    3    0    3
 -2      4900      2224      2222      5784
 -1     18777    3    0    3
 -2      2115      2223      2048      5741
 -1     18778    3    0    3
 -2      2221      2048      2223      5741
 -1     18779    3    0    3
 -2      4898      4331      3654      5741
 -1     18780    3    0    3
 -2      4895      4284      3654      5741
 -1     18781    3    0    3
 -2      4898      3654      4901      5741
 -1     18782    3    0    3
 -2      4863      6701      3981      2185
 -1     18783    3    0    3
 -2      4863      6701      3512      3981
 -1     18784    3    0    3
 -2      5273      3309      4322      3578
 -1     18785    3    0    3
 -2      5273      3309      3308      4322
 -1     18786    3    0    3
 -2      5273      3309      3578      3295
 -1     18787    3    0    3
 -2      3527      4942      4395      4227
 -1     18788    3    0    3
 -2      3716      6137       852      6134
 -1     18789    3    0    3
 -2      4903      4904      3527      6560
 -1     18790    3    0    3
 -2      3716      6137      5432      3547
 -1     18791    3    0    3
 -2      3716      6137      3547       852
 -1     18792    3    0    3
 -2      3737       981      5540      6487
 -1     18793    3    0    3
 -2      4478      4901      4903      6573
 -1     18794    3    0    3
 -2      3585      4227      4903      4449
 -1     18795    3    0    3
 -2      1528      6351      1599      1529
 -1     18796    3    0    3
 -2      4937      4475      4938      4277
 -1     18797    3    0    3
 -2      4936      4935      3727      4277
 -1     18798    3    0    3
 -2      3727      4938      4936      4277
 -1     18799    3    0    3
 -2      4937      4938      3727      4277
 -1     18800    3    0    3
 -2      4937      3727      4935      4277
 -1     18801    3    0    3
 -2       543      4942      4077      3674
 -1     18802    3    0    3
 -2      3490      4898      5462      3458
 -1     18803    3    0    3
 -2      4175      5525      3871      3611
 -1     18804    3    0    3
 -2      4935      4937      4277      3649
 -1     18805    3    0    3
 -2      5799      1640      1644      5585
 -1     18806    3    0    3
 -2      4491      3490      5462      5461
 -1     18807    3    0    3
 -2      1883      4801      1895      5959
 -1     18808    3    0    3
 -2      4898      4900      4478      3458
 -1     18809    3    0    3
 -2      3544      5491      4340      3967
 -1     18810    3    0    3
 -2      4281       611      5500      3589
 -1     18811    3    0    3
 -2      5462      4898      4478      3458
 -1     18812    3    0    3
 -2      4592      4591      4279      6537
 -1     18813    3    0    3
 -2      4003      3486      5496      5495
 -1     18814    3    0    3
 -2      5550      3871      5525      3611
 -1     18815    3    0    3
 -2      4941      4227      3585      4449
 -1     18816    3    0    3
 -2      4938      4475      5500      4449
 -1     18817    3    0    3
 -2      4894      4039      4893      3459
 -1     18818    3    0    3
 -2      1272      1209      1254      6235
 -1     18819    3    0    3
 -2      2223      2115      4898      5741
 -1     18820    3    0    3
 -2      2115      4892      4331      5741
 -1     18821    3    0    3
 -2      4892      3654      4331      5741
 -1     18822    3    0    3
 -2      4898      2115      4331      5741
 -1     18823    3    0    3
 -2      4198      3365      5512      5513
 -1     18824    3    0    3
 -2      3757      5997       881      5323
 -1     18825    3    0    3
 -2      1944      4277      4900      6577
 -1     18826    3    0    3
 -2      4277      4475      4900      4504
 -1     18827    3    0    3
 -2      4277      4937      4475      4504
 -1     18828    3    0    3
 -2      4960      5780      5831      5863
 -1     18829    3    0    3
 -2      3484      5492      5495      3662
 -1     18830    3    0    3
 -2      3550      4884      4897      3518
 -1     18831    3    0    3
 -2      5463      4899      3484      3518
 -1     18832    3    0    3
 -2      5661      6255      5941      6272
 -1     18833    3    0    3
 -2      4929      3768      4286      4926
 -1     18834    3    0    3
 -2      1772      1879      2101      4928
 -1     18835    3    0    3
 -2      4090      3833      4286      4929
 -1     18836    3    0    3
 -2      1772      2101      1998      4927
 -1     18837    3    0    3
 -2       525       523      4029      4232
 -1     18838    3    0    3
 -2      4928      3833      4381      4927
 -1     18839    3    0    3
 -2       493      4286      4924       512
 -1     18840    3    0    3
 -2      4408       736      5524      6550
 -1     18841    3    0    3
 -2      4933      3484      4930      4029
 -1     18842    3    0    3
 -2      3321      3322      5521      3434
 -1     18843    3    0    3
 -2      3486      5496       517      4003
 -1     18844    3    0    3
 -2      4185      4934      3783       598
 -1     18845    3    0    3
 -2      1944      4935      4277      6577
 -1     18846    3    0    3
 -2       634      4061       523       597
 -1     18847    3    0    3
 -2      2101      1879      1979      4928
 -1     18848    3    0    3
 -2      4330      3783      4933      4931
 -1     18849    3    0    3
 -2      4933      4330      4931      3707
 -1     18850    3    0    3
 -2      4459       685      3382       854
 -1     18851    3    0    3
 -2      3768      4885      3574      3544
 -1     18852    3    0    3
 -2      6579      2317      6268      4884
 -1     18853    3    0    3
 -2      3768      4286      4927      4929
 -1     18854    3    0    3
 -2      4927      4286      3833      4929
 -1     18855    3    0    3
 -2      3445      3672      3635      4968
 -1     18856    3    0    3
 -2      4003      4232      3783       525
 -1     18857    3    0    3
 -2      4003      4232       525      4029
 -1     18858    3    0    3
 -2      1776      6577      4935      1944
 -1     18859    3    0    3
 -2      4003      4232      4933      3783
 -1     18860    3    0    3
 -2      4899      4897      6243      6268
 -1     18861    3    0    3
 -2       843      3461       765      5549
 -1     18862    3    0    3
 -2      3422      3461      5523      5524
 -1     18863    3    0    3
 -2      3461      3422      5523      3428
 -1     18864    3    0    3
 -2      4381      3484      4930      3707
 -1     18865    3    0    3
 -2      4930      4933      4029      4232
 -1     18866    3    0    3
 -2      4974      2160      5785      6250
 -1     18867    3    0    3
 -2      4928      1879      1979      4931
 -1     18868    3    0    3
 -2      1907      1979      1879      4931
 -1     18869    3    0    3
 -2      4931      3783      4933      4232
 -1     18870    3    0    3
 -2      6577      4931      4932      4330
 -1     18871    3    0    3
 -2       843      3461      5549      3600
 -1     18872    3    0    3
 -2      5843      5883      3863      6761
 -1     18873    3    0    3
 -2      2101      3768      1998      4927
 -1     18874    3    0    3
 -2      4459       685      5440      4307
 -1     18875    3    0    3
 -2      2101      1772      4928      4927
 -1     18876    3    0    3
 -2      4928      4381      2101      4927
 -1     18877    3    0    3
 -2      5447      3577      3612      5448
 -1     18878    3    0    3
 -2      1907       494      4931      1879
 -1     18879    3    0    3
 -2      4899      6268      2287      6432
 -1     18880    3    0    3
 -2      4440      1996      4924      4923
 -1     18881    3    0    3
 -2       843      3461      3600      3339
 -1     18882    3    0    3
 -2      3635      4973      3445      3851
 -1     18883    3    0    3
 -2       843      3461      3339       765
 -1     18884    3    0    3
 -2      6046      5872      2219      2067
 -1     18885    3    0    3
 -2      4151      3553      5451      3581
 -1     18886    3    0    3
 -2      3347      3339      3461      3428
 -1     18887    3    0    3
 -2      5523      3871      4175      4408
 -1     18888    3    0    3
 -2      3768      4886      2101      6589
 -1     18889    3    0    3
 -2      5525      4175      3871      4408
 -1     18890    3    0    3
 -2      2101      1979      2204      6432
 -1     18891    3    0    3
 -2      2204      1979      2287      6432
 -1     18892    3    0    3
 -2      4886      2101      2204      6432
 -1     18893    3    0    3
 -2      4504      4900      3649      4899
 -1     18894    3    0    3
 -2      1979      2101      4928      6432
 -1     18895    3    0    3
 -2      3518      4886      3484      5450
 -1     18896    3    0    3
 -2      1215      6393      1155      5545
 -1     18897    3    0    3
 -2      1847      6677      4919      1948
 -1     18898    3    0    3
 -2      5523      5524      3871      4408
 -1     18899    3    0    3
 -2      2222      2092      4900      1944
 -1     18900    3    0    3
 -2      6550      1211      5550      1111
 -1     18901    3    0    3
 -2      3779      4851      5414      3752
 -1     18902    3    0    3
 -2      4932      3649      4935      6577
 -1     18903    3    0    3
 -2      1777      4935      1944      1776
 -1     18904    3    0    3
 -2      4061      4468      5491      4090
 -1     18905    3    0    3
 -2      6268      4899      4886      6432
 -1     18906    3    0    3
 -2      3365      4198      5512      5511
 -1     18907    3    0    3
 -2      4899      3649      4330      6577
 -1     18908    3    0    3
 -2       576      4085       616       587
 -1     18909    3    0    3
 -2      4900      4899      3458      6243
 -1     18910    3    0    3
 -2      4277      4935      3649      6577
 -1     18911    3    0    3
 -2      6553      2502      6510      6569
 -1     18912    3    0    3
 -2      1037      6762      5582      6637
 -1     18913    3    0    3
 -2      3352      4500      3441      3420
 -1     18914    3    0    3
 -2      2063      1891      2064      4889
 -1     18915    3    0    3
 -2      4898      2115      2250      3712
 -1     18916    3    0    3
 -2      3365      5511      3665      4198
 -1     18917    3    0    3
 -2      5511      3365      3665      3369
 -1     18918    3    0    3
 -2       886      6000      5370       731
 -1     18919    3    0    3
 -2      2468      2317      2337      4884
 -1     18920    3    0    3
 -2      1776      6577      4932      4935
 -1     18921    3    0    3
 -2      6247      4897      2227      6721
 -1     18922    3    0    3
 -2      4884      4878      3550      6247
 -1     18923    3    0    3
 -2      4886      3518      3577      5450
 -1     18924    3    0    3
 -2      2227      4897      2250      6721
 -1     18925    3    0    3
 -2      2878      5901      2825      5016
 -1     18926    3    0    3
 -2      4071      4245      4442      5041
 -1     18927    3    0    3
 -2      6247      2337      2227      6579
 -1     18928    3    0    3
 -2       597      4061       561      4090
 -1     18929    3    0    3
 -2      2318      2317      2468      6208
 -1     18930    3    0    3
 -2      4882      2193      6266      6438
 -1     18931    3    0    3
 -2      4871      3844      4836      3810
 -1     18932    3    0    3
 -2       710      6244      5501      5498
 -1     18933    3    0    3
 -2      2063      3712      4891      4265
 -1     18934    3    0    3
 -2      4872      4875      3703      6582
 -1     18935    3    0    3
 -2      2878      5901      5016      5921
 -1     18936    3    0    3
 -2      5471      4906      5469      3830
 -1     18937    3    0    3
 -2      4888      3799      3553      3581
 -1     18938    3    0    3
 -2      4151      3553      4888      3354
 -1     18939    3    0    3
 -2      3331      4180      3770      3434
 -1     18940    3    0    3
 -2      4265      4067      4889      3712
 -1     18941    3    0    3
 -2      4893      4067      4265      3712
 -1     18942    3    0    3
 -2      5455      3437      4365      5458
 -1     18943    3    0    3
 -2      5454      3459      4491      3490
 -1     18944    3    0    3
 -2      4381      4886      3707      6432
 -1     18945    3    0    3
 -2      4927      3833      4381      4929
 -1     18946    3    0    3
 -2      1998      2192      1996      4885
 -1     18947    3    0    3
 -2      5486        62       532        61
 -1     18948    3    0    3
 -2      3518      4897      4899      6268
 -1     18949    3    0    3
 -2      4249      5479      3722      5476
 -1     18950    3    0    3
 -2      3391      3392      3971      4954
 -1     18951    3    0    3
 -2      4940        92       542      1774
 -1     18952    3    0    3
 -2      1143       958      1041      3597
 -1     18953    3    0    3
 -2      4885      3817      4882      6438
 -1     18954    3    0    3
 -2      1287      5448      1266      1255
 -1     18955    3    0    3
 -2      3571      5769      3510      4992
 -1     18956    3    0    3
 -2      3604      3817      4882      4885
 -1     18957    3    0    3
 -2      2760      2752      4049      2761
 -1     18958    3    0    3
 -2      4193      3793       625      5494
 -1     18959    3    0    3
 -2      1165      5461      1267      1166
 -1     18960    3    0    3
 -2      2202      4975      4974      5785
 -1     18961    3    0    3
 -2      2452      4875      2313      6582
 -1     18962    3    0    3
 -2      5361      1219      1301      6317
 -1     18963    3    0    3
 -2      6266      3577      6249      4883
 -1     18964    3    0    3
 -2      4201      4374      4169      5483
 -1     18965    3    0    3
 -2      1140      1250      1309      6086
 -1     18966    3    0    3
 -2      3729      4879      3699      5443
 -1     18967    3    0    3
 -2      5437      4873      3758      3729
 -1     18968    3    0    3
 -2      5506      5505       825       856
 -1     18969    3    0    3
 -2      2101      2205      1998      6589
 -1     18970    3    0    3
 -2       512      3901      4923       552
 -1     18971    3    0    3
 -2      6579      2317      2337      2368
 -1     18972    3    0    3
 -2      4920      3817      4334      4923
 -1     18973    3    0    3
 -2      4489      4882      3881      3634
 -1     18974    3    0    3
 -2      3474      4917      4915      4019
 -1     18975    3    0    3
 -2      4915      4917      4445      4019
 -1     18976    3    0    3
 -2      5855      5912      2499      2500
 -1     18977    3    0    3
 -2      4915      4916      3474      4019
 -1     18978    3    0    3
 -2      4489      1947      4882      6438
 -1     18979    3    0    3
 -2      5741      1697      2115      4892
 -1     18980    3    0    3
 -2      1890      3975      3244      6124
 -1     18981    3    0    3
 -2      5741      1697      4892      4895
 -1     18982    3    0    3
 -2      1110       959       958      6544
 -1     18983    3    0    3
 -2      4883      2629      2444      6770
 -1     18984    3    0    3
 -2      1948      2135      1920      6677
 -1     18985    3    0    3
 -2      6248      3606      5334      3671
 -1     18986    3    0    3
 -2      2637      2629      2467      6084
 -1     18987    3    0    3
 -2       521      4915      4912      4445
 -1     18988    3    0    3
 -2      1110      5528      5804      6544
 -1     18989    3    0    3
 -2       509       508      3575       510
 -1     18990    3    0    3
 -2      4201      4374      5483      4002
 -1     18991    3    0    3
 -2      3793       578       625      5494
 -1     18992    3    0    3
 -2      2192      2318      2444      6266
 -1     18993    3    0    3
 -2      3770      4180      5518      5519
 -1     18994    3    0    3
 -2      3518      6249      4884      6268
 -1     18995    3    0    3
 -2      6255      5661      5941      4782
 -1     18996    3    0    3
 -2      6279      1351      1352      6280
 -1     18997    3    0    3
 -2       567       553      4334      4141
 -1     18998    3    0    3
 -2      1948      1947      4882      4489
 -1     18999    3    0    3
 -2      5855      5912      5012      2499
 -1     19000    3    0    3
 -2        12      6334       777      6764
 -1     19001    3    0    3
 -2      2318      2205      2317      6208
 -1     19002    3    0    3
 -2      3484      5463      3518      5450
 -1     19003    3    0    3
 -2      1255      1287      5448      6291
 -1     19004    3    0    3
 -2      4874      4877      3675      6084
 -1     19005    3    0    3
 -2      2600      2629      2637      6084
 -1     19006    3    0    3
 -2      4883      2444      2318      6266
 -1     19007    3    0    3
 -2      2338      2337      2368      6579
 -1     19008    3    0    3
 -2      4286      4440      3901      4926
 -1     19009    3    0    3
 -2      5518      4167      3770      5519
 -1     19010    3    0    3
 -2      2444      6245      4883      6770
 -1     19011    3    0    3
 -2      5449      4885      3604      3636
 -1     19012    3    0    3
 -2        39      5628        40       692
 -1     19013    3    0    3
 -2       485      6761      3367       484
 -1     19014    3    0    3
 -2      1996      1771      1998      4924
 -1     19015    3    0    3
 -2      1998      1772      4927      4924
 -1     19016    3    0    3
 -2      1772      1998      1771      4924
 -1     19017    3    0    3
 -2      4090      4468      5491      5488
 -1     19018    3    0    3
 -2      4885      5449      3604      3574
 -1     19019    3    0    3
 -2      3768      4381      4886      3544
 -1     19020    3    0    3
 -2      4150      3615      4346      4956
 -1     19021    3    0    3
 -2      3881      4921      4918      4387
 -1     19022    3    0    3
 -2       610       567      3958      4169
 -1     19023    3    0    3
 -2      5519      4180      5518      4150
 -1     19024    3    0    3
 -2      4921      3881      4919      4387
 -1     19025    3    0    3
 -2      4916      4919      3881      4387
 -1     19026    3    0    3
 -2      3597      5522      4167      5519
 -1     19027    3    0    3
 -2      4851      3806      4849      5675
 -1     19028    3    0    3
 -2      4919      4916       582      4387
 -1     19029    3    0    3
 -2      1892       101      4920       534
 -1     19030    3    0    3
 -2       588      4201      5480      4002
 -1     19031    3    0    3
 -2      4922      3817      4920      4489
 -1     19032    3    0    3
 -2      3577      4886      4885      6249
 -1     19033    3    0    3
 -2      4286      4440      4926      3768
 -1     19034    3    0    3
 -2      5486        62       758      5485
 -1     19035    3    0    3
 -2        42      5624       535      5623
 -1     19036    3    0    3
 -2        42      5624       841        41
 -1     19037    3    0    3
 -2      4090      3901      4286       561
 -1     19038    3    0    3
 -2      4922      3604      4489      3634
 -1     19039    3    0    3
 -2      5522      3770      4167      5519
 -1     19040    3    0    3
 -2       588       610       550      4201
 -1     19041    3    0    3
 -2      3604      3817      4922      4489
 -1     19042    3    0    3
 -2      3817      3604      4882      4489
 -1     19043    3    0    3
 -2      4221      5479      5480      3697
 -1     19044    3    0    3
 -2      5483      3634      4921      3670
 -1     19045    3    0    3
 -2      3697      5480      4918      3670
 -1     19046    3    0    3
 -2      3881      4919      4489      4921
 -1     19047    3    0    3
 -2       103       102      1847       582
 -1     19048    3    0    3
 -2       567      4922      3958      4169
 -1     19049    3    0    3
 -2      3549      3488      5553      4986
 -1     19050    3    0    3
 -2      3958      4919      4920       534
 -1     19051    3    0    3
 -2      5445      4165      3697      3670
 -1     19052    3    0    3
 -2      4921      4922      4489      3634
 -1     19053    3    0    3
 -2       642      5474      5477        70
 -1     19054    3    0    3
 -2      5573      5567      3497      6653
 -1     19055    3    0    3
 -2      2553      5006      2625      2552
 -1     19056    3    0    3
 -2      4090      3901      4926      4286
 -1     19057    3    0    3
 -2       550       610      4387      4201
 -1     19058    3    0    3
 -2      5485      4374       531      4002
 -1     19059    3    0    3
 -2      4921      4387       610      4201
 -1     19060    3    0    3
 -2      4921       610      4169      4201
 -1     19061    3    0    3
 -2      5528      5526      1143      5876
 -1     19062    3    0    3
 -2      6378      1156      5548      6464
 -1     19063    3    0    3
 -2      4447      5556      5587      4477
 -1     19064    3    0    3
 -2      3901      4286       561       512
 -1     19065    3    0    3
 -2      4885      4440      3768      3574
 -1     19066    3    0    3
 -2      3544      4885      5449      3577
 -1     19067    3    0    3
 -2      5450      3544      4886      3514
 -1     19068    3    0    3
 -2      3434      4180      3770      4291
 -1     19069    3    0    3
 -2      3768      4927      4381      4929
 -1     19070    3    0    3
 -2      3793       634      4193       625
 -1     19071    3    0    3
 -2      3833      4930      4381      4929
 -1     19072    3    0    3
 -2      1892      4919       102       534
 -1     19073    3    0    3
 -2      3770      5521      3434      4291
 -1     19074    3    0    3
 -2      4897      2368      6579      2338
 -1     19075    3    0    3
 -2       102      4919      1847       582
 -1     19076    3    0    3
 -2      4920      4922      4489      3958
 -1     19077    3    0    3
 -2      5804      1111      1110      6544
 -1     19078    3    0    3
 -2      6560      4944      4904      4174
 -1     19079    3    0    3
 -2      5333      6276      6310      6192
 -1     19080    3    0    3
 -2      1111       959      1110      6544
 -1     19081    3    0    3
 -2      4838      2659      4873      5672
 -1     19082    3    0    3
 -2       634       524      4193       625
 -1     19083    3    0    3
 -2      4926      3574      4925      4112
 -1     19084    3    0    3
 -2      4334      3817      4922      4925
 -1     19085    3    0    3
 -2      6231      1343      6311      1494
 -1     19086    3    0    3
 -2      3574      4440      3768      4926
 -1     19087    3    0    3
 -2      4003      4232      4029      4933
 -1     19088    3    0    3
 -2      4440      3574      4925      4926
 -1     19089    3    0    3
 -2      5547      5548      3598      3631
 -1     19090    3    0    3
 -2      6378      1156      1161      5548
 -1     19091    3    0    3
 -2       506       554       532      3700
 -1     19092    3    0    3
 -2      4937       608      3727      3942
 -1     19093    3    0    3
 -2      3544      4090      4929      5491
 -1     19094    3    0    3
 -2      5585      5586      1651      1645
 -1     19095    3    0    3
 -2      4232      4928      4931       494
 -1     19096    3    0    3
 -2      6530      3143       479       480
 -1     19097    3    0    3
 -2      3456      4934      4504      5496
 -1     19098    3    0    3
 -2      1849      6438      1996      1947
 -1     19099    3    0    3
 -2      3574      3768      3544      4926
 -1     19100    3    0    3
 -2      4112       555      4468      4101
 -1     19101    3    0    3
 -2      4929      3544      3768      4926
 -1     19102    3    0    3
 -2      4090      3544      4929      4926
 -1     19103    3    0    3
 -2       561      3833      4090      4061
 -1     19104    3    0    3
 -2      4019       550       522       551
 -1     19105    3    0    3
 -2      4929      4090      3833      4061
 -1     19106    3    0    3
 -2      4468      5493      3793      5491
 -1     19107    3    0    3
 -2      5542      3720      4975      3751
 -1     19108    3    0    3
 -2      4967      3335      1888       345
 -1     19109    3    0    3
 -2      4927      4928      3833       493
 -1     19110    3    0    3
 -2       560      4232      4931       494
 -1     19111    3    0    3
 -2      1470      1339      1471      5552
 -1     19112    3    0    3
 -2      4907       383      1805      2778
 -1     19113    3    0    3
 -2      2101      3768      4927      4381
 -1     19114    3    0    3
 -2      4928      4930      3833      4232
 -1     19115    3    0    3
 -2      3727      4937      4935      4185
 -1     19116    3    0    3
 -2      3611      5525      4960      4175
 -1     19117    3    0    3
 -2      3700       506      4101      5489
 -1     19118    3    0    3
 -2      3783      4931      4932       560
 -1     19119    3    0    3
 -2      4896      3387      4894      3389
 -1     19120    3    0    3
 -2      3649      4935      4937      4185
 -1     19121    3    0    3
 -2      4937      4934      3649      4185
 -1     19122    3    0    3
 -2      5491      5493      3793      4340
 -1     19123    3    0    3
 -2      3707      4930      4928      4232
 -1     19124    3    0    3
 -2      4066      4435      5463      6244
 -1     19125    3    0    3
 -2      3894      4435      5498      5501
 -1     19126    3    0    3
 -2       569      3916       563       611
 -1     19127    3    0    3
 -2      4061       634       523      4029
 -1     19128    3    0    3
 -2      5170      5169      1386      6498
 -1     19129    3    0    3
 -2      3707      4933      4930      4232
 -1     19130    3    0    3
 -2      2101      3768      6589      1998
 -1     19131    3    0    3
 -2       608      4185       598      3974
 -1     19132    3    0    3
 -2      4003       517       598      3974
 -1     19133    3    0    3
 -2      5499       624      3894      3974
 -1     19134    3    0    3
 -2      5169      5170      1386      6497
 -1     19135    3    0    3
 -2      1879        98        97       494
 -1     19136    3    0    3
 -2      4896      3387      3388      4895
 -1     19137    3    0    3
 -2      2397      2650      2394      4986
 -1     19138    3    0    3
 -2      4232       523      3833       494
 -1     19139    3    0    3
 -2       902      6624       747      5602
 -1     19140    3    0    3
 -2      3597      4167      5526      3580
 -1     19141    3    0    3
 -2      4907       383      2778      2755
 -1     19142    3    0    3
 -2      4934      4185      3783      4932
 -1     19143    3    0    3
 -2      4185      4934      3649      4932
 -1     19144    3    0    3
 -2      4185       608       598       607
 -1     19145    3    0    3
 -2      4346      1994      3826      4961
 -1     19146    3    0    3
 -2      5856      4493      4982      3822
 -1     19147    3    0    3
 -2      4909      2767      2751      4127
 -1     19148    3    0    3
 -2      1215      6393      6778      1387
 -1     19149    3    0    3
 -2      2397      2270      2433      4983
 -1     19150    3    0    3
 -2      4932      4185      3783       607
 -1     19151    3    0    3
 -2      4932      3783       560       607
 -1     19152    3    0    3
 -2      1907      1943      4932      1776
 -1     19153    3    0    3
 -2      5552      5558      3542      3482
 -1     19154    3    0    3
 -2      1847      6677      1920      4916
 -1     19155    3    0    3
 -2      4897      2368      2367      6268
 -1     19156    3    0    3
 -2      4286      3833       561       493
 -1     19157    3    0    3
 -2      1849      6438      4920      4923
 -1     19158    3    0    3
 -2      5489       507      4101      5490
 -1     19159    3    0    3
 -2      5552      3516      5555      3482
 -1     19160    3    0    3
 -2      1556      1472      1518      5768
 -1     19161    3    0    3
 -2      6378      1156      6464      1049
 -1     19162    3    0    3
 -2      4925      4440      4926      3901
 -1     19163    3    0    3
 -2      6266      4885      4882      6438
 -1     19164    3    0    3
 -2      5686      2531      2649      2546
 -1     19165    3    0    3
 -2      5686      2531      6259      2649
 -1     19166    3    0    3
 -2      3222      3166      3711      3286
 -1     19167    3    0    3
 -2      4334      4920      4923       552
 -1     19168    3    0    3
 -2      3166      3222      3711      3928
 -1     19169    3    0    3
 -2      4304      2767        67        68
 -1     19170    3    0    3
 -2      4920      4919      1892       534
 -1     19171    3    0    3
 -2      3958      4920      4334       534
 -1     19172    3    0    3
 -2      4922      4334       567      3958
 -1     19173    3    0    3
 -2      4922      4920      4334      3958
 -1     19174    3    0    3
 -2       512      4923       100       552
 -1     19175    3    0    3
 -2      1338      1198      1339      6496
 -1     19176    3    0    3
 -2      4983      3516      4985      5684
 -1     19177    3    0    3
 -2      4907      4127      2751      2778
 -1     19178    3    0    3
 -2      1947      4919      1948      1892
 -1     19179    3    0    3
 -2      3901      4924      4286       512
 -1     19180    3    0    3
 -2      4924      3901      4923       512
 -1     19181    3    0    3
 -2       103      4916      1847      1848
 -1     19182    3    0    3
 -2       523      4930      4061      4029
 -1     19183    3    0    3
 -2      4387      3958      4921       610
 -1     19184    3    0    3
 -2       641      3899      5477      5478
 -1     19185    3    0    3
 -2      3958      4921      4919      4387
 -1     19186    3    0    3
 -2      1480      1482      1605      5818
 -1     19187    3    0    3
 -2      5480      5479      4165      3697
 -1     19188    3    0    3
 -2      4062      4484      5032      5709
 -1     19189    3    0    3
 -2      5759      1321      5742      6767
 -1     19190    3    0    3
 -2      4924      1772      4927       493
 -1     19191    3    0    3
 -2      5558      5552      3542      5673
 -1     19192    3    0    3
 -2      4927      4286      4924       493
 -1     19193    3    0    3
 -2      6395      5542       869      6478
 -1     19194    3    0    3
 -2      6169      2196      6583      2015
 -1     19195    3    0    3
 -2      5558      4991      3542      3482
 -1     19196    3    0    3
 -2      5554      1640      5585      4506
 -1     19197    3    0    3
 -2      3457      4987      5554      4477
 -1     19198    3    0    3
 -2       633      4086      4450      5634
 -1     19199    3    0    3
 -2      4313      4289      5642      5077
 -1     19200    3    0    3
 -2      4417      5593      5026      4447
 -1     19201    3    0    3
 -2      2404      2369      2642      5906
 -1     19202    3    0    3
 -2      4483      5576      5575      4454
 -1     19203    3    0    3
 -2      4316      5594      5597      4341
 -1     19204    3    0    3
 -2      4962      2553      5006      6612
 -1     19205    3    0    3
 -2      1640      5554      5529      4506
 -1     19206    3    0    3
 -2      1528      6351      5567      5886
 -1     19207    3    0    3
 -2      5554      5529      3488      6613
 -1     19208    3    0    3
 -2      5403      1412      5411      5688
 -1     19209    3    0    3
 -2       567      3958       534       610
 -1     19210    3    0    3
 -2      5528      3488      5529      6613
 -1     19211    3    0    3
 -2      5579      1333      1485      6358
 -1     19212    3    0    3
 -2      1651      1486      5576      1570
 -1     19213    3    0    3
 -2      2334      2500      2307      5855
 -1     19214    3    0    3
 -2       105       520       104      1904
 -1     19215    3    0    3
 -2      5567      1529      1492      1431
 -1     19216    3    0    3
 -2      1431      5567      5573      6653
 -1     19217    3    0    3
 -2      4454      5008      4483      5009
 -1     19218    3    0    3
 -2      5575      5529      1489      1583
 -1     19219    3    0    3
 -2      5529      5575      1489      1640
 -1     19220    3    0    3
 -2      4910      3999      3779      4913
 -1     19221    3    0    3
 -2      1236      1252      1189      5655
 -1     19222    3    0    3
 -2      5529      1331      1481      1489
 -1     19223    3    0    3
 -2      4335      5595      5596      4364
 -1     19224    3    0    3
 -2      5588      1454      6619      6765
 -1     19225    3    0    3
 -2      4378      5572      5005      4352
 -1     19226    3    0    3
 -2      2391      2136      5005      2166
 -1     19227    3    0    3
 -2      2391      2335      2166      5832
 -1     19228    3    0    3
 -2      4907       383      2755      1767
 -1     19229    3    0    3
 -2      1134      5320      5321      6388
 -1     19230    3    0    3
 -2      2825      1812       375      5850
 -1     19231    3    0    3
 -2      3648      3573       109      3983
 -1     19232    3    0    3
 -2      4321      4398      4349      5022
 -1     19233    3    0    3
 -2       560       525      4232       494
 -1     19234    3    0    3
 -2      5590      4349      5589      6776
 -1     19235    3    0    3
 -2       902      5753      5602      6694
 -1     19236    3    0    3
 -2      4931      4928      1879       494
 -1     19237    3    0    3
 -2      6577      4931      4330      4899
 -1     19238    3    0    3
 -2      1182      1181      5578      6639
 -1     19239    3    0    3
 -2      4267      4240      5592      5025
 -1     19240    3    0    3
 -2      3901       561       553       512
 -1     19241    3    0    3
 -2      4349      5590      5589      4321
 -1     19242    3    0    3
 -2      4459       685      4307      3382
 -1     19243    3    0    3
 -2      3942       608       624      3974
 -1     19244    3    0    3
 -2      5586      1487      1488      6361
 -1     19245    3    0    3
 -2      4267      5023      5034      5733
 -1     19246    3    0    3
 -2      5695      1329      5589      6616
 -1     19247    3    0    3
 -2      4398      5589      5579      5806
 -1     19248    3    0    3
 -2      1311      1329      5589      5695
 -1     19249    3    0    3
 -2      5753      5602      4267      6624
 -1     19250    3    0    3
 -2      4321      5592      5590      5695
 -1     19251    3    0    3
 -2      1677      1680      1689      5604
 -1     19252    3    0    3
 -2      1385       990      1039      6344
 -1     19253    3    0    3
 -2      5589      5586      4369      6361
 -1     19254    3    0    3
 -2      6000      6658      5370      3086
 -1     19255    3    0    3
 -2      1077      1329      1200      5695
 -1     19256    3    0    3
 -2      1204      6363      1115      1257
 -1     19257    3    0    3
 -2       667      1001      5601      6624
 -1     19258    3    0    3
 -2      1311      1200      1329      5695
 -1     19259    3    0    3
 -2      1475      5589      1329      6616
 -1     19260    3    0    3
 -2        74      5071       583      1797
 -1     19261    3    0    3
 -2       560      3783       598       607
 -1     19262    3    0    3
 -2      3783      4185       598       607
 -1     19263    3    0    3
 -2       902      1078      1077      5753
 -1     19264    3    0    3
 -2      1200      5590      1311      1231
 -1     19265    3    0    3
 -2      5754       652       783      6671
 -1     19266    3    0    3
 -2       628      5502        54       816
 -1     19267    3    0    3
 -2      6074       647      6323       860
 -1     19268    3    0    3
 -2      6074       647       860       790
 -1     19269    3    0    3
 -2      6617      4240      5592      6694
 -1     19270    3    0    3
 -2      5023      4349      5022      4321
 -1     19271    3    0    3
 -2      1645      5586      1488      1585
 -1     19272    3    0    3
 -2      4786      6802      4776      3567
 -1     19273    3    0    3
 -2      1590      5576      1486      1570
 -1     19274    3    0    3
 -2      1642      1479      5574      5854
 -1     19275    3    0    3
 -2      5683      1548      1641      6368
 -1     19276    3    0    3
 -2      5574      1479      5852      5854
 -1     19277    3    0    3
 -2      3894       624       618       516
 -1     19278    3    0    3
 -2      1641      5568      6763      6661
 -1     19279    3    0    3
 -2      1468      1486      1590      5806
 -1     19280    3    0    3
 -2      2190      6252      2113      2191
 -1     19281    3    0    3
 -2      4544      1749      1855      1999
 -1     19282    3    0    3
 -2      3460      5529      4964      4506
 -1     19283    3    0    3
 -2      1640      5529      5575      4506
 -1     19284    3    0    3
 -2      1481      5529      1489      1640
 -1     19285    3    0    3
 -2      1481      5554      5529      1640
 -1     19286    3    0    3
 -2       534      4334       567       552
 -1     19287    3    0    3
 -2      1528      6351      1529      5567
 -1     19288    3    0    3
 -2      5554      1481      1482      1640
 -1     19289    3    0    3
 -2      4369      5586      4398      5019
 -1     19290    3    0    3
 -2      5576      1486      5586      5806
 -1     19291    3    0    3
 -2      4019       522      4445       551
 -1     19292    3    0    3
 -2      5820      3588      4795      2399
 -1     19293    3    0    3
 -2      5577      5579      1450      5852
 -1     19294    3    0    3
 -2      1329      1311      5589      1487
 -1     19295    3    0    3
 -2      5589      1311      1485      1487
 -1     19296    3    0    3
 -2       641      3899      5478       614
 -1     19297    3    0    3
 -2      1601      1464      5591      6753
 -1     19298    3    0    3
 -2      4767      2218      2217      2423
 -1     19299    3    0    3
 -2      1487      5589      1475      6361
 -1     19300    3    0    3
 -2       846      3898      5407      2723
 -1     19301    3    0    3
 -2      5589      1329      1487      1475
 -1     19302    3    0    3
 -2      4445      4249       581      4917
 -1     19303    3    0    3
 -2      1669      1482      1644      5799
 -1     19304    3    0    3
 -2      4477      5554      5556      5799
 -1     19305    3    0    3
 -2      1651      1640      5585      1645
 -1     19306    3    0    3
 -2      5585      1640      1644      1645
 -1     19307    3    0    3
 -2      2498      5686      4848      2463
 -1     19308    3    0    3
 -2      3634      4921      4922      4169
 -1     19309    3    0    3
 -2      4019      4917       581      4221
 -1     19310    3    0    3
 -2      5588      4369      5586      6361
 -1     19311    3    0    3
 -2      3723      6043      3695      5331
 -1     19312    3    0    3
 -2      6753      1379      5597      1413
 -1     19313    3    0    3
 -2      5471      5469      5473      4344
 -1     19314    3    0    3
 -2      5485       531       532        62
 -1     19315    3    0    3
 -2      6024      5330      5955      3723
 -1     19316    3    0    3
 -2      2737      2767      4909      5471
 -1     19317    3    0    3
 -2      6753      1379      1413      1463
 -1     19318    3    0    3
 -2      4393      5594      5588      6765
 -1     19319    3    0    3
 -2      4917      4914      4445      4249
 -1     19320    3    0    3
 -2      5594      5593      4364      5783
 -1     19321    3    0    3
 -2      4273      3752      4913      5475
 -1     19322    3    0    3
 -2      4445      4914       541      4249
 -1     19323    3    0    3
 -2      3779      3999      3752      4913
 -1     19324    3    0    3
 -2      2728      2727      4906      2737
 -1     19325    3    0    3
 -2      4273      3492      5475      4304
 -1     19326    3    0    3
 -2      2642      5910      5020      5021
 -1     19327    3    0    3
 -2       382       383      2778      1805
 -1     19328    3    0    3
 -2      5479       581      3594       626
 -1     19329    3    0    3
 -2      5586      5576      4398      4454
 -1     19330    3    0    3
 -2      4912      4445      4914      4079
 -1     19331    3    0    3
 -2       522       541       580      4445
 -1     19332    3    0    3
 -2      1098      1362      1078      6617
 -1     19333    3    0    3
 -2      1861      4079        66       521
 -1     19334    3    0    3
 -2      3587      3999      3779      4910
 -1     19335    3    0    3
 -2       550      4918      4387      4019
 -1     19336    3    0    3
 -2      5479      3722      4917      4249
 -1     19337    3    0    3
 -2      4918      4221      4201      5480
 -1     19338    3    0    3
 -2      5604      1684      1676      5727
 -1     19339    3    0    3
 -2      1848      4916      1847      1920
 -1     19340    3    0    3
 -2      5847      4323      6346      5584
 -1     19341    3    0    3
 -2      4265      4039      3359      4067
 -1     19342    3    0    3
 -2      4917      4445      3940      4915
 -1     19343    3    0    3
 -2       551      4445      4915       520
 -1     19344    3    0    3
 -2      2228      1921      2189      5682
 -1     19345    3    0    3
 -2      4445      4914      3940      4912
 -1     19346    3    0    3
 -2      1268      1333      5579      6621
 -1     19347    3    0    3
 -2      3530      3940      4914      4912
 -1     19348    3    0    3
 -2      4445       541       580      4249
 -1     19349    3    0    3
 -2      4387      4918      4916      4019
 -1     19350    3    0    3
 -2      4916      4918      3881      3474
 -1     19351    3    0    3
 -2       581      3594       588      4221
 -1     19352    3    0    3
 -2       541       617      4249      4273
 -1     19353    3    0    3
 -2       846      3898      4480      5407
 -1     19354    3    0    3
 -2      5689      6368      6349      5571
 -1     19355    3    0    3
 -2      1268      5580      1242      6621
 -1     19356    3    0    3
 -2      1008      5572      1244      5757
 -1     19357    3    0    3
 -2      3474      4916      4918      4019
 -1     19358    3    0    3
 -2      6776      1242      1333      1231
 -1     19359    3    0    3
 -2      3722      4914      4917      4249
 -1     19360    3    0    3
 -2      4918      4917      3474      4019
 -1     19361    3    0    3
 -2      1861      4079       521      4912
 -1     19362    3    0    3
 -2      4273      4913      4304      5475
 -1     19363    3    0    3
 -2      4786      6802      3567      5888
 -1     19364    3    0    3
 -2      1078      5592      1077      5753
 -1     19365    3    0    3
 -2      3940      4914      4917      3722
 -1     19366    3    0    3
 -2      3474      3940      4917      3722
 -1     19367    3    0    3
 -2      5474       241       642       648
 -1     19368    3    0    3
 -2      4428      6631      5852      5574
 -1     19369    3    0    3
 -2      4914      4445       541      4079
 -1     19370    3    0    3
 -2       867      1009       814      6699
 -1     19371    3    0    3
 -2      6327      4441      6777      5366
 -1     19372    3    0    3
 -2      1268      5580      5579      6347
 -1     19373    3    0    3
 -2      5578      1181      1273      6347
 -1     19374    3    0    3
 -2      1991      5914      2306      1992
 -1     19375    3    0    3
 -2      1268      1181      5580      6347
 -1     19376    3    0    3
 -2      4079      4914      4913      4273
 -1     19377    3    0    3
 -2       383       384      2755      1767
 -1     19378    3    0    3
 -2      1450      1273      1268      6347
 -1     19379    3    0    3
 -2      3587      4059      4850      6185
 -1     19380    3    0    3
 -2       846      3898      2723      5393
 -1     19381    3    0    3
 -2      5577      5579      4375      6347
 -1     19382    3    0    3
 -2      2763      5409      5406      3732
 -1     19383    3    0    3
 -2      5675      2155      2412      5676
 -1     19384    3    0    3
 -2      5575      1640      1651      1643
 -1     19385    3    0    3
 -2       244       752      2772       245
 -1     19386    3    0    3
 -2      1640      5575      1489      1643
 -1     19387    3    0    3
 -2      5574      1600      1642      6661
 -1     19388    3    0    3
 -2      3497      5517      5527      6653
 -1     19389    3    0    3
 -2      3999      4127      4498      4910
 -1     19390    3    0    3
 -2      1253      5517      1229      1388
 -1     19391    3    0    3
 -2      4951      3555      4961      5825
 -1     19392    3    0    3
 -2      2731      4843      2730      2732
 -1     19393    3    0    3
 -2      3530      4911      3999      4423
 -1     19394    3    0    3
 -2      4127      4498      2729      4908
 -1     19395    3    0    3
 -2        67      2729      2767      4498
 -1     19396    3    0    3
 -2      4913      4910      3999      4498
 -1     19397    3    0    3
 -2      3999      4127      4910      3587
 -1     19398    3    0    3
 -2      5006      2553      2625      5008
 -1     19399    3    0    3
 -2      2717      5698      5687      2122
 -1     19400    3    0    3
 -2      5579      5580      4375      6347
 -1     19401    3    0    3
 -2      3722      3752      4914      5476
 -1     19402    3    0    3
 -2      5571      4460      5004      4403
 -1     19403    3    0    3
 -2        67        66      2729      4498
 -1     19404    3    0    3
 -2      4428      5579      4375      5577
 -1     19405    3    0    3
 -2      1418      1447      5569      6349
 -1     19406    3    0    3
 -2      1968      4911      3530      4423
 -1     19407    3    0    3
 -2      5582       651      1037      6794
 -1     19408    3    0    3
 -2      2778      4908       382      1805
 -1     19409    3    0    3
 -2      2729      4127      4908      2778
 -1     19410    3    0    3
 -2       994       754      5581      6337
 -1     19411    3    0    3
 -2      4842      1976      2122      1905
 -1     19412    3    0    3
 -2       639      2999      2998       212
 -1     19413    3    0    3
 -2      1549      1418      1548      6349
 -1     19414    3    0    3
 -2      5569      5571      4434      5689
 -1     19415    3    0    3
 -2      1473      5577      5854      6763
 -1     19416    3    0    3
 -2      2466      5004      2590      5899
 -1     19417    3    0    3
 -2      5030      5027      5917      5735
 -1     19418    3    0    3
 -2      4441      5361      4798      4490
 -1     19419    3    0    3
 -2      2406      2507      2540      4799
 -1     19420    3    0    3
 -2      5644        33        32       793
 -1     19421    3    0    3
 -2      6321      5566      5569      6349
 -1     19422    3    0    3
 -2      5683      1549      1548      6349
 -1     19423    3    0    3
 -2      2639      4794      5982      4797
 -1     19424    3    0    3
 -2      4199      2771      2743      2747
 -1     19425    3    0    3
 -2      4796      2533      4795      6025
 -1     19426    3    0    3
 -2      1335      1418      1374      5689
 -1     19427    3    0    3
 -2      5002      4465      5569      4434
 -1     19428    3    0    3
 -2      5844      4840      4834      5654
 -1     19429    3    0    3
 -2      5004      5571      4403      4434
 -1     19430    3    0    3
 -2      1008      5572      6637      1037
 -1     19431    3    0    3
 -2      2639      4794      2638      6025
 -1     19432    3    0    3
 -2      1335      1230      1244      5757
 -1     19433    3    0    3
 -2      4465      4406      5570      5003
 -1     19434    3    0    3
 -2      2729      2751      4127      2778
 -1     19435    3    0    3
 -2      4375      4428      5577      5010
 -1     19436    3    0    3
 -2      2727      4909      4906      2737
 -1     19437    3    0    3
 -2      3899      5476      4273      5475
 -1     19438    3    0    3
 -2      4483      6631      5575      5576
 -1     19439    3    0    3
 -2      2827      1838       373      2826
 -1     19440    3    0    3
 -2      4352      5583      5891      6794
 -1     19441    3    0    3
 -2      5476      4273      4249       617
 -1     19442    3    0    3
 -2       521      1904       520       105
 -1     19443    3    0    3
 -2       639      2999       212       822
 -1     19444    3    0    3
 -2       534      4387      3958      4919
 -1     19445    3    0    3
 -2      1838      1812       374      5901
 -1     19446    3    0    3
 -2      5757      1334      5689      5572
 -1     19447    3    0    3
 -2       521      1904      1861      4912
 -1     19448    3    0    3
 -2      5689      5572      5570      5757
 -1     19449    3    0    3
 -2      5480      4918      4221      3697
 -1     19450    3    0    3
 -2      4908      2729      2778       382
 -1     19451    3    0    3
 -2      6673      5891      6672      6794
 -1     19452    3    0    3
 -2      1805      4908       382      1910
 -1     19453    3    0    3
 -2      2751      2767      2729      4127
 -1     19454    3    0    3
 -2      1244      1230      1008      5757
 -1     19455    3    0    3
 -2      4911        66      4908      1910
 -1     19456    3    0    3
 -2      2412      2413      2458      4849
 -1     19457    3    0    3
 -2      4913      3752      4914      3530
 -1     19458    3    0    3
 -2      4498      2767      4910      4127
 -1     19459    3    0    3
 -2      4498      2729      2767      4127
 -1     19460    3    0    3
 -2      4498      3999      4911      4908
 -1     19461    3    0    3
 -2      4842      1976      3520      5687
 -1     19462    3    0    3
 -2      4059      4907      4905      6185
 -1     19463    3    0    3
 -2      4909      3587      4127      4907
 -1     19464    3    0    3
 -2      1921      1940      4912      5682
 -1     19465    3    0    3
 -2      4434      5570      5569      5689
 -1     19466    3    0    3
 -2      1274      1334      1097      5889
 -1     19467    3    0    3
 -2      5582       651      6673       836
 -1     19468    3    0    3
 -2      5582       651       836      1037
 -1     19469    3    0    3
 -2      5582       651      6794      6673
 -1     19470    3    0    3
 -2        66      4498      4911      4908
 -1     19471    3    0    3
 -2      4498        66      2729      4908
 -1     19472    3    0    3
 -2      2754      4905      4280      3651
 -1     19473    3    0    3
 -2       101      4923      1849      4920
 -1     19474    3    0    3
 -2      5589      1311      6776      6358
 -1     19475    3    0    3
 -2      4035      4137      4842      3569
 -1     19476    3    0    3
 -2      1905      4035      4842      4843
 -1     19477    3    0    3
 -2      4035      1782      4280      4843
 -1     19478    3    0    3
 -2      1548      5683      6349      6368
 -1     19479    3    0    3
 -2      5362      5359      4520      6321
 -1     19480    3    0    3
 -2      1921      4916      3474      4915
 -1     19481    3    0    3
 -2      4265      4039      4893      3814
 -1     19482    3    0    3
 -2      1388      1492      5565      1523
 -1     19483    3    0    3
 -2      3588      4762      4764      3652
 -1     19484    3    0    3
 -2      5785      2200      2201      2202
 -1     19485    3    0    3
 -2      5517      5567      3497      3526
 -1     19486    3    0    3
 -2      6330       381      1823      5823
 -1     19487    3    0    3
 -2      3722      3753      4881      6709
 -1     19488    3    0    3
 -2      5565      1528      5567      5886
 -1     19489    3    0    3
 -2      4998      3526      4950      6654
 -1     19490    3    0    3
 -2      1547      1523      5358      1521
 -1     19491    3    0    3
 -2      5846      1446      1373      1300
 -1     19492    3    0    3
 -2      4445       522       541       521
 -1     19493    3    0    3
 -2      1522      5565      1528      1523
 -1     19494    3    0    3
 -2      4434      5571      5572      5689
 -1     19495    3    0    3
 -2      4913      3999      3752      3530
 -1     19496    3    0    3
 -2      3999      3530      4423      4851
 -1     19497    3    0    3
 -2      4019       582      4916      4387
 -1     19498    3    0    3
 -2      4906      4909      4905      4059
 -1     19499    3    0    3
 -2        14       483      1880      1862
 -1     19500    3    0    3
 -2       992      6009      6532      5514
 -1     19501    3    0    3
 -2      4851      4849      3753      6709
 -1     19502    3    0    3
 -2      1549      1599      1522      5566
 -1     19503    3    0    3
 -2      2386      2387      4879      5680
 -1     19504    3    0    3
 -2       550       522       581      4019
 -1     19505    3    0    3
 -2      3940      4917      4915      3474
 -1     19506    3    0    3
 -2      2413      2228      2386      5676
 -1     19507    3    0    3
 -2      4221      4918      4917      3697
 -1     19508    3    0    3
 -2      3940      3752      4914      3722
 -1     19509    3    0    3
 -2      3722      4165      5479      3697
 -1     19510    3    0    3
 -2      1571      1529      1600      6775
 -1     19511    3    0    3
 -2      4079      4445       541       521
 -1     19512    3    0    3
 -2      5569      1447      6321      6349
 -1     19513    3    0    3
 -2      5515      1229      1127      6741
 -1     19514    3    0    3
 -2      4907      4908      4127      2778
 -1     19515    3    0    3
 -2      3526      1388      5515      5517
 -1     19516    3    0    3
 -2      5847      4323      4299      5580
 -1     19517    3    0    3
 -2      4445      4915      4019       551
 -1     19518    3    0    3
 -2      5324      3652      3686      5325
 -1     19519    3    0    3
 -2      3271      3702      3160      3159
 -1     19520    3    0    3
 -2       541        67      4079       521
 -1     19521    3    0    3
 -2      4079        67        66       521
 -1     19522    3    0    3
 -2      4079      4912      4445       521
 -1     19523    3    0    3
 -2      5515      5517      3584      3526
 -1     19524    3    0    3
 -2      4794      3504      4797      5972
 -1     19525    3    0    3
 -2      1008      5572      1037      1244
 -1     19526    3    0    3
 -2      1008      5572      5757      6637
 -1     19527    3    0    3
 -2      4515      5001      5007      5819
 -1     19528    3    0    3
 -2       582      4916       103       551
 -1     19529    3    0    3
 -2      6330       381      5823      2840
 -1     19530    3    0    3
 -2      2894      4544      1855      2893
 -1     19531    3    0    3
 -2      6349      5689      5571      5569
 -1     19532    3    0    3
 -2      6349      5689      5569      1418
 -1     19533    3    0    3
 -2      3520      6234      5687      2112
 -1     19534    3    0    3
 -2      3725      6384      3233      3711
 -1     19535    3    0    3
 -2      3499      5566      5565      3469
 -1     19536    3    0    3
 -2      1528      1492      5565      5567
 -1     19537    3    0    3
 -2      1528      1529      1492      5567
 -1     19538    3    0    3
 -2      1253      1252      5517      1431
 -1     19539    3    0    3
 -2      3504      4490      4797      3446
 -1     19540    3    0    3
 -2      3619      4762      4793      3588
 -1     19541    3    0    3
 -2      2399      4795      2591      3588
 -1     19542    3    0    3
 -2      4374       531       532      5485
 -1     19543    3    0    3
 -2      3504      4490      5360      3475
 -1     19544    3    0    3
 -2      2591      4795      4793      3588
 -1     19545    3    0    3
 -2      2375      2352      2199      4962
 -1     19546    3    0    3
 -2      1599      1600      1529      6351
 -1     19547    3    0    3
 -2       521      4445       522       520
 -1     19548    3    0    3
 -2      2685      4837      4835      6214
 -1     19549    3    0    3
 -2      4460      4486      5571      5004
 -1     19550    3    0    3
 -2      1570      1571      1572      6631
 -1     19551    3    0    3
 -2      1330      1189      1252      5527
 -1     19552    3    0    3
 -2      3864      4374      5483      5484
 -1     19553    3    0    3
 -2      3522      5528      5529      5876
 -1     19554    3    0    3
 -2      1583      5529      1330      5527
 -1     19555    3    0    3
 -2      1583      1330      1252      5527
 -1     19556    3    0    3
 -2      5527      5517      1431      6653
 -1     19557    3    0    3
 -2      3559      5565      3526      4998
 -1     19558    3    0    3
 -2      5568      4486      5571      4460
 -1     19559    3    0    3
 -2      5007      5006      4515      5819
 -1     19560    3    0    3
 -2      6716      6705      4868      4875
 -1     19561    3    0    3
 -2      2206      2006      2294      5826
 -1     19562    3    0    3
 -2      1579      6355      5338      5339
 -1     19563    3    0    3
 -2      4932        96       560      1907
 -1     19564    3    0    3
 -2      4964      3460      4506      5008
 -1     19565    3    0    3
 -2      5565      5567      3526      3469
 -1     19566    3    0    3
 -2      4998      5565      3526      3469
 -1     19567    3    0    3
 -2      5523      3432      4959      3428
 -1     19568    3    0    3
 -2      5573      5527      1583      1431
 -1     19569    3    0    3
 -2      5573      3497      5527      6653
 -1     19570    3    0    3
 -2      1506      5689      1334      5571
 -1     19571    3    0    3
 -2      5523      3432      3428      3433
 -1     19572    3    0    3
 -2      4846      4845      4433      3569
 -1     19573    3    0    3
 -2      1479      1570      1572      6631
 -1     19574    3    0    3
 -2      1570      5575      1643      1571
 -1     19575    3    0    3
 -2      1252      1583      5527      1431
 -1     19576    3    0    3
 -2      1097      1334      1244      5572
 -1     19577    3    0    3
 -2      1600      5574      5568      6661
 -1     19578    3    0    3
 -2      2831      2815      2871      5722
 -1     19579    3    0    3
 -2      2166      2136      5005      5896
 -1     19580    3    0    3
 -2      5360      1439      6328      1437
 -1     19581    3    0    3
 -2      5572      5005      4403      4434
 -1     19582    3    0    3
 -2      5891      5015      5016      4352
 -1     19583    3    0    3
 -2       965       873      1182      6639
 -1     19584    3    0    3
 -2       521      1904       105      1861
 -1     19585    3    0    3
 -2      5027      5030      5917      4341
 -1     19586    3    0    3
 -2      2136      5005      2392      2391
 -1     19587    3    0    3
 -2      1037       965      1097      5829
 -1     19588    3    0    3
 -2      5580      1181      1242      6346
 -1     19589    3    0    3
 -2      1334      1473      5571      5889
 -1     19590    3    0    3
 -2      6688      1930      5079      4062
 -1     19591    3    0    3
 -2      4643      6586      3564      3186
 -1     19592    3    0    3
 -2      6341      2798      2797      2796
 -1     19593    3    0    3
 -2      4352      5572      5578      5829
 -1     19594    3    0    3
 -2      1473      1334      1274      5889
 -1     19595    3    0    3
 -2      1182      1274      1097      5578
 -1     19596    3    0    3
 -2      1274      1478      1473      5577
 -1     19597    3    0    3
 -2      4460      5571      5577      4403
 -1     19598    3    0    3
 -2      5578      1273      1274      5577
 -1     19599    3    0    3
 -2      1274      1273      1478      5577
 -1     19600    3    0    3
 -2      1268      1273      1181      6347
 -1     19601    3    0    3
 -2      3924      3757      5323      5314
 -1     19602    3    0    3
 -2      6661      5854      4460      6763
 -1     19603    3    0    3
 -2      5574      4515      5568      4460
 -1     19604    3    0    3
 -2      6774      5037      5713      5739
 -1     19605    3    0    3
 -2       372       371      1759      2844
 -1     19606    3    0    3
 -2      5864      1502      6318      1402
 -1     19607    3    0    3
 -2      2460      2604      2363      6013
 -1     19608    3    0    3
 -2      5572      4378      5005      4434
 -1     19609    3    0    3
 -2      2137      2358      2392      5773
 -1     19610    3    0    3
 -2      4434      4378      5005      5003
 -1     19611    3    0    3
 -2      5570      5569      4465      4434
 -1     19612    3    0    3
 -2      5010      5004      4403      5832
 -1     19613    3    0    3
 -2      2056      5925      6104      2068
 -1     19614    3    0    3
 -2      4465      5002      5569      4520
 -1     19615    3    0    3
 -2      3504      4794      4797      3475
 -1     19616    3    0    3
 -2      6023      2534      2532      6025
 -1     19617    3    0    3
 -2      4840      5844      4834      3902
 -1     19618    3    0    3
 -2      2786      6672      5857      6671
 -1     19619    3    0    3
 -2      1447      1374      5569      6332
 -1     19620    3    0    3
 -2      6276      6192      6278      6310
 -1     19621    3    0    3
 -2      1887      5866      4493      1888
 -1     19622    3    0    3
 -2      1549      1447      1418      6349
 -1     19623    3    0    3
 -2      4486      5569      5566      6349
 -1     19624    3    0    3
 -2      4908      3999      4911      4423
 -1     19625    3    0    3
 -2      4907      4909      3587      4059
 -1     19626    3    0    3
 -2      1641      1642      1600      6661
 -1     19627    3    0    3
 -2      6337      5367       772      6338
 -1     19628    3    0    3
 -2      5732      6624      6679      5601
 -1     19629    3    0    3
 -2      4842      1976      1905      3520
 -1     19630    3    0    3
 -2      5582      4378      5572      6637
 -1     19631    3    0    3
 -2      1921      4916      1848      1920
 -1     19632    3    0    3
 -2      2818      2834      2876      5772
 -1     19633    3    0    3
 -2      5896      5015      5016      5901
 -1     19634    3    0    3
 -2      5812      5582      5891      6673
 -1     19635    3    0    3
 -2      2835      2870      5581      2843
 -1     19636    3    0    3
 -2      2818      5812      2876      2869
 -1     19637    3    0    3
 -2       268       269       837      2796
 -1     19638    3    0    3
 -2      2835      2865      2843      6338
 -1     19639    3    0    3
 -2      5005      4403      5011      4352
 -1     19640    3    0    3
 -2      5807      2166      5011      5896
 -1     19641    3    0    3
 -2      5757      5572      5570      6637
 -1     19642    3    0    3
 -2      2754       384      4905      2755
 -1     19643    3    0    3
 -2      2754      4905      2727      2755
 -1     19644    3    0    3
 -2      2825      2859      2785      5926
 -1     19645    3    0    3
 -2      2794       276      2788      6683
 -1     19646    3    0    3
 -2      5013      5017      4299      5914
 -1     19647    3    0    3
 -2      1916      4939      4227      2077
 -1     19648    3    0    3
 -2      1487      5806      5589      5586
 -1     19649    3    0    3
 -2      2869      5812      5891      6673
 -1     19650    3    0    3
 -2      3436      6564      3591      3413
 -1     19651    3    0    3
 -2      1759      2050      1736      6724
 -1     19652    3    0    3
 -2      4428      5854      5577      4460
 -1     19653    3    0    3
 -2       274       652      2808       275
 -1     19654    3    0    3
 -2      4323      5584      5583      5754
 -1     19655    3    0    3
 -2      5829      4352      5582      6794
 -1     19656    3    0    3
 -2      6683       275       276      2788
 -1     19657    3    0    3
 -2      1921      4916      4915      1848
 -1     19658    3    0    3
 -2      5014      4378      5015      5923
 -1     19659    3    0    3
 -2      2869      2807      2818      6673
 -1     19660    3    0    3
 -2      3648      3573      3679       109
 -1     19661    3    0    3
 -2      6639      5829       965      6794
 -1     19662    3    0    3
 -2      5363      5367      6335      6336
 -1     19663    3    0    3
 -2       105         3        66      1861
 -1     19664    3    0    3
 -2      6672      5857      5583      5891
 -1     19665    3    0    3
 -2       754       994      5581       780
 -1     19666    3    0    3
 -2      6672      5857      5891      2787
 -1     19667    3    0    3
 -2      5772       836       780      6762
 -1     19668    3    0    3
 -2      1008       780       836      6762
 -1     19669    3    0    3
 -2      1366      5412      5443      5824
 -1     19670    3    0    3
 -2      2835       754       271       270
 -1     19671    3    0    3
 -2      5769      4991      4990      3510
 -1     19672    3    0    3
 -2      2523      5958      2643      2544
 -1     19673    3    0    3
 -2      1320      5742      1203      1321
 -1     19674    3    0    3
 -2      2818      5812      2869      6673
 -1     19675    3    0    3
 -2      1182       873      1181      6639
 -1     19676    3    0    3
 -2      2818       272       836       273
 -1     19677    3    0    3
 -2       651      2807      6672      6673
 -1     19678    3    0    3
 -2      1320      5742      1321      6767
 -1     19679    3    0    3
 -2      4489      1948      4919      6677
 -1     19680    3    0    3
 -2      5754      5583       652      6671
 -1     19681    3    0    3
 -2      1921      4916      1920      3474
 -1     19682    3    0    3
 -2      4881      1921      3474      5682
 -1     19683    3    0    3
 -2      2813      5584      2794      6683
 -1     19684    3    0    3
 -2      1002       666      1001      5779
 -1     19685    3    0    3
 -2       665      1002      5584      5779
 -1     19686    3    0    3
 -2       874      5584       783       665
 -1     19687    3    0    3
 -2      5601      1001       666      5779
 -1     19688    3    0    3
 -2       874      1002      5584       665
 -1     19689    3    0    3
 -2      2049      1812      1838      5901
 -1     19690    3    0    3
 -2      2751      4907      2778      2755
 -1     19691    3    0    3
 -2       279       667       278      2832
 -1     19692    3    0    3
 -2      5583      4323      5754      6639
 -1     19693    3    0    3
 -2       867       814      5775      6699
 -1     19694    3    0    3
 -2      5732      5903      5034      5919
 -1     19695    3    0    3
 -2      5775       814       777      6764
 -1     19696    3    0    3
 -2      1940      4912      1861      1904
 -1     19697    3    0    3
 -2      5847      4323      5580      6346
 -1     19698    3    0    3
 -2      6331      4406      6336      6337
 -1     19699    3    0    3
 -2       279       747       667      6679
 -1     19700    3    0    3
 -2      5602      4189      5722      6686
 -1     19701    3    0    3
 -2       279       280       747      2871
 -1     19702    3    0    3
 -2      2787      2785      2786      5857
 -1     19703    3    0    3
 -2      5732      5903      5919      6797
 -1     19704    3    0    3
 -2       667       666       278      2832
 -1     19705    3    0    3
 -2      6776      1242      5580      6621
 -1     19706    3    0    3
 -2      2831      5601      5732      6679
 -1     19707    3    0    3
 -2      4267      5034      5601      5732
 -1     19708    3    0    3
 -2      2831      2871      2832      6679
 -1     19709    3    0    3
 -2      5722      4189      2815      6686
 -1     19710    3    0    3
 -2      5756      2855      2795      5849
 -1     19711    3    0    3
 -2      4323      5849      5756      5584
 -1     19712    3    0    3
 -2      4905       384      1843      1767
 -1     19713    3    0    3
 -2      2793      2832      5601      2833
 -1     19714    3    0    3
 -2      5891      2787      5857      5921
 -1     19715    3    0    3
 -2       665       276       277      2794
 -1     19716    3    0    3
 -2      1783      1782      4035      4843
 -1     19717    3    0    3
 -2      2788      2813      2794      6683
 -1     19718    3    0    3
 -2      4905      2754      4280      1843
 -1     19719    3    0    3
 -2      6565      6209      6492      2118
 -1     19720    3    0    3
 -2      2867      2831      2812      5919
 -1     19721    3    0    3
 -2      4267      5903      5733      5034
 -1     19722    3    0    3
 -2      2832      5601       666      2793
 -1     19723    3    0    3
 -2      1822      2087      5082      1778
 -1     19724    3    0    3
 -2      5779      1002      5584      5847
 -1     19725    3    0    3
 -2      2832       666       278      2793
 -1     19726    3    0    3
 -2       666       277       278      2793
 -1     19727    3    0    3
 -2      4214      5603      5731      5776
 -1     19728    3    0    3
 -2      4062      6688      5032      4429
 -1     19729    3    0    3
 -2       384      2754      4905      1843
 -1     19730    3    0    3
 -2      4062      6688      4429      5079
 -1     19731    3    0    3
 -2      2755      4905      4907      1767
 -1     19732    3    0    3
 -2      4847      2076      4280      4035
 -1     19733    3    0    3
 -2      2832      2831      5601      2833
 -1     19734    3    0    3
 -2      2811      1818      5034      2810
 -1     19735    3    0    3
 -2      5582      5015      5812      5891
 -1     19736    3    0    3
 -2       277       666       665      5779
 -1     19737    3    0    3
 -2      2754       384       385      1843
 -1     19738    3    0    3
 -2      2812      2811      5034      2810
 -1     19739    3    0    3
 -2      2795      5584      2794      2813
 -1     19740    3    0    3
 -2      4905      2116      4280      6185
 -1     19741    3    0    3
 -2       281      6764      6715      2852
 -1     19742    3    0    3
 -2       282      1687       287      5718
 -1     19743    3    0    3
 -2        74      5071      1797      1760
 -1     19744    3    0    3
 -2      1836      3063      6766      3073
 -1     19745    3    0    3
 -2       389       390      4828      1769
 -1     19746    3    0    3
 -2       288      1687      1688      5713
 -1     19747    3    0    3
 -2      5736      4289      5029      4484
 -1     19748    3    0    3
 -2      2815      2814      4189      2816
 -1     19749    3    0    3
 -2      4062      4259      4289      5080
 -1     19750    3    0    3
 -2       571      4002       531       588
 -1     19751    3    0    3
 -2      2462      4838      2647      6080
 -1     19752    3    0    3
 -2      4485      5770      3811      5047
 -1     19753    3    0    3
 -2      4144      3742      5599      4235
 -1     19754    3    0    3
 -2      5656      5662      5731      5776
 -1     19755    3    0    3
 -2      2123      4850      5699      6185
 -1     19756    3    0    3
 -2       291      1677       254      6334
 -1     19757    3    0    3
 -2      5760      1679      1779      5083
 -1     19758    3    0    3
 -2      2123      3587      4850      6185
 -1     19759    3    0    3
 -2      4227      1916      4903      3527
 -1     19760    3    0    3
 -2      2412      5696      2463      4848
 -1     19761    3    0    3
 -2      5804      5525      5528      3549
 -1     19762    3    0    3
 -2      1861        66      4911      1910
 -1     19763    3    0    3
 -2      6794      4352      6639      5829
 -1     19764    3    0    3
 -2      2412      5696      4848      4849
 -1     19765    3    0    3
 -2       571      4002       588      3594
 -1     19766    3    0    3
 -2      4265      4039      4067      4893
 -1     19767    3    0    3
 -2      2458      6711      4838      4849
 -1     19768    3    0    3
 -2      5739      5717      5668      6730
 -1     19769    3    0    3
 -2       382        66         3      1910
 -1     19770    3    0    3
 -2      5525      5804      5528      6544
 -1     19771    3    0    3
 -2      1861         3        66      1910
 -1     19772    3    0    3
 -2      1687      5037      1675      1688
 -1     19773    3    0    3
 -2      4026      6271      4821      3996
 -1     19774    3    0    3
 -2      1820      1728      1991      5017
 -1     19775    3    0    3
 -2      2387      2189      2135      5680
 -1     19776    3    0    3
 -2      5846      1446      6332      1373
 -1     19777    3    0    3
 -2      1549      6321      6349      5566
 -1     19778    3    0    3
 -2      5017      5034      4299      5914
 -1     19779    3    0    3
 -2      1674      1693      1678      6702
 -1     19780    3    0    3
 -2      5855      5912      2500      5022
 -1     19781    3    0    3
 -2      3983      5665      1692      5652
 -1     19782    3    0    3
 -2      5598      4240      5603      4214
 -1     19783    3    0    3
 -2      4186      4214      5600      5662
 -1     19784    3    0    3
 -2      1504      6707      6767      1503
 -1     19785    3    0    3
 -2      2457      2455      2662      6367
 -1     19786    3    0    3
 -2      2815      6690      2814      2852
 -1     19787    3    0    3
 -2      1504      6707      1503      1604
 -1     19788    3    0    3
 -2      5021      2607      5027      5906
 -1     19789    3    0    3
 -2      4369      5591      5588      4341
 -1     19790    3    0    3
 -2      5603      5730      5731      5776
 -1     19791    3    0    3
 -2      5602       747       786      6686
 -1     19792    3    0    3
 -2      2831      2832      5601      6679
 -1     19793    3    0    3
 -2      5753       902      1078      6694
 -1     19794    3    0    3
 -2      5730       867      5775      6699
 -1     19795    3    0    3
 -2       290      1680      1677      5728
 -1     19796    3    0    3
 -2      5598      5031      4240      4214
 -1     19797    3    0    3
 -2      5015      5923      2866      5922
 -1     19798    3    0    3
 -2      6679       747      5602      6686
 -1     19799    3    0    3
 -2      4323      5849      5017      5756
 -1     19800    3    0    3
 -2      4995      2619      2418      2617
 -1     19801    3    0    3
 -2      2871       747      6679      6686
 -1     19802    3    0    3
 -2      3657       809      1005       810
 -1     19803    3    0    3
 -2      4293      5031      5598      4261
 -1     19804    3    0    3
 -2      6362      4417      5593      4364
 -1     19805    3    0    3
 -2      4293      5030      5031      4261
 -1     19806    3    0    3
 -2      4261      4293      5030      5597
 -1     19807    3    0    3
 -2      2325      2583      4832      5692
 -1     19808    3    0    3
 -2      5599      5596      5666      5765
 -1     19809    3    0    3
 -2      5562      4417      5593      5742
 -1     19810    3    0    3
 -2      3983      5651      5652      4513
 -1     19811    3    0    3
 -2       289      1688      1680      5728
 -1     19812    3    0    3
 -2      5031      2380      2372      5677
 -1     19813    3    0    3
 -2      1785      1786       284      6702
 -1     19814    3    0    3
 -2      1689      1680      1684      5604
 -1     19815    3    0    3
 -2      1684      1675      5037      1688
 -1     19816    3    0    3
 -2      4364      5596      5594      5783
 -1     19817    3    0    3
 -2      4417      5564      5595      5742
 -1     19818    3    0    3
 -2      3516      4983      4986      5684
 -1     19819    3    0    3
 -2      5029      5596      4316      4364
 -1     19820    3    0    3
 -2      4341      5594      4393      5027
 -1     19821    3    0    3
 -2      5638      3791       589      3816
 -1     19822    3    0    3
 -2       661      6112       482      6111
 -1     19823    3    0    3
 -2      4369      5803      4321      5024
 -1     19824    3    0    3
 -2       853       974       973      5639
 -1     19825    3    0    3
 -2      1601      1463      1464      6753
 -1     19826    3    0    3
 -2      5598      4293      4261      5597
 -1     19827    3    0    3
 -2      5597      5030      4316      4341
 -1     19828    3    0    3
 -2      1325      1150      1320      6362
 -1     19829    3    0    3
 -2      1930      1931      5078      5709
 -1     19830    3    0    3
 -2       169      5520      3330       653
 -1     19831    3    0    3
 -2      4477      4447      4989      5020
 -1     19832    3    0    3
 -2      1517      5759      5561      6404
 -1     19833    3    0    3
 -2      6530      3143      6638      6646
 -1     19834    3    0    3
 -2      1517      5759      6404      1602
 -1     19835    3    0    3
 -2      2619      2418      2417      5746
 -1     19836    3    0    3
 -2       385      4280      1843      1782
 -1     19837    3    0    3
 -2      4447      5026      4995      5746
 -1     19838    3    0    3
 -2      1325      6619      1598      6765
 -1     19839    3    0    3
 -2      6343      1601      5591      6753
 -1     19840    3    0    3
 -2      2811      1818      2810       378
 -1     19841    3    0    3
 -2      2546      2464      2716      5686
 -1     19842    3    0    3
 -2      2096      4280      2076      1782
 -1     19843    3    0    3
 -2      5849      4323      5847      5584
 -1     19844    3    0    3
 -2      5694      3657      5600      6344
 -1     19845    3    0    3
 -2      4840      3868      4847      6259
 -1     19846    3    0    3
 -2       281      6764      2852       291
 -1     19847    3    0    3
 -2      3651      4906      4905      4059
 -1     19848    3    0    3
 -2      1601      5591      1328      6343
 -1     19849    3    0    3
 -2      5783      1325      1384      6765
 -1     19850    3    0    3
 -2      5028      4417      5026      5744
 -1     19851    3    0    3
 -2      4989      4477      5020      5907
 -1     19852    3    0    3
 -2      1782      4280      2076      4035
 -1     19853    3    0    3
 -2      5562      4447      5556      5743
 -1     19854    3    0    3
 -2      1608      1517      1630      6404
 -1     19855    3    0    3
 -2      5555      1605      1630      6611
 -1     19856    3    0    3
 -2      5734      5594      5597      5765
 -1     19857    3    0    3
 -2      3742       987      5647      5648
 -1     19858    3    0    3
 -2      4268      4016      3796      5040
 -1     19859    3    0    3
 -2      1585      5588      1464      1454
 -1     19860    3    0    3
 -2      4634      3183      3244      6587
 -1     19861    3    0    3
 -2      1585      1584      5588      1454
 -1     19862    3    0    3
 -2      4879      2478      2386      6711
 -1     19863    3    0    3
 -2      1454      1584      5588      6619
 -1     19864    3    0    3
 -2      4441      5933      5884      5934
 -1     19865    3    0    3
 -2      5838      5413      3668      4344
 -1     19866    3    0    3
 -2      5783      5594      5593      6765
 -1     19867    3    0    3
 -2      2815      6690      6686      4189
 -1     19868    3    0    3
 -2      5734      1384      5765      1378
 -1     19869    3    0    3
 -2      1598      1384      1325      6765
 -1     19870    3    0    3
 -2      4851      3940      5682      6709
 -1     19871    3    0    3
 -2       617       626      4249      4285
 -1     19872    3    0    3
 -2      6707      5562      5743      6767
 -1     19873    3    0    3
 -2      5694      6718      5658      4261
 -1     19874    3    0    3
 -2      3722      4881      3940      6709
 -1     19875    3    0    3
 -2      5594      4316      5597      5765
 -1     19876    3    0    3
 -2      3697      4918      3881      3670
 -1     19877    3    0    3
 -2      5694      6718      1144      5658
 -1     19878    3    0    3
 -2      4881      3474      3940      5682
 -1     19879    3    0    3
 -2      3670      4881      5445      3699
 -1     19880    3    0    3
 -2       782       973      5640      5639
 -1     19881    3    0    3
 -2      2815      6690      4189      2814
 -1     19882    3    0    3
 -2      4280      4847      4059      6257
 -1     19883    3    0    3
 -2      2413      2155      2228      5676
 -1     19884    3    0    3
 -2      3806      4849      3753      4851
 -1     19885    3    0    3
 -2      4085      4108      4278       587
 -1     19886    3    0    3
 -2      4838      2647      2630      2462
 -1     19887    3    0    3
 -2       782       853       973      5639
 -1     19888    3    0    3
 -2      1325      1505      5593      1320
 -1     19889    3    0    3
 -2      3624       990      5656      6344
 -1     19890    3    0    3
 -2      2630      2567      4838      2659
 -1     19891    3    0    3
 -2      5596      4316      5594      5765
 -1     19892    3    0    3
 -2      1454      1463      1378      5734
 -1     19893    3    0    3
 -2      1169      1144      5599      6718
 -1     19894    3    0    3
 -2      3810      4871      4873      6712
 -1     19895    3    0    3
 -2      5855      4398      5012      5912
 -1     19896    3    0    3
 -2      5855      4398      5912      5022
 -1     19897    3    0    3
 -2      5731      5662      4214      5776
 -1     19898    3    0    3
 -2      1690      3838      1670      5663
 -1     19899    3    0    3
 -2      4873      4879      5672      6254
 -1     19900    3    0    3
 -2      5668      5033      4214      5739
 -1     19901    3    0    3
 -2      4848      3806      4850      5675
 -1     19902    3    0    3
 -2      3624       990       707      5656
 -1     19903    3    0    3
 -2      4838      4836      3810      6712
 -1     19904    3    0    3
 -2      3657      3624       809      5652
 -1     19905    3    0    3
 -2      1413      5597      1391      1379
 -1     19906    3    0    3
 -2      5765      5597      1379      6718
 -1     19907    3    0    3
 -2      5453      1166      5461      6288
 -1     19908    3    0    3
 -2      3940      4915      4912      5682
 -1     19909    3    0    3
 -2      4144       954      3657      5694
 -1     19910    3    0    3
 -2      1098      1391      5598      1375
 -1     19911    3    0    3
 -2      6342      5497      5494      3662
 -1     19912    3    0    3
 -2      5807      2049      1986      2236
 -1     19913    3    0    3
 -2      5841      5413      5840      6800
 -1     19914    3    0    3
 -2      3868      3806      4850      4848
 -1     19915    3    0    3
 -2      1328      1078      1362      6343
 -1     19916    3    0    3
 -2      2851      2852       281      6715
 -1     19917    3    0    3
 -2      1686      3838      1672      1690
 -1     19918    3    0    3
 -2       280      2851       281       786
 -1     19919    3    0    3
 -2      4994      2283      2339      2382
 -1     19920    3    0    3
 -2      6445       776      5612      5615
 -1     19921    3    0    3
 -2      4837      2685      2462      2464
 -1     19922    3    0    3
 -2       290      2852      2814      6690
 -1     19923    3    0    3
 -2      2713      4834      2480      5653
 -1     19924    3    0    3
 -2      2852      2851      2815      6686
 -1     19925    3    0    3
 -2      1098      1009       867      6699
 -1     19926    3    0    3
 -2      1379      1378      1463      5734
 -1     19927    3    0    3
 -2      5694      6718      4261      5599
 -1     19928    3    0    3
 -2      4323      5849      5847      4299
 -1     19929    3    0    3
 -2      5693      4144      5599      5694
 -1     19930    3    0    3
 -2      3930      3868      4847      4840
 -1     19931    3    0    3
 -2      1375      1385      1391      5658
 -1     19932    3    0    3
 -2       859      4050      5643      5702
 -1     19933    3    0    3
 -2      1876      4051      1727      4970
 -1     19934    3    0    3
 -2      1144      1391      5658      6718
 -1     19935    3    0    3
 -2       662      3033      6507       705
 -1     19936    3    0    3
 -2      3920      3590      5408      5789
 -1     19937    3    0    3
 -2      5653      4834      4840      5654
 -1     19938    3    0    3
 -2        32      5644       793       650
 -1     19939    3    0    3
 -2      5639       782        35       596
 -1     19940    3    0    3
 -2      6289      3351      3350      3927
 -1     19941    3    0    3
 -2      2714      2685      4837      2464
 -1     19942    3    0    3
 -2      4447      5562      5593      5743
 -1     19943    3    0    3
 -2      1602      5759      6404      6707
 -1     19944    3    0    3
 -2      2012      5794      2256      2290
 -1     19945    3    0    3
 -2       894      5564      3537      6429
 -1     19946    3    0    3
 -2       758       757      5485        62
 -1     19947    3    0    3
 -2      1212      1271      1270      6428
 -1     19948    3    0    3
 -2       987      1169      5599      5666
 -1     19949    3    0    3
 -2       990      1385      1375      6344
 -1     19950    3    0    3
 -2       549       800       110      5648
 -1     19951    3    0    3
 -2      4847      5685      6257      6259
 -1     19952    3    0    3
 -2      5703      3825      4826      6238
 -1     19953    3    0    3
 -2      4834      4840      3959      5653
 -1     19954    3    0    3
 -2       878      5644      4050      5666
 -1     19955    3    0    3
 -2      5694      4261      4144      5599
 -1     19956    3    0    3
 -2      2498      5675      2156      2412
 -1     19957    3    0    3
 -2      6699       814      5775      6764
 -1     19958    3    0    3
 -2        32      5644       650       577
 -1     19959    3    0    3
 -2       807       255       256      1683
 -1     19960    3    0    3
 -2      5658      1375      1385      6344
 -1     19961    3    0    3
 -2      4289      3735      5642      5077
 -1     19962    3    0    3
 -2      4261      5731      5600      4214
 -1     19963    3    0    3
 -2      4222      5712      4833      6234
 -1     19964    3    0    3
 -2      1379      1391      1144      6718
 -1     19965    3    0    3
 -2      3624       990      6344      1039
 -1     19966    3    0    3
 -2      1375      1391      5598      5658
 -1     19967    3    0    3
 -2       808      1691       254       255
 -1     19968    3    0    3
 -2      6060      1614      1618      6061
 -1     19969    3    0    3
 -2      4847      3930      4840      4137
 -1     19970    3    0    3
 -2      4844      5404      3955      3989
 -1     19971    3    0    3
 -2      4433      3930      4847      4137
 -1     19972    3    0    3
 -2      2548      5869      2651      4987
 -1     19973    3    0    3
 -2       571      4002      3594      5482
 -1     19974    3    0    3
 -2      3868      4840      4848      6259
 -1     19975    3    0    3
 -2       809      1039      3657      1005
 -1     19976    3    0    3
 -2      5599      1144       987      5693
 -1     19977    3    0    3
 -2      1385      3657      1005       954
 -1     19978    3    0    3
 -2      5604      1690      1683      5663
 -1     19979    3    0    3
 -2      5604       807      5663      1683
 -1     19980    3    0    3
 -2      6268      2204      2287      6432
 -1     19981    3    0    3
 -2      5815      5388      6323      5881
 -1     19982    3    0    3
 -2      5085      5650      4186      4211
 -1     19983    3    0    3
 -2      5474      5473      3668      4199
 -1     19984    3    0    3
 -2       707      3624       809      1039
 -1     19985    3    0    3
 -2      5776      5730      5656      6692
 -1     19986    3    0    3
 -2      1473      5577      5571      5889
 -1     19987    3    0    3
 -2      1690      1670      1683      5663
 -1     19988    3    0    3
 -2      2630      4838      2462      2458
 -1     19989    3    0    3
 -2      5600      5662      5731      6344
 -1     19990    3    0    3
 -2      1692      1672      3983      5652
 -1     19991    3    0    3
 -2      5652      1670      1672      3838
 -1     19992    3    0    3
 -2      4222      5712      1970      5703
 -1     19993    3    0    3
 -2       810      5652       258      5665
 -1     19994    3    0    3
 -2       256       707      1670       257
 -1     19995    3    0    3
 -2      2465      5899      5827      5010
 -1     19996    3    0    3
 -2      5765      1169      5599      6718
 -1     19997    3    0    3
 -2      4341      5734      5597      6753
 -1     19998    3    0    3
 -2      3983      5665      5652      5651
 -1     19999    3    0    3
 -2      3983      5665      5651       110
 -1     20000    3    0    3
 -2      1673      3983       109      1692
 -1     20001    3    0    3
 -2      3765      5076      5641      4313
 -1     20002    3    0    3
 -2      3765      3471       590       620
 -1     20003    3    0    3
 -2      5694      5600      5658      6344
 -1     20004    3    0    3
 -2      1831      3141      4564      1830
 -1     20005    3    0    3
 -2      1831      3141      3125      4564
 -1     20006    3    0    3
 -2       785      6395      5771      6223
 -1     20007    3    0    3
 -2      3546      4317      5130      5138
 -1     20008    3    0    3
 -2      3471      4050      5644      5642
 -1     20009    3    0    3
 -2      2477      4838      2630      2458
 -1     20010    3    0    3
 -2       577      4266      3879      5647
 -1     20011    3    0    3
 -2      5652      5651      3657      4513
 -1     20012    3    0    3
 -2      4335      4050      5596      3643
 -1     20013    3    0    3
 -2      1454      1384      1598      6765
 -1     20014    3    0    3
 -2      5399      3844      5435      3810
 -1     20015    3    0    3
 -2      4873      2659      2489      5672
 -1     20016    3    0    3
 -2      4362      5637      5638      4326
 -1     20017    3    0    3
 -2       859      5596      1178       878
 -1     20018    3    0    3
 -2      1920      1921      4881      2189
 -1     20019    3    0    3
 -2       973      5595      1150      1032
 -1     20020    3    0    3
 -2      5637      3776      5638      4326
 -1     20021    3    0    3
 -2      1970      4222      4827      3876
 -1     20022    3    0    3
 -2      5641      3791      3765       590
 -1     20023    3    0    3
 -2      3934      4835      5398      3872
 -1     20024    3    0    3
 -2      2386      2413      5676      6711
 -1     20025    3    0    3
 -2      5676      2413      4849      6711
 -1     20026    3    0    3
 -2      5852      1468      5806      5579
 -1     20027    3    0    3
 -2      3866      5685      5410      3830
 -1     20028    3    0    3
 -2      5687      3736      4839      3520
 -1     20029    3    0    3
 -2      2545      5893      2689      2542
 -1     20030    3    0    3
 -2      3776      5637      5638      3816
 -1     20031    3    0    3
 -2       584      3878      3666      5068
 -1     20032    3    0    3
 -2      5414      4438      3767      5669
 -1     20033    3    0    3
 -2      6112       661       482       662
 -1     20034    3    0    3
 -2      3530      3999      3752      4851
 -1     20035    3    0    3
 -2      3930      4839      4840      4137
 -1     20036    3    0    3
 -2       894      5564      1149       974
 -1     20037    3    0    3
 -2      6279      5443      1351      6280
 -1     20038    3    0    3
 -2      4871      5435      3844      3810
 -1     20039    3    0    3
 -2      5387      1629      1617      5399
 -1     20040    3    0    3
 -2      4879      3785      4873      5672
 -1     20041    3    0    3
 -2      2489      2478      2481      6254
 -1     20042    3    0    3
 -2      2659      2477      2478      5672
 -1     20043    3    0    3
 -2      2481      2478      2387      4879
 -1     20044    3    0    3
 -2      3722      4165      5445      3767
 -1     20045    3    0    3
 -2       769       519      5636        36
 -1     20046    3    0    3
 -2       518      5639        35       596
 -1     20047    3    0    3
 -2      5636       769        36       853
 -1     20048    3    0    3
 -2      2134      2135      1948      6677
 -1     20049    3    0    3
 -2       853      5636       769       974
 -1     20050    3    0    3
 -2      5438      3703      3758      5436
 -1     20051    3    0    3
 -2      3612      5441      4877      3675
 -1     20052    3    0    3
 -2      4879      2481      2478      6254
 -1     20053    3    0    3
 -2       769      5636       894       974
 -1     20054    3    0    3
 -2      6555      1568      1565      1564
 -1     20055    3    0    3
 -2      6160      5419      3820      4452
 -1     20056    3    0    3
 -2      5058        81       559       558
 -1     20057    3    0    3
 -2      4873      3785      4838      5672
 -1     20058    3    0    3
 -2      1412      1445      1399      5411
 -1     20059    3    0    3
 -2      3836      4849      3806      4848
 -1     20060    3    0    3
 -2       514      1859      1773      4943
 -1     20061    3    0    3
 -2      6234      4840      2717      5653
 -1     20062    3    0    3
 -2       973       782      5640      1032
 -1     20063    3    0    3
 -2      5640       782       781      1032
 -1     20064    3    0    3
 -2      1607      1610      5437      1609
 -1     20065    3    0    3
 -2      5783      5593      4364      6362
 -1     20066    3    0    3
 -2      1102      5596      1178       859
 -1     20067    3    0    3
 -2      4268      4016       572      3796
 -1     20068    3    0    3
 -2      5073      5076      3463      4335
 -1     20069    3    0    3
 -2      4026      6271      6632      4821
 -1     20070    3    0    3
 -2      4908      3587      3999      4423
 -1     20071    3    0    3
 -2      3735      5642      3765       620
 -1     20072    3    0    3
 -2      5717      1824      3507      6730
 -1     20073    3    0    3
 -2      2189      4881      2135      5680
 -1     20074    3    0    3
 -2      5596      4414      5599      5666
 -1     20075    3    0    3
 -2      4177      5640       596       593
 -1     20076    3    0    3
 -2      6161      6099      6162      4853
 -1     20077    3    0    3
 -2       650      5666      5644       878
 -1     20078    3    0    3
 -2      5556      6404      5562      6707
 -1     20079    3    0    3
 -2      4335      4050      4313      5596
 -1     20080    3    0    3
 -2      1904      1940      4912      1921
 -1     20081    3    0    3
 -2      4881      1920      2135      6677
 -1     20082    3    0    3
 -2      5445      5414      3722      3767
 -1     20083    3    0    3
 -2      4851      3752      3940      3722
 -1     20084    3    0    3
 -2      3722      4851      3753      6709
 -1     20085    3    0    3
 -2      2228      6709      4851      5682
 -1     20086    3    0    3
 -2      4242      4480      4283      5402
 -1     20087    3    0    3
 -2      2531      2123      5699      6185
 -1     20088    3    0    3
 -2      3830      3668      3804      5413
 -1     20089    3    0    3
 -2         1       110       800       810
 -1     20090    3    0    3
 -2      1831      3141       414      3125
 -1     20091    3    0    3
 -2      3940      4851      3722      6709
 -1     20092    3    0    3
 -2      1940      3530      4912      5682
 -1     20093    3    0    3
 -2      3830      3587      4850      3804
 -1     20094    3    0    3
 -2      3940      4881      5682      6709
 -1     20095    3    0    3
 -2      3530      3752      3940      4851
 -1     20096    3    0    3
 -2      4144      4513      5651      5649
 -1     20097    3    0    3
 -2       810         1       110       258
 -1     20098    3    0    3
 -2      4850      4848      5675      5699
 -1     20099    3    0    3
 -2      4840      5686      4848      6259
 -1     20100    3    0    3
 -2      5675      4851      4850      5679
 -1     20101    3    0    3
 -2      2155      4851      2228      5676
 -1     20102    3    0    3
 -2      4851      1940      2155      2228
 -1     20103    3    0    3
 -2       954       800      5648      5651
 -1     20104    3    0    3
 -2      3828       587       616      4085
 -1     20105    3    0    3
 -2      4266      5647      5648      3742
 -1     20106    3    0    3
 -2      5642      3471      3765       620
 -1     20107    3    0    3
 -2       809      1671       257       258
 -1     20108    3    0    3
 -2      5672      2477      2478      6711
 -1     20109    3    0    3
 -2      1921      4912      4915      5682
 -1     20110    3    0    3
 -2      3828       587      4278       586
 -1     20111    3    0    3
 -2       859       793       781      5643
 -1     20112    3    0    3
 -2      5647      3879      5644      4414
 -1     20113    3    0    3
 -2      5648       800       110      5651
 -1     20114    3    0    3
 -2      5642      4050      4414      4289
 -1     20115    3    0    3
 -2       785      6395       869       951
 -1     20116    3    0    3
 -2       593      3471       546       590
 -1     20117    3    0    3
 -2      4915      3940      3474      5682
 -1     20118    3    0    3
 -2      4912      3530      3940      5682
 -1     20119    3    0    3
 -2      3866      5685      3830      4059
 -1     20120    3    0    3
 -2      5644       793       859      5643
 -1     20121    3    0    3
 -2      3765      5641      5642      4313
 -1     20122    3    0    3
 -2       596      3776      4177       589
 -1     20123    3    0    3
 -2      5637      4362      5638      3816
 -1     20124    3    0    3
 -2      3866      5685      4059      4847
 -1     20125    3    0    3
 -2      1284      5373      5372      6022
 -1     20126    3    0    3
 -2      2123      2531      2116      6185
 -1     20127    3    0    3
 -2      3651      4905      4280      4059
 -1     20128    3    0    3
 -2      5472      3779      4910      3804
 -1     20129    3    0    3
 -2      3590      3955      3930      5405
 -1     20130    3    0    3
 -2      3779      3587      4910      3804
 -1     20131    3    0    3
 -2      5639      5637      3946      4326
 -1     20132    3    0    3
 -2      1671       707       809       257
 -1     20133    3    0    3
 -2       650      5666       878       987
 -1     20134    3    0    3
 -2      5644      3471       546      5643
 -1     20135    3    0    3
 -2      5687      3736      4842      4137
 -1     20136    3    0    3
 -2       662      3033       240      3080
 -1     20137    3    0    3
 -2      3999      3587      3779      4850
 -1     20138    3    0    3
 -2      2412      5696      4849      2458
 -1     20139    3    0    3
 -2      4849      2412      5676      5675
 -1     20140    3    0    3
 -2      2386      2189      6709      2228
 -1     20141    3    0    3
 -2      1339      1338      5552      1470
 -1     20142    3    0    3
 -2      2156      1968      4423      1969
 -1     20143    3    0    3
 -2      1077      6616      5695      5592
 -1     20144    3    0    3
 -2      5641      3471      3765      5642
 -1     20145    3    0    3
 -2       793       859       878      5644
 -1     20146    3    0    3
 -2      4414      3879      5644      5642
 -1     20147    3    0    3
 -2      3950      3705      3481      5080
 -1     20148    3    0    3
 -2       878       650       793      5644
 -1     20149    3    0    3
 -2       785      6395      6223       869
 -1     20150    3    0    3
 -2      3546      4317      3628      3769
 -1     20151    3    0    3
 -2      1032       859      5643      5702
 -1     20152    3    0    3
 -2      1102       859      1032      5702
 -1     20153    3    0    3
 -2      2122      2076      4035      1783
 -1     20154    3    0    3
 -2      3879       577      5647      5644
 -1     20155    3    0    3
 -2      3879       546       577      5644
 -1     20156    3    0    3
 -2      4347       331      3352      3353
 -1     20157    3    0    3
 -2      4948      3375      4953      3393
 -1     20158    3    0    3
 -2      2736      2768      4830      2753
 -1     20159    3    0    3
 -2      4835      4832      6213      6214
 -1     20160    3    0    3
 -2      1077      6616      5592      1328
 -1     20161    3    0    3
 -2       785      6395       951      5771
 -1     20162    3    0    3
 -2      3471       546      3879      5644
 -1     20163    3    0    3
 -2      5643      3471       546       593
 -1     20164    3    0    3
 -2       281      6764       814      6715
 -1     20165    3    0    3
 -2      5699      2531      6185      6259
 -1     20166    3    0    3
 -2      1032      5640      4326      5702
 -1     20167    3    0    3
 -2      4842      4137      4845      3569
 -1     20168    3    0    3
 -2      3520      1976      2112      5687
 -1     20169    3    0    3
 -2      1555      1554      1412      5688
 -1     20170    3    0    3
 -2      4847      3651      4280      4059
 -1     20171    3    0    3
 -2      4880      6772      4882      3699
 -1     20172    3    0    3
 -2      4849      4851      5675      5676
 -1     20173    3    0    3
 -2      6185      2096      2531      2116
 -1     20174    3    0    3
 -2      1664      1554      1555      5688
 -1     20175    3    0    3
 -2      2123      2498      2531      5699
 -1     20176    3    0    3
 -2      4293      5917      4341      5024
 -1     20177    3    0    3
 -2      3569      4280      4843      4035
 -1     20178    3    0    3
 -2       859      1102      5596      5702
 -1     20179    3    0    3
 -2      3546      4317      5138      3628
 -1     20180    3    0    3
 -2      4344      5470      5473      5838
 -1     20181    3    0    3
 -2      1658      5401      5400      5845
 -1     20182    3    0    3
 -2      4906      2779      5469      3866
 -1     20183    3    0    3
 -2      2548      5869      4987      4986
 -1     20184    3    0    3
 -2      2717      5698      2122      2649
 -1     20185    3    0    3
 -2      5596       878      4050      5666
 -1     20186    3    0    3
 -2      3898      5407      5404      4283
 -1     20187    3    0    3
 -2      5852      1468      1590      5806
 -1     20188    3    0    3
 -2      2576      2611      2583      6213
 -1     20189    3    0    3
 -2      4833      4834      3959      5653
 -1     20190    3    0    3
 -2      4833      5690      5712      6664
 -1     20191    3    0    3
 -2      5704      4486      5001      5004
 -1     20192    3    0    3
 -2       800       987       954      5648
 -1     20193    3    0    3
 -2      5675      2155      2156      2412
 -1     20194    3    0    3
 -2      1658      1575      5401      5845
 -1     20195    3    0    3
 -2      1379      5597      1391      6718
 -1     20196    3    0    3
 -2      4436      5393      4242      5392
 -1     20197    3    0    3
 -2      4839      3955      4195      3736
 -1     20198    3    0    3
 -2      6362      4417      4364      5595
 -1     20199    3    0    3
 -2       781      5640      1032      5643
 -1     20200    3    0    3
 -2      5643      5641      3471      4177
 -1     20201    3    0    3
 -2      4838      3836      4837      5696
 -1     20202    3    0    3
 -2      4848      4849      3806      5675
 -1     20203    3    0    3
 -2      5686      5654      4840      5844
 -1     20204    3    0    3
 -2      5841      1053      1006      1411
 -1     20205    3    0    3
 -2      2717      2112      1976      5687
 -1     20206    3    0    3
 -2      4268      4016      5040      4071
 -1     20207    3    0    3
 -2      6238      2760      2734      3825
 -1     20208    3    0    3
 -2       859       781      1032      5643
 -1     20209    3    0    3
 -2      6730      2253      2069      5033
 -1     20210    3    0    3
 -2      3872      3934      4837      5400
 -1     20211    3    0    3
 -2      4050      5596      3643      5702
 -1     20212    3    0    3
 -2      1638      5397      5659      6059
 -1     20213    3    0    3
 -2      3902      4837      4848      5844
 -1     20214    3    0    3
 -2      4050      3471      5644      5643
 -1     20215    3    0    3
 -2      5641      5643      3643      4177
 -1     20216    3    0    3
 -2      4050      5641      3471      5643
 -1     20217    3    0    3
 -2      4995      2619      5746      2418
 -1     20218    3    0    3
 -2      1144       954       987      5693
 -1     20219    3    0    3
 -2      5647      3742      4414      5666
 -1     20220    3    0    3
 -2      1672      3983      1673      1692
 -1     20221    3    0    3
 -2      5645      3742      4266      5646
 -1     20222    3    0    3
 -2      4266      3705      5645      5646
 -1     20223    3    0    3
 -2      2714      4834      2658      2713
 -1     20224    3    0    3
 -2      4834      2480      2658      2713
 -1     20225    3    0    3
 -2      1695      4376      5083      5085
 -1     20226    3    0    3
 -2       561       597      4112       553
 -1     20227    3    0    3
 -2       597       561      4112      4090
 -1     20228    3    0    3
 -2      5077      3950      4484      5080
 -1     20229    3    0    3
 -2      4119      3208      3207      3206
 -1     20230    3    0    3
 -2      4840      4137      4839      5687
 -1     20231    3    0    3
 -2      1991      5914      1992      5017
 -1     20232    3    0    3
 -2      4059      5685      6185      6257
 -1     20233    3    0    3
 -2      1968      2155      2156      5679
 -1     20234    3    0    3
 -2      3791       589      4177      5638
 -1     20235    3    0    3
 -2      3675      6222      3729      4874
 -1     20236    3    0    3
 -2      2480      2469      2707      5712
 -1     20237    3    0    3
 -2        34       781        33       593
 -1     20238    3    0    3
 -2      4113      4335      3463      5076
 -1     20239    3    0    3
 -2      3791      5638      5073      3816
 -1     20240    3    0    3
 -2      3643      5643      5640      4177
 -1     20241    3    0    3
 -2      1809      1919      1980      5701
 -1     20242    3    0    3
 -2       589      3776      4177      5638
 -1     20243    3    0    3
 -2      2773      4462      4262      4844
 -1     20244    3    0    3
 -2      4462      2773      5404      4844
 -1     20245    3    0    3
 -2      4845      4433      4462      4846
 -1     20246    3    0    3
 -2      3643      5595      5596      4335
 -1     20247    3    0    3
 -2      5643      4050      5641      3643
 -1     20248    3    0    3
 -2      4827      2734      1810      2733
 -1     20249    3    0    3
 -2      4326      5640      3643      5702
 -1     20250    3    0    3
 -2       620      3950      3765      3735
 -1     20251    3    0    3
 -2      5638      5640      3643      4326
 -1     20252    3    0    3
 -2       620      3950       637       619
 -1     20253    3    0    3
 -2      5595      1032      4326      5702
 -1     20254    3    0    3
 -2      4326      3643      5595      5702
 -1     20255    3    0    3
 -2      3866      5685      4847      5410
 -1     20256    3    0    3
 -2      5390      2776      3521      2782
 -1     20257    3    0    3
 -2      4827      4222      3663      3876
 -1     20258    3    0    3
 -2      4841      3736      4262      4842
 -1     20259    3    0    3
 -2      4450       518       633       632
 -1     20260    3    0    3
 -2      2740      2736      4828      2735
 -1     20261    3    0    3
 -2      2164      3880      4973      2093
 -1     20262    3    0    3
 -2      5643       781      5640       593
 -1     20263    3    0    3
 -2      3776      5640      4177      5638
 -1     20264    3    0    3
 -2      4830      2768      2740      3989
 -1     20265    3    0    3
 -2      5402      5396      5858      3959
 -1     20266    3    0    3
 -2       820      3920      5409      5408
 -1     20267    3    0    3
 -2      4839      4222      3663      4020
 -1     20268    3    0    3
 -2      5404      4462      4844      3955
 -1     20269    3    0    3
 -2      4833      4839      4020      4222
 -1     20270    3    0    3
 -2       601       728       762      5509
 -1     20271    3    0    3
 -2       782        35       853      5639
 -1     20272    3    0    3
 -2      2760      6216      2756      2750
 -1     20273    3    0    3
 -2        36       519      5636       518
 -1     20274    3    0    3
 -2       782        34        35       596
 -1     20275    3    0    3
 -2      4195      3955      4844      3736
 -1     20276    3    0    3
 -2      5637      4450      3776      5639
 -1     20277    3    0    3
 -2      1908      4841      1905      3520
 -1     20278    3    0    3
 -2      4450      5637      3946      5639
 -1     20279    3    0    3
 -2      4840      3868      4848      3902
 -1     20280    3    0    3
 -2      4128      3590      3930      5405
 -1     20281    3    0    3
 -2      2096      2649      6259      2531
 -1     20282    3    0    3
 -2      1908      1976      2112      3520
 -1     20283    3    0    3
 -2      6222      2314      6772      2481
 -1     20284    3    0    3
 -2      4827      4222      3825      4829
 -1     20285    3    0    3
 -2      4222      4827      3663      4829
 -1     20286    3    0    3
 -2      6161      6099      6229      4042
 -1     20287    3    0    3
 -2      4242      4283      4436      5402
 -1     20288    3    0    3
 -2      3989      3898      3955      4518
 -1     20289    3    0    3
 -2      4971      3397      3344      4966
 -1     20290    3    0    3
 -2      5389      4020      4049      6072
 -1     20291    3    0    3
 -2      3959      3993      5396      5397
 -1     20292    3    0    3
 -2      5638       589      3776      3816
 -1     20293    3    0    3
 -2      4845      4262      3736      4842
 -1     20294    3    0    3
 -2      4828      3663      4830      4195
 -1     20295    3    0    3
 -2      2717      1976      2122      5687
 -1     20296    3    0    3
 -2      4842      4262      4843      3569
 -1     20297    3    0    3
 -2       534      4387       582       610
 -1     20298    3    0    3
 -2      3651      2754      2726      2731
 -1     20299    3    0    3
 -2      4828      4829      4830      3663
 -1     20300    3    0    3
 -2      4283      3590      3955      5402
 -1     20301    3    0    3
 -2      4843      4035      4842      3569
 -1     20302    3    0    3
 -2      4195      3663      4830      3989
 -1     20303    3    0    3
 -2      4830      2736      4828      2740
 -1     20304    3    0    3
 -2      2742      4195      4844      2741
 -1     20305    3    0    3
 -2      3876      4841      1908      3520
 -1     20306    3    0    3
 -2      3938      5629      5630      4473
 -1     20307    3    0    3
 -2      3898      3955      5404      3989
 -1     20308    3    0    3
 -2      4177      5643      5640       593
 -1     20309    3    0    3
 -2      1905      1976      1908      3520
 -1     20310    3    0    3
 -2      2744      2773      4262      2741
 -1     20311    3    0    3
 -2      3930      4137      4845      3955
 -1     20312    3    0    3
 -2      4137      3930      4839      3955
 -1     20313    3    0    3
 -2      2768      2736      4830      2740
 -1     20314    3    0    3
 -2      4841      4262      4844      2741
 -1     20315    3    0    3
 -2      2741      2773      4844      2742
 -1     20316    3    0    3
 -2      4997      4388      5564      4413
 -1     20317    3    0    3
 -2      5639        35       853       518
 -1     20318    3    0    3
 -2      5639       853      5636       518
 -1     20319    3    0    3
 -2      5636      4450      5639       518
 -1     20320    3    0    3
 -2      4846      2744      2732      2745
 -1     20321    3    0    3
 -2      3955      3663      4839      4195
 -1     20322    3    0    3
 -2      4450       519      4086       633
 -1     20323    3    0    3
 -2      3955      4195      4844      3989
 -1     20324    3    0    3
 -2      4833      4839      3959      4020
 -1     20325    3    0    3
 -2      4113      4335      4313      5029
 -1     20326    3    0    3
 -2      4828      4830      2740      4195
 -1     20327    3    0    3
 -2      5023      5902      5733      4267
 -1     20328    3    0    3
 -2      3955      4845      4844      3736
 -1     20329    3    0    3
 -2      4839      4137      3955      3736
 -1     20330    3    0    3
 -2      3955      4137      4845      3736
 -1     20331    3    0    3
 -2      4842      4845      4262      3569
 -1     20332    3    0    3
 -2      6051      4152      3225      3702
 -1     20333    3    0    3
 -2      3736      4262      4844      4841
 -1     20334    3    0    3
 -2      4844      4195      3736      4841
 -1     20335    3    0    3
 -2      6185      2096      6259      2531
 -1     20336    3    0    3
 -2      6362      4417      5742      5593
 -1     20337    3    0    3
 -2      4035      2122      1905      4842
 -1     20338    3    0    3
 -2      1905      4841      4842      3520
 -1     20339    3    0    3
 -2      1150      6329      5742      5595
 -1     20340    3    0    3
 -2      3481      3950      5078       630
 -1     20341    3    0    3
 -2      5687      3736      4137      4839
 -1     20342    3    0    3
 -2      4177      3791      5641       590
 -1     20343    3    0    3
 -2      6051      4152      3702      5278
 -1     20344    3    0    3
 -2      5687      3736      3520      4842
 -1     20345    3    0    3
 -2      4018      3953      3990      5294
 -1     20346    3    0    3
 -2      3471      5641      3765       590
 -1     20347    3    0    3
 -2       629       606      3938      3909
 -1     20348    3    0    3
 -2      1760        75        74       592
 -1     20349    3    0    3
 -2       589       596      3776       632
 -1     20350    3    0    3
 -2       596      4177       593       589
 -1     20351    3    0    3
 -2      4050      4414      5644      5642
 -1     20352    3    0    3
 -2      1685      1682      1673      3648
 -1     20353    3    0    3
 -2      3879      3471      5644      5642
 -1     20354    3    0    3
 -2      2753      3825      2736      2752
 -1     20355    3    0    3
 -2      4177      3471       593       590
 -1     20356    3    0    3
 -2       589      4177       593       590
 -1     20357    3    0    3
 -2      6662      6216      5747      6665
 -1     20358    3    0    3
 -2       394      2749      1731      6665
 -1     20359    3    0    3
 -2      1931      1798      1825      5075
 -1     20360    3    0    3
 -2      4006      5074       583      5071
 -1     20361    3    0    3
 -2      4839      3959      4840      6234
 -1     20362    3    0    3
 -2      4971      3435      3344      3397
 -1     20363    3    0    3
 -2      5701      6211      4826      6664
 -1     20364    3    0    3
 -2      5637      4450      3946      5634
 -1     20365    3    0    3
 -2       592      3601      4006      5071
 -1     20366    3    0    3
 -2       592       511      3601      5070
 -1     20367    3    0    3
 -2      3729      6772      4880      3699
 -1     20368    3    0    3
 -2      5646      3705      5645      4259
 -1     20369    3    0    3
 -2      6751      2750      6216      2760
 -1     20370    3    0    3
 -2      4266       594       603       637
 -1     20371    3    0    3
 -2      5076      4113      4313      5077
 -1     20372    3    0    3
 -2      4335      4050      3643      5641
 -1     20373    3    0    3
 -2      3879      5642      5645      3735
 -1     20374    3    0    3
 -2       575      3847      5069      3878
 -1     20375    3    0    3
 -2      3816       632      5637      3847
 -1     20376    3    0    3
 -2      5634      5069      4388      3847
 -1     20377    3    0    3
 -2      3989      2768      2742      2774
 -1     20378    3    0    3
 -2      5634      5637      4450      3847
 -1     20379    3    0    3
 -2      4450       633      5634      3847
 -1     20380    3    0    3
 -2      4388      5637      5634      3847
 -1     20381    3    0    3
 -2      3643      5641      4177      5638
 -1     20382    3    0    3
 -2      5906      2620      5020      2642
 -1     20383    3    0    3
 -2      4362      5595      3946      4326
 -1     20384    3    0    3
 -2      1032       973      5595      4326
 -1     20385    3    0    3
 -2      5083      1786      3507      1678
 -1     20386    3    0    3
 -2      5648      4266      3742      5646
 -1     20387    3    0    3
 -2      3705      4266       594      5646
 -1     20388    3    0    3
 -2      5390      2776      2782      2777
 -1     20389    3    0    3
 -2      1671       707       257      1670
 -1     20390    3    0    3
 -2      4826      3825      4020      4049
 -1     20391    3    0    3
 -2       594       549      4266       603
 -1     20392    3    0    3
 -2       662      3033      3080      6507
 -1     20393    3    0    3
 -2      4068      5069      3523      5067
 -1     20394    3    0    3
 -2      2241      5769      4992      2296
 -1     20395    3    0    3
 -2       846      2770       779      5393
 -1     20396    3    0    3
 -2      2760      3825      4826      4049
 -1     20397    3    0    3
 -2      3735      4266      3705      5645
 -1     20398    3    0    3
 -2      4417      5562      5593      4447
 -1     20399    3    0    3
 -2      5595      3946      5564      4388
 -1     20400    3    0    3
 -2      4335      5029      5028      4364
 -1     20401    3    0    3
 -2      4113      4289      4484      5029
 -1     20402    3    0    3
 -2      5640       973      1032      4326
 -1     20403    3    0    3
 -2      5765      5596      1178      5783
 -1     20404    3    0    3
 -2      5595      3643      5596      5702
 -1     20405    3    0    3
 -2      4362      5638      3643      4326
 -1     20406    3    0    3
 -2      3643      5595      4362      4326
 -1     20407    3    0    3
 -2      4068      3601      5070      5072
 -1     20408    3    0    3
 -2      5599      4261      4144      4235
 -1     20409    3    0    3
 -2      2607      5027      2345      5735
 -1     20410    3    0    3
 -2      4235      4513      4144      5649
 -1     20411    3    0    3
 -2      5642      4414      3879      5645
 -1     20412    3    0    3
 -2      4414      5647      3879      5645
 -1     20413    3    0    3
 -2      5647      4266      3879      5645
 -1     20414    3    0    3
 -2      3742      4266      5647      5645
 -1     20415    3    0    3
 -2      3742      5647      4414      5645
 -1     20416    3    0    3
 -2      2478      4879      5672      6711
 -1     20417    3    0    3
 -2      4211      5085      5650      3648
 -1     20418    3    0    3
 -2      4235      5646      3742      4259
 -1     20419    3    0    3
 -2      5651      3573      4144      5649
 -1     20420    3    0    3
 -2      3573      5648      5651      4144
 -1     20421    3    0    3
 -2      3679      5646      4235      5081
 -1     20422    3    0    3
 -2       846      2770      2723       248
 -1     20423    3    0    3
 -2      5648       987       954      5693
 -1     20424    3    0    3
 -2      5646      3742      4144      4235
 -1     20425    3    0    3
 -2      4211      4004      5085      5084
 -1     20426    3    0    3
 -2      3481       637      3950       619
 -1     20427    3    0    3
 -2       546      3879       577       603
 -1     20428    3    0    3
 -2      1931      1930      5078      1825
 -1     20429    3    0    3
 -2       590      3471       546       620
 -1     20430    3    0    3
 -2       601       728      5509       547
 -1     20431    3    0    3
 -2      1150      6329      5595       973
 -1     20432    3    0    3
 -2      4266      3705       594       637
 -1     20433    3    0    3
 -2      3735      4266       637      3705
 -1     20434    3    0    3
 -2      4436      3933      4020      5390
 -1     20435    3    0    3
 -2      2814      5715      2830       289
 -1     20436    3    0    3
 -2      5023      5902      4267      5025
 -1     20437    3    0    3
 -2      2784      2766      3521      2739
 -1     20438    3    0    3
 -2      2814      5715       289      6690
 -1     20439    3    0    3
 -2      1675      6773      1693      5037
 -1     20440    3    0    3
 -2       650      5666       987      5647
 -1     20441    3    0    3
 -2      2814      5715      4189      2830
 -1     20442    3    0    3
 -2      2571      4995      6723      2383
 -1     20443    3    0    3
 -2      3791      4006       615       591
 -1     20444    3    0    3
 -2      1798        73        72       631
 -1     20445    3    0    3
 -2      5081      4429      4235      5084
 -1     20446    3    0    3
 -2      4977      4976      3715      3749
 -1     20447    3    0    3
 -2      4513      3983      5651      5649
 -1     20448    3    0    3
 -2      3742      4144      5599      5693
 -1     20449    3    0    3
 -2      4513      5600      3624      3838
 -1     20450    3    0    3
 -2      4235      4004      4211      5084
 -1     20451    3    0    3
 -2      1671      1670      1672      5652
 -1     20452    3    0    3
 -2      4144      5646      4235      5649
 -1     20453    3    0    3
 -2      5646      5648      4266      3573
 -1     20454    3    0    3
 -2      1692      1671      1672      5652
 -1     20455    3    0    3
 -2      3742      5648      5646      4144
 -1     20456    3    0    3
 -2      1672      5652      3838      5650
 -1     20457    3    0    3
 -2      5646      3679      4235      5649
 -1     20458    3    0    3
 -2      1681      1682      4501       107
 -1     20459    3    0    3
 -2      5652      1672      3983      5650
 -1     20460    3    0    3
 -2      5082      2069      2087      6688
 -1     20461    3    0    3
 -2      4501      1682      5085      3648
 -1     20462    3    0    3
 -2      3679      5646      3573      5649
 -1     20463    3    0    3
 -2       110       549      5648      3573
 -1     20464    3    0    3
 -2      5648       549      4266      3573
 -1     20465    3    0    3
 -2       594       549       109      3573
 -1     20466    3    0    3
 -2       549       594      4266      3573
 -1     20467    3    0    3
 -2      5646      4266       594      3573
 -1     20468    3    0    3
 -2       109      3679       594      3573
 -1     20469    3    0    3
 -2      5646       594      3679      3573
 -1     20470    3    0    3
 -2      5650      5649      4513      4211
 -1     20471    3    0    3
 -2      1678      5083      1679      1695
 -1     20472    3    0    3
 -2      4376      5083      1678      1695
 -1     20473    3    0    3
 -2      1517      5759      1602      1270
 -1     20474    3    0    3
 -2       810       110       800      5651
 -1     20475    3    0    3
 -2      4144      4261      5600      4235
 -1     20476    3    0    3
 -2      3838      1690      5604      5663
 -1     20477    3    0    3
 -2      4211      5650      5649      3648
 -1     20478    3    0    3
 -2      5651      3983      3573      5649
 -1     20479    3    0    3
 -2       810      5651      5652      5665
 -1     20480    3    0    3
 -2       577      4266       549       603
 -1     20481    3    0    3
 -2      5651      3657       810      5652
 -1     20482    3    0    3
 -2       810      3657       809      5652
 -1     20483    3    0    3
 -2      4235      5600      4513      4211
 -1     20484    3    0    3
 -2      1685      1673      1672      5650
 -1     20485    3    0    3
 -2      1676      1689      5604      1690
 -1     20486    3    0    3
 -2      5577      1473      5571      6763
 -1     20487    3    0    3
 -2      3983      1672      1673      5650
 -1     20488    3    0    3
 -2      4341      5734      5594      5597
 -1     20489    3    0    3
 -2      5652      3657      3624      4513
 -1     20490    3    0    3
 -2      3657      5600      3624      4513
 -1     20491    3    0    3
 -2      4513      3657      5600      4144
 -1     20492    3    0    3
 -2      4513      5651      3657      4144
 -1     20493    3    0    3
 -2      1685      5650      5085      3648
 -1     20494    3    0    3
 -2      5022      2307      5023      6696
 -1     20495    3    0    3
 -2      5855      4398      4349      5012
 -1     20496    3    0    3
 -2      3838      1670      1672      1690
 -1     20497    3    0    3
 -2      5023      5902      5025      2274
 -1     20498    3    0    3
 -2      5600      4513      4144      4235
 -1     20499    3    0    3
 -2      5649      4235      4513      4211
 -1     20500    3    0    3
 -2      1778      2069      2087      5082
 -1     20501    3    0    3
 -2      1676      1686      1690      4186
 -1     20502    3    0    3
 -2      5855      4398      5022      4349
 -1     20503    3    0    3
 -2      1690      3838      5604      4186
 -1     20504    3    0    3
 -2      2264      6676      6058      2325
 -1     20505    3    0    3
 -2      4839      4840      5687      6234
 -1     20506    3    0    3
 -2      2713      2480      2707      5653
 -1     20507    3    0    3
 -2      5604      1676      1690      4186
 -1     20508    3    0    3
 -2      5085      4376      5083      4004
 -1     20509    3    0    3
 -2      2836       380      2868      6682
 -1     20510    3    0    3
 -2      4189      2815      2816      2838
 -1     20511    3    0    3
 -2      5036      5603      4240      4214
 -1     20512    3    0    3
 -2      4186      3838      4513      5650
 -1     20513    3    0    3
 -2      3838      5652      4513      5650
 -1     20514    3    0    3
 -2      4513      4186      5650      4211
 -1     20515    3    0    3
 -2      5652      3983      4513      5650
 -1     20516    3    0    3
 -2      5650      1686      5085      4186
 -1     20517    3    0    3
 -2      2307      5022      5023      5855
 -1     20518    3    0    3
 -2      5715      5603      5036      5728
 -1     20519    3    0    3
 -2      1685      1672      1686      5650
 -1     20520    3    0    3
 -2      3507      5082      1779      5083
 -1     20521    3    0    3
 -2      2654      5912      2499      5916
 -1     20522    3    0    3
 -2      5715      5603      5728      6690
 -1     20523    3    0    3
 -2      5715      5603      6690      5918
 -1     20524    3    0    3
 -2      1690      1689      5604      1683
 -1     20525    3    0    3
 -2      5604      1689      1691      1683
 -1     20526    3    0    3
 -2      5085      1695      1685      1682
 -1     20527    3    0    3
 -2      5717      1824      1785      3507
 -1     20528    3    0    3
 -2      4186      4513      5600      4211
 -1     20529    3    0    3
 -2      1686      5650      5085      1685
 -1     20530    3    0    3
 -2      5600      4261      4214      5033
 -1     20531    3    0    3
 -2      3624      3838      1670      5652
 -1     20532    3    0    3
 -2      1695      1685      1686      5085
 -1     20533    3    0    3
 -2      3838      3624      1670      5663
 -1     20534    3    0    3
 -2      1678      4376      1695      1674
 -1     20535    3    0    3
 -2      1695      4376      1686      1674
 -1     20536    3    0    3
 -2      4321      4398      4369      5589
 -1     20537    3    0    3
 -2      4321      4398      5022      4369
 -1     20538    3    0    3
 -2      2095      2277      2372      5725
 -1     20539    3    0    3
 -2       108      3679       109      3648
 -1     20540    3    0    3
 -2      1681      4501       106       107
 -1     20541    3    0    3
 -2      1695      5083      1679      1681
 -1     20542    3    0    3
 -2      5083      1695      5085      4501
 -1     20543    3    0    3
 -2      1785      5717      6702      6773
 -1     20544    3    0    3
 -2       285      1679      1779       286
 -1     20545    3    0    3
 -2      3679      4501      5084      3648
 -1     20546    3    0    3
 -2       810       954      3657      5651
 -1     20547    3    0    3
 -2      1769      4828      3876      1811
 -1     20548    3    0    3
 -2      3513      5957      5346      5947
 -1     20549    3    0    3
 -2      5025      2274      5902      2187
 -1     20550    3    0    3
 -2      5760      1679      1681       286
 -1     20551    3    0    3
 -2      1823      2102      2103      6330
 -1     20552    3    0    3
 -2      3199      3678      3276      3258
 -1     20553    3    0    3
 -2      2853      5930      5937      2874
 -1     20554    3    0    3
 -2      4004      5083      4501      5082
 -1     20555    3    0    3
 -2       954       810      3657      1005
 -1     20556    3    0    3
 -2      5739      5727      5668      5037
 -1     20557    3    0    3
 -2      4406      6637      6331      5570
 -1     20558    3    0    3
 -2      4062      3481      5081      5080
 -1     20559    3    0    3
 -2      6331      4406      6337      5581
 -1     20560    3    0    3
 -2      1679       285      1779      1786
 -1     20561    3    0    3
 -2      1678       285      1679      1786
 -1     20562    3    0    3
 -2      6702       283      1693       284
 -1     20563    3    0    3
 -2      5725      5036      5031      5739
 -1     20564    3    0    3
 -2       284       285      1678      1786
 -1     20565    3    0    3
 -2      6702       283      1785      6773
 -1     20566    3    0    3
 -2      1786      3507      1678      6702
 -1     20567    3    0    3
 -2       284      1678      1693      6702
 -1     20568    3    0    3
 -2      1678      3507      4376      6702
 -1     20569    3    0    3
 -2      1678       284      1786      6702
 -1     20570    3    0    3
 -2       283      5718      6773      1694
 -1     20571    3    0    3
 -2      4335      4170      4362      5028
 -1     20572    3    0    3
 -2      1674      1678      4376      6702
 -1     20573    3    0    3
 -2      5085      4186      4376      4004
 -1     20574    3    0    3
 -2      5918      6330      5715      5036
 -1     20575    3    0    3
 -2      2095      2100      1709      6774
 -1     20576    3    0    3
 -2      1955      1865      2100      5717
 -1     20577    3    0    3
 -2      3679      3705      5646      5081
 -1     20578    3    0    3
 -2      1687      5037      5713      6773
 -1     20579    3    0    3
 -2      5722      2871      6679      6686
 -1     20580    3    0    3
 -2       282        13      1709       287
 -1     20581    3    0    3
 -2      3679      4501      3890      5084
 -1     20582    3    0    3
 -2      5009      4398      5019      5912
 -1     20583    3    0    3
 -2      2859      1820      1728       376
 -1     20584    3    0    3
 -2      5739      5677      2372      6730
 -1     20585    3    0    3
 -2      5738      5033      5032      6688
 -1     20586    3    0    3
 -2      5033      4261      5031      5677
 -1     20587    3    0    3
 -2      6774      5037      5717      6773
 -1     20588    3    0    3
 -2      2109      2274      2187      5902
 -1     20589    3    0    3
 -2      5034      2054      1833      5733
 -1     20590    3    0    3
 -2      2054      1833      1818      5034
 -1     20591    3    0    3
 -2      5717      1785      1865      6773
 -1     20592    3    0    3
 -2      5713       287      1687      5718
 -1     20593    3    0    3
 -2      1823       380      1821      6682
 -1     20594    3    0    3
 -2      2868      2840      2837      5823
 -1     20595    3    0    3
 -2      2109      2054      2274      5733
 -1     20596    3    0    3
 -2      2816      2814      4189      2830
 -1     20597    3    0    3
 -2      5722      5732      2831      6797
 -1     20598    3    0    3
 -2      3679      4501       107      3890
 -1     20599    3    0    3
 -2      2380      5031      5030      5677
 -1     20600    3    0    3
 -2      3507      5082      5083      4004
 -1     20601    3    0    3
 -2      2867      2838      2831      6797
 -1     20602    3    0    3
 -2      5715      2830      2840      5823
 -1     20603    3    0    3
 -2      1710        13       381       287
 -1     20604    3    0    3
 -2      2830      2840       288      5715
 -1     20605    3    0    3
 -2      5079      1825      1930      1822
 -1     20606    3    0    3
 -2      5031      5036      4214      5739
 -1     20607    3    0    3
 -2      4261      5031      5598      4214
 -1     20608    3    0    3
 -2       288      1688       289      5713
 -1     20609    3    0    3
 -2      1694       283      1693      6773
 -1     20610    3    0    3
 -2       283      1865      1785      6773
 -1     20611    3    0    3
 -2      4335      4170      3463      5073
 -1     20612    3    0    3
 -2      5031      5033      5677      5739
 -1     20613    3    0    3
 -2      5713      1688       289      5728
 -1     20614    3    0    3
 -2       287      1687       288      5713
 -1     20615    3    0    3
 -2      1098       867      1375      5730
 -1     20616    3    0    3
 -2      1694      1687       282      5718
 -1     20617    3    0    3
 -2      5656      5604      5662      5776
 -1     20618    3    0    3
 -2      3520      6234      3876      4839
 -1     20619    3    0    3
 -2      4222      5712      6234      1970
 -1     20620    3    0    3
 -2      5600      3838      4186      5662
 -1     20621    3    0    3
 -2      1811      4828      2733       390
 -1     20622    3    0    3
 -2      1150      5742      1320      6362
 -1     20623    3    0    3
 -2      5718      1694      1687      6773
 -1     20624    3    0    3
 -2      6702      5037      1693      6773
 -1     20625    3    0    3
 -2      1785      1865      1955      5717
 -1     20626    3    0    3
 -2      5036      5716      5918      6330
 -1     20627    3    0    3
 -2      4335      4170      5028      3463
 -1     20628    3    0    3
 -2      5716      4240      5036      5918
 -1     20629    3    0    3
 -2      2816      4189      2837      2830
 -1     20630    3    0    3
 -2      3520      6234      4839      5687
 -1     20631    3    0    3
 -2      5079      1825      1822       630
 -1     20632    3    0    3
 -2      1970      3876      4827      1811
 -1     20633    3    0    3
 -2      1970      4827      1810      1811
 -1     20634    3    0    3
 -2      4827      4828      2733      1811
 -1     20635    3    0    3
 -2      1810      4827      2733      1811
 -1     20636    3    0    3
 -2      4828      2735      2733       390
 -1     20637    3    0    3
 -2       380      2836      1821      6682
 -1     20638    3    0    3
 -2      1710      2103      2095      6330
 -1     20639    3    0    3
 -2        74      5071       592       583
 -1     20640    3    0    3
 -2      1908      4828      3876      1769
 -1     20641    3    0    3
 -2      4450       519       518      5636
 -1     20642    3    0    3
 -2      2742      4195      3989      4844
 -1     20643    3    0    3
 -2      3876      1908      2112      3520
 -1     20644    3    0    3
 -2      5079       630      3481      5078
 -1     20645    3    0    3
 -2      6023      2638      4794      6025
 -1     20646    3    0    3
 -2      4450       519       633       518
 -1     20647    3    0    3
 -2      6690      5602      4189      5918
 -1     20648    3    0    3
 -2      1833      2054      2109      5733
 -1     20649    3    0    3
 -2      4316      6718      4261      5597
 -1     20650    3    0    3
 -2      2029      2112      3876      1769
 -1     20651    3    0    3
 -2      1908      3876      2112      1769
 -1     20652    3    0    3
 -2      2261      2065      2011      5752
 -1     20653    3    0    3
 -2       987       878      1169      5666
 -1     20654    3    0    3
 -2      5666      1169      5599      5765
 -1     20655    3    0    3
 -2      2433      6801      2491      5684
 -1     20656    3    0    3
 -2      2734       392      1810       391
 -1     20657    3    0    3
 -2      5030      4261      5597      4316
 -1     20658    3    0    3
 -2      5033      2253      2069      6688
 -1     20659    3    0    3
 -2      1769      1908      4828       389
 -1     20660    3    0    3
 -2      4841      4844      4195      2741
 -1     20661    3    0    3
 -2      2155      5675      4851      5676
 -1     20662    3    0    3
 -2      5081      3481      3705      5080
 -1     20663    3    0    3
 -2      5646      5645      3742      4259
 -1     20664    3    0    3
 -2      2380      2253      2372      5677
 -1     20665    3    0    3
 -2      4841      1908      1905       388
 -1     20666    3    0    3
 -2      2703      5007      2698      2653
 -1     20667    3    0    3
 -2      5032      4235      4062      4429
 -1     20668    3    0    3
 -2      4850      3830      5413      5685
 -1     20669    3    0    3
 -2      2249      2248      2345      5736
 -1     20670    3    0    3
 -2      2263      2253      2310      5738
 -1     20671    3    0    3
 -2       639      5271      2999       822
 -1     20672    3    0    3
 -2      1325      6619      6765      5593
 -1     20673    3    0    3
 -2       615      4006       583       591
 -1     20674    3    0    3
 -2      5074        73       583      1797
 -1     20675    3    0    3
 -2      5593      5026      4393      4364
 -1     20676    3    0    3
 -2      1811      1769      4828       390
 -1     20677    3    0    3
 -2       381       287      6330      1710
 -1     20678    3    0    3
 -2      5027      4393      5021      5906
 -1     20679    3    0    3
 -2      2308      5022      2307      2500
 -1     20680    3    0    3
 -2      5079      4429      5082      6688
 -1     20681    3    0    3
 -2      4113      1931      5029      5709
 -1     20682    3    0    3
 -2      1865      5717      6773      6774
 -1     20683    3    0    3
 -2      5739      5668      5033      6730
 -1     20684    3    0    3
 -2      6702      5717      5037      6773
 -1     20685    3    0    3
 -2      1709      5713       287      1710
 -1     20686    3    0    3
 -2      5937      2853      2873      6755
 -1     20687    3    0    3
 -2      4235      3742      5599      4259
 -1     20688    3    0    3
 -2      4484      4113      5029      5709
 -1     20689    3    0    3
 -2      5081      4259      4062      5080
 -1     20690    3    0    3
 -2      5078      1931      1825      5075
 -1     20691    3    0    3
 -2      5588      4369      4341      5021
 -1     20692    3    0    3
 -2      5597      4293      5030      4341
 -1     20693    3    0    3
 -2      5591      4293      5597      4341
 -1     20694    3    0    3
 -2      5838      5413      5841      3848
 -1     20695    3    0    3
 -2      4316      5596      5599      5765
 -1     20696    3    0    3
 -2      2164      3880      5778      4973
 -1     20697    3    0    3
 -2      3507      4376      5033      4004
 -1     20698    3    0    3
 -2      4376      3507      5083      4004
 -1     20699    3    0    3
 -2      5600      4235      5033      4211
 -1     20700    3    0    3
 -2      5033      4186      5600      4211
 -1     20701    3    0    3
 -2      4004      5033      4235      4211
 -1     20702    3    0    3
 -2      4186      5033      4004      4211
 -1     20703    3    0    3
 -2      5649      4211      3648      5084
 -1     20704    3    0    3
 -2      3679      5649      3648      5084
 -1     20705    3    0    3
 -2      4259      4235      4062      5032
 -1     20706    3    0    3
 -2      5642      5641      4050      4313
 -1     20707    3    0    3
 -2      1822       106      5079       595
 -1     20708    3    0    3
 -2      6678      1929      4825      1997
 -1     20709    3    0    3
 -2      2380      2310      2253      5677
 -1     20710    3    0    3
 -2      4414      3742      5645      4259
 -1     20711    3    0    3
 -2      3742      4414      5599      4259
 -1     20712    3    0    3
 -2       936      6491      5156       996
 -1     20713    3    0    3
 -2      5033      4004      4235      4429
 -1     20714    3    0    3
 -2      3735      5642      5645      4289
 -1     20715    3    0    3
 -2      5064       635      3719      3938
 -1     20716    3    0    3
 -2      4828      4829      4827      2736
 -1     20717    3    0    3
 -2      5645      4414      4259      4289
 -1     20718    3    0    3
 -2      5645      5642      4414      4289
 -1     20719    3    0    3
 -2      4195      3876      3663      4839
 -1     20720    3    0    3
 -2      4259      4414      5599      4289
 -1     20721    3    0    3
 -2      3830      4850      5413      3804
 -1     20722    3    0    3
 -2      5029      1931      2249      5709
 -1     20723    3    0    3
 -2      1931      2248      2249      5709
 -1     20724    3    0    3
 -2      4062      1930      5078      5709
 -1     20725    3    0    3
 -2      4484      5075      4113      5709
 -1     20726    3    0    3
 -2      4259      4062      4289      5032
 -1     20727    3    0    3
 -2      4593      3076      6494      6651
 -1     20728    3    0    3
 -2      4406      6637      5570      4378
 -1     20729    3    0    3
 -2      5058        81      1877      1803
 -1     20730    3    0    3
 -2      4316      4261      5599      5032
 -1     20731    3    0    3
 -2      4484      4289      4062      5032
 -1     20732    3    0    3
 -2      4323      5849      4299      5017
 -1     20733    3    0    3
 -2      4369      5803      5719      5022
 -1     20734    3    0    3
 -2      5596      1102      1178      5783
 -1     20735    3    0    3
 -2      4362      5028      5595      4335
 -1     20736    3    0    3
 -2      4316      6718      5597      5765
 -1     20737    3    0    3
 -2      3199      3678      1788      3592
 -1     20738    3    0    3
 -2      5081      3679      3890      5084
 -1     20739    3    0    3
 -2      1687      5037      6773      1675
 -1     20740    3    0    3
 -2      5675      2155      4851      5679
 -1     20741    3    0    3
 -2      3199      3678      3258      1788
 -1     20742    3    0    3
 -2      2261      2011      5029      5752
 -1     20743    3    0    3
 -2      4417      5595      5028      4364
 -1     20744    3    0    3
 -2      4335      5028      5595      4364
 -1     20745    3    0    3
 -2      2571      4995      5764      6723
 -1     20746    3    0    3
 -2      3735      3950      3765      5077
 -1     20747    3    0    3
 -2       619      3481       637       574
 -1     20748    3    0    3
 -2      5082      3890      4501      5084
 -1     20749    3    0    3
 -2      2011      2249      2261      5029
 -1     20750    3    0    3
 -2      4050      5596      4289      4313
 -1     20751    3    0    3
 -2      5596      4316      4289      5029
 -1     20752    3    0    3
 -2      4906      2779      3866      2726
 -1     20753    3    0    3
 -2      5638      3643      5641      4335
 -1     20754    3    0    3
 -2       389      1908      4828      2748
 -1     20755    3    0    3
 -2      2744      2732      4843      4846
 -1     20756    3    0    3
 -2      4828      2735       389      2748
 -1     20757    3    0    3
 -2       388      4841      1908      2748
 -1     20758    3    0    3
 -2      4289      5642      4050      4313
 -1     20759    3    0    3
 -2      3732      2763      2724      2769
 -1     20760    3    0    3
 -2      5638      4362      3643      4335
 -1     20761    3    0    3
 -2      4195      4828      4841      2748
 -1     20762    3    0    3
 -2       632      5637      3776      3816
 -1     20763    3    0    3
 -2      4280      3651      4843      2731
 -1     20764    3    0    3
 -2       505        77       504      5066
 -1     20765    3    0    3
 -2      5068      3909      5065      4117
 -1     20766    3    0    3
 -2      5637      3946      4362      4388
 -1     20767    3    0    3
 -2      3946      5637      5634      4388
 -1     20768    3    0    3
 -2      5066      3666      5067      4223
 -1     20769    3    0    3
 -2      5070      3523      4068      5072
 -1     20770    3    0    3
 -2       632      4450      5637      3847
 -1     20771    3    0    3
 -2      3537      3946      5634      4388
 -1     20772    3    0    3
 -2      3537      5564      3946      4388
 -1     20773    3    0    3
 -2      4997      3583      4223      4413
 -1     20774    3    0    3
 -2      1132      6393      1387      6486
 -1     20775    3    0    3
 -2      4289      5596      5029      4313
 -1     20776    3    0    3
 -2      5029      4113      4289      4313
 -1     20777    3    0    3
 -2      3791      5076      5073      4335
 -1     20778    3    0    3
 -2      5076      3791      5641      4335
 -1     20779    3    0    3
 -2      2465      5899      2466      2703
 -1     20780    3    0    3
 -2      4313      5076      5641      4335
 -1     20781    3    0    3
 -2      5641      3791      5638      4335
 -1     20782    3    0    3
 -2      5638      3791      5073      4335
 -1     20783    3    0    3
 -2      5716      4293      5031      4240
 -1     20784    3    0    3
 -2      4364      4393      5594      5027
 -1     20785    3    0    3
 -2      5746      4393      5906      5020
 -1     20786    3    0    3
 -2      2369      2249      5027      5745
 -1     20787    3    0    3
 -2      5593      4417      5026      4364
 -1     20788    3    0    3
 -2      4195      3876      4828      3663
 -1     20789    3    0    3
 -2      4827      2734      2733      3825
 -1     20790    3    0    3
 -2      2248      1931      1930      5709
 -1     20791    3    0    3
 -2      4417      5028      5026      4364
 -1     20792    3    0    3
 -2      6555      1568      6122      1565
 -1     20793    3    0    3
 -2      5562      5564      4417      5742
 -1     20794    3    0    3
 -2      6050      2720      6216      2725
 -1     20795    3    0    3
 -2      2404      5026      2417      2262
 -1     20796    3    0    3
 -2      2071      5028      2181      5763
 -1     20797    3    0    3
 -2      1668      1604      1669      6710
 -1     20798    3    0    3
 -2      5587      5556      5743      6710
 -1     20799    3    0    3
 -2      4447      4995      4989      5746
 -1     20800    3    0    3
 -2      5021      2642      2607      5906
 -1     20801    3    0    3
 -2      5026      5593      4393      4447
 -1     20802    3    0    3
 -2      6340      2175      2445      5884
 -1     20803    3    0    3
 -2      5593      4393      5594      4364
 -1     20804    3    0    3
 -2      4341      4316      5594      5027
 -1     20805    3    0    3
 -2      4341      5030      4316      5027
 -1     20806    3    0    3
 -2      4316      5029      4364      5027
 -1     20807    3    0    3
 -2      5594      4316      4364      5027
 -1     20808    3    0    3
 -2      6023      2638      2557      4794
 -1     20809    3    0    3
 -2      4062      5032      1930      5709
 -1     20810    3    0    3
 -2      2065      5028      5752      6754
 -1     20811    3    0    3
 -2      5029      2249      2261      5745
 -1     20812    3    0    3
 -2      1908      4841      4828      2748
 -1     20813    3    0    3
 -2      5746      4393      5020      4447
 -1     20814    3    0    3
 -2      5020      4989      2619      5746
 -1     20815    3    0    3
 -2      5587      4447      4477      5020
 -1     20816    3    0    3
 -2      4422      4393      5587      5020
 -1     20817    3    0    3
 -2      5744      5026      2417      5746
 -1     20818    3    0    3
 -2      4997      1990      1987      4223
 -1     20819    3    0    3
 -2      2249      2369      5027      2345
 -1     20820    3    0    3
 -2      5027      5029      4364      5745
 -1     20821    3    0    3
 -2      4195      3876      4839      4841
 -1     20822    3    0    3
 -2      2262      5028      2065      6754
 -1     20823    3    0    3
 -2      2411      5749      5750      5853
 -1     20824    3    0    3
 -2      5745      5029      4364      6754
 -1     20825    3    0    3
 -2      2181      2418      2242      5744
 -1     20826    3    0    3
 -2      4364      5028      5026      6754
 -1     20827    3    0    3
 -2       534      4387       610      3958
 -1     20828    3    0    3
 -2      2603      5030      2380      5749
 -1     20829    3    0    3
 -2      2754      4280       385      2731
 -1     20830    3    0    3
 -2      3042      1858      6649      3057
 -1     20831    3    0    3
 -2      2187      5025      2398      2186
 -1     20832    3    0    3
 -2      2411      2398      2456      5853
 -1     20833    3    0    3
 -2      5015      5891      2877      5812
 -1     20834    3    0    3
 -2      5749      2380      2411      5750
 -1     20835    3    0    3
 -2        83      5054       586        82
 -1     20836    3    0    3
 -2      3541      3791      3765      5076
 -1     20837    3    0    3
 -2      4341      5021      5024      5917
 -1     20838    3    0    3
 -2      2455      5024      2398      5803
 -1     20839    3    0    3
 -2       387       386      1783      2730
 -1     20840    3    0    3
 -2      5563      5564      4446      4474
 -1     20841    3    0    3
 -2      5592      4240      4293      5025
 -1     20842    3    0    3
 -2        83      5054        82      1813
 -1     20843    3    0    3
 -2      2772      3970      2764      5409
 -1     20844    3    0    3
 -2      2603      2380      2456      5749
 -1     20845    3    0    3
 -2      2380      5031      2372      2277
 -1     20846    3    0    3
 -2      4223      5067      1987      5763
 -1     20847    3    0    3
 -2      5763      1761      5067      1987
 -1     20848    3    0    3
 -2      4446      5767      4996      4474
 -1     20849    3    0    3
 -2      5028      3463      4170      5752
 -1     20850    3    0    3
 -2      4113      3463      5029      5752
 -1     20851    3    0    3
 -2       286       106      1681      5760
 -1     20852    3    0    3
 -2      4447      5562      5556      4502
 -1     20853    3    0    3
 -2      3541      3791      5076      4006
 -1     20854    3    0    3
 -2      4349      5589      5579      4398
 -1     20855    3    0    3
 -2      5064       635      3969      4176
 -1     20856    3    0    3
 -2      1761      5067      1987      1735
 -1     20857    3    0    3
 -2       590      3791      3765       615
 -1     20858    3    0    3
 -2      1783      4035      1905      4843
 -1     20859    3    0    3
 -2      2748      4195      2740      2741
 -1     20860    3    0    3
 -2      5082       106      1778      5760
 -1     20861    3    0    3
 -2      2069      1824      2070      6730
 -1     20862    3    0    3
 -2      3507      1824      1779      2069
 -1     20863    3    0    3
 -2      5717      3507      1785      6702
 -1     20864    3    0    3
 -2      5079      4062      5078      3481
 -1     20865    3    0    3
 -2      1760      2065      2071      5071
 -1     20866    3    0    3
 -2      1760      2071      1761      5070
 -1     20867    3    0    3
 -2      5071      1760       592      5070
 -1     20868    3    0    3
 -2      5067      3523      5070      5763
 -1     20869    3    0    3
 -2      5752      1797      2011      5074
 -1     20870    3    0    3
 -2      5411      1302      1399      5842
 -1     20871    3    0    3
 -2      5028      2071      2181      2262
 -1     20872    3    0    3
 -2      2071      5028      2065      2262
 -1     20873    3    0    3
 -2      4364      5029      5028      6754
 -1     20874    3    0    3
 -2      4006      3463      5074      5071
 -1     20875    3    0    3
 -2      5074      2011      1798      1797
 -1     20876    3    0    3
 -2      5411      1302      5842      5412
 -1     20877    3    0    3
 -2      4316      6718      5765      5599
 -1     20878    3    0    3
 -2      5074       631      5075      3541
 -1     20879    3    0    3
 -2      4501      1681       106      5760
 -1     20880    3    0    3
 -2      3776       589       632      3816
 -1     20881    3    0    3
 -2      3541      3791       615      3765
 -1     20882    3    0    3
 -2      1681      1695      5083      4501
 -1     20883    3    0    3
 -2      3481      4062      5078      5080
 -1     20884    3    0    3
 -2      5079       630      1822       595
 -1     20885    3    0    3
 -2      4501       106      5082      5760
 -1     20886    3    0    3
 -2       595      3481       630       574
 -1     20887    3    0    3
 -2       630      3481      3950       619
 -1     20888    3    0    3
 -2      5070      3601      4170      5072
 -1     20889    3    0    3
 -2        72      5075       630      1825
 -1     20890    3    0    3
 -2      1762      5063        78      1734
 -1     20891    3    0    3
 -2       511       592      3601       604
 -1     20892    3    0    3
 -2      5407      5404      3732      2769
 -1     20893    3    0    3
 -2      3950       631       630       619
 -1     20894    3    0    3
 -2       604      3601      3816       591
 -1     20895    3    0    3
 -2      3969      3997      5626      5061
 -1     20896    3    0    3
 -2       583      5074      1797      5071
 -1     20897    3    0    3
 -2      3601       511      4068      5070
 -1     20898    3    0    3
 -2      5068      3583      5066      4117
 -1     20899    3    0    3
 -2      5752      1797      2065      2011
 -1     20900    3    0    3
 -2      2242      1990      1987      4997
 -1     20901    3    0    3
 -2      5075      1931      4113      5709
 -1     20902    3    0    3
 -2      4316      6718      5599      4261
 -1     20903    3    0    3
 -2      4906      2779      2726      2728
 -1     20904    3    0    3
 -2      3950      3735      3705      5080
 -1     20905    3    0    3
 -2        75      1761        76       511
 -1     20906    3    0    3
 -2       590      3765       620       615
 -1     20907    3    0    3
 -2      5082      1779      5760      1778
 -1     20908    3    0    3
 -2      4313      3765      5076      5077
 -1     20909    3    0    3
 -2       631      1798      5074      5075
 -1     20910    3    0    3
 -2      3950      3481      5078      5080
 -1     20911    3    0    3
 -2      3705       637      3950      3481
 -1     20912    3    0    3
 -2         4       286      1778       106
 -1     20913    3    0    3
 -2      4429      3890      5079      5082
 -1     20914    3    0    3
 -2      5083      5085      4004      4501
 -1     20915    3    0    3
 -2      3507      5668      6702      5717
 -1     20916    3    0    3
 -2      3890      3481       595       574
 -1     20917    3    0    3
 -2         4      1778      1822       106
 -1     20918    3    0    3
 -2      4501      4004      5082      5084
 -1     20919    3    0    3
 -2      5082      1779      1778      2069
 -1     20920    3    0    3
 -2        71         4      1822       106
 -1     20921    3    0    3
 -2      1825        72        71       630
 -1     20922    3    0    3
 -2       637      3735      3705      3950
 -1     20923    3    0    3
 -2      5082      1779      5083      5760
 -1     20924    3    0    3
 -2        74        73      1797       583
 -1     20925    3    0    3
 -2       639      2999      5270      2998
 -1     20926    3    0    3
 -2       639      5271      1038      5270
 -1     20927    3    0    3
 -2      3541      4113      5076      5077
 -1     20928    3    0    3
 -2      2571      4995      2383      2617
 -1     20929    3    0    3
 -2      2571      4995      2617      5764
 -1     20930    3    0    3
 -2      4170      3463      5073      5071
 -1     20931    3    0    3
 -2      4006      3816      3791      5073
 -1     20932    3    0    3
 -2      4006      3601      5073      5071
 -1     20933    3    0    3
 -2      5063      3719       504      4117
 -1     20934    3    0    3
 -2      4259      3705      5645      5080
 -1     20935    3    0    3
 -2       583       592      4006      5071
 -1     20936    3    0    3
 -2      5411      1302      1445      1399
 -1     20937    3    0    3
 -2      4170      5073      3601      5071
 -1     20938    3    0    3
 -2      3523      4170      4362      5072
 -1     20939    3    0    3
 -2      5073      4170      3601      5072
 -1     20940    3    0    3
 -2      1779      5760      1778       286
 -1     20941    3    0    3
 -2      3541       619       631      3950
 -1     20942    3    0    3
 -2      5076      3463      5074      4006
 -1     20943    3    0    3
 -2      5076      5073      3463      4006
 -1     20944    3    0    3
 -2      3541      4006       583       615
 -1     20945    3    0    3
 -2      4006      3816      3601       591
 -1     20946    3    0    3
 -2       615       590      3791       591
 -1     20947    3    0    3
 -2      5067      4068      5069      3666
 -1     20948    3    0    3
 -2       505       575      3666       584
 -1     20949    3    0    3
 -2      4377      3759      4992      5801
 -1     20950    3    0    3
 -2       632       633      3847       575
 -1     20951    3    0    3
 -2      4086      5633      5634      3878
 -1     20952    3    0    3
 -2      5072      4388      5069      3847
 -1     20953    3    0    3
 -2      5072      5637      4388      3847
 -1     20954    3    0    3
 -2      5072      3816      5637      3847
 -1     20955    3    0    3
 -2      3610      3854      4077       621
 -1     20956    3    0    3
 -2      3523      4068      5067      5070
 -1     20957    3    0    3
 -2      5752      1797      5071      2065
 -1     20958    3    0    3
 -2      3610      3854       621      3821
 -1     20959    3    0    3
 -2      3705      4259      5081      5080
 -1     20960    3    0    3
 -2       604       592      3601       591
 -1     20961    3    0    3
 -2      4006      3816      5073      3601
 -1     20962    3    0    3
 -2      3878       585      3909       584
 -1     20963    3    0    3
 -2       592       583      4006       591
 -1     20964    3    0    3
 -2      3541       619       615       631
 -1     20965    3    0    3
 -2      5052       564      5050      5051
 -1     20966    3    0    3
 -2      5948      4792      2149      6727
 -1     20967    3    0    3
 -2      5052       564      4278       566
 -1     20968    3    0    3
 -2      2181      2242      1987      5763
 -1     20969    3    0    3
 -2      2071      1760      5071      5070
 -1     20970    3    0    3
 -2      3775       559      5058      5059
 -1     20971    3    0    3
 -2      5070      4170      3523      5072
 -1     20972    3    0    3
 -2       511      1761        76      5067
 -1     20973    3    0    3
 -2       632      3847       604       575
 -1     20974    3    0    3
 -2      3610      3854      4945      4077
 -1     20975    3    0    3
 -2      5028      4170      3523      5763
 -1     20976    3    0    3
 -2      5752      1797      5074      5071
 -1     20977    3    0    3
 -2      5067       511      1761      5070
 -1     20978    3    0    3
 -2      5067      4068       511      5070
 -1     20979    3    0    3
 -2       631      5074       583      3541
 -1     20980    3    0    3
 -2      4062      5078      4484      5709
 -1     20981    3    0    3
 -2      4484      5078      3950      5075
 -1     20982    3    0    3
 -2      5074      4006       583      3541
 -1     20983    3    0    3
 -2      5074      5076      4006      3541
 -1     20984    3    0    3
 -2      2753      3825      2752      4049
 -1     20985    3    0    3
 -2      5938      2147      2168      2046
 -1     20986    3    0    3
 -2      5668      3507      6702      4376
 -1     20987    3    0    3
 -2      1682      1695      1681      4501
 -1     20988    3    0    3
 -2      1682      5085      1695      4501
 -1     20989    3    0    3
 -2       595       106      3890       107
 -1     20990    3    0    3
 -2       511      3601      4068       604
 -1     20991    3    0    3
 -2      3909      3878       584      5068
 -1     20992    3    0    3
 -2      5075       631      3950      3541
 -1     20993    3    0    3
 -2      5617       638      4181      3781
 -1     20994    3    0    3
 -2      5617       638      4134      4108
 -1     20995    3    0    3
 -2       106       286      1778      5760
 -1     20996    3    0    3
 -2       106      3890      4501      5082
 -1     20997    3    0    3
 -2       106      5079      3890      5082
 -1     20998    3    0    3
 -2       106      1778      1822      5082
 -1     20999    3    0    3
 -2       106      1822      5079      5082
 -1     21000    3    0    3
 -2      5746      4393      4447      5026
 -1     21001    3    0    3
 -2      3513      5957      3480      5346
 -1     21002    3    0    3
 -2      1677      6764      6334       291
 -1     21003    3    0    3
 -2       631      5075      3950       630
 -1     21004    3    0    3
 -2      2753      3825      4049      4829
 -1     21005    3    0    3
 -2      1822        71       106       595
 -1     21006    3    0    3
 -2      3729      6772      4879      6222
 -1     21007    3    0    3
 -2      4113      5074      5075      3541
 -1     21008    3    0    3
 -2      4113      5076      5074      3541
 -1     21009    3    0    3
 -2      3890       106      4501       107
 -1     21010    3    0    3
 -2      5064       635      3938      3969
 -1     21011    3    0    3
 -2      4262      2765      2744      2741
 -1     21012    3    0    3
 -2      2748       388      4841      2765
 -1     21013    3    0    3
 -2      4195      4830      2740      3989
 -1     21014    3    0    3
 -2      1905      4841       388      2765
 -1     21015    3    0    3
 -2      3481      5079      3890       595
 -1     21016    3    0    3
 -2      5079       106      3890       595
 -1     21017    3    0    3
 -2      4262      4845      4846      3569
 -1     21018    3    0    3
 -2      6051      4152      4271      3225
 -1     21019    3    0    3
 -2      2744      4843      4262      4846
 -1     21020    3    0    3
 -2       595      1822        71       630
 -1     21021    3    0    3
 -2      1822      1825        71       630
 -1     21022    3    0    3
 -2       619      3765       615       620
 -1     21023    3    0    3
 -2      3890       595       107       574
 -1     21024    3    0    3
 -2       637      3705       594       574
 -1     21025    3    0    3
 -2      3481      3705       637       574
 -1     21026    3    0    3
 -2      5081      3890      4429      5084
 -1     21027    3    0    3
 -2      1682       107       108      3648
 -1     21028    3    0    3
 -2       107      1682      4501      3648
 -1     21029    3    0    3
 -2      3679       109       594       108
 -1     21030    3    0    3
 -2       619       630      3481       574
 -1     21031    3    0    3
 -2      3679       594      3705       574
 -1     21032    3    0    3
 -2      4501      5085      4004      5084
 -1     21033    3    0    3
 -2      4280      2754      3651      2731
 -1     21034    3    0    3
 -2       107      3679      3890       574
 -1     21035    3    0    3
 -2      4429      4235      4062      5081
 -1     21036    3    0    3
 -2       108      1673      1682      3648
 -1     21037    3    0    3
 -2       574       107      3679       108
 -1     21038    3    0    3
 -2       574      3679       594       108
 -1     21039    3    0    3
 -2      5650      1685      1673      3648
 -1     21040    3    0    3
 -2      3541      5076      3765      5077
 -1     21041    3    0    3
 -2      3950      3541      3765      5077
 -1     21042    3    0    3
 -2      5075      4113      3541      5077
 -1     21043    3    0    3
 -2      3950      5075      3541      5077
 -1     21044    3    0    3
 -2      3950      4484      5075      5077
 -1     21045    3    0    3
 -2      5075      4484      4113      5077
 -1     21046    3    0    3
 -2       639      5271       822      1038
 -1     21047    3    0    3
 -2      4259      5646      3705      5081
 -1     21048    3    0    3
 -2      4259      4235      5646      5081
 -1     21049    3    0    3
 -2      4062      5079      4429      5081
 -1     21050    3    0    3
 -2      3890      4429      5079      5081
 -1     21051    3    0    3
 -2      3481      5079      4062      5081
 -1     21052    3    0    3
 -2      5079      3481      3890      5081
 -1     21053    3    0    3
 -2      5085      4501      3648      5084
 -1     21054    3    0    3
 -2      3648      4211      5085      5084
 -1     21055    3    0    3
 -2      4211      5649      4235      5084
 -1     21056    3    0    3
 -2      5649      3679      4235      5084
 -1     21057    3    0    3
 -2      5082      4429      3890      5084
 -1     21058    3    0    3
 -2      2717      5698      4840      5687
 -1     21059    3    0    3
 -2      5082      4004      4429      5084
 -1     21060    3    0    3
 -2      5077      3735      3950      5080
 -1     21061    3    0    3
 -2      4289      4484      4062      5080
 -1     21062    3    0    3
 -2      4484      4289      5077      5080
 -1     21063    3    0    3
 -2      5077      4289      3735      5080
 -1     21064    3    0    3
 -2      2732      4843      2730      2744
 -1     21065    3    0    3
 -2      5645      3735      4289      5080
 -1     21066    3    0    3
 -2      4842      2765      4841      1905
 -1     21067    3    0    3
 -2      4259      5645      4289      5080
 -1     21068    3    0    3
 -2      2742      2773      5404      2769
 -1     21069    3    0    3
 -2      3847      3816       632       604
 -1     21070    3    0    3
 -2      4068      5072      3847       604
 -1     21071    3    0    3
 -2      3847      5072      3816       604
 -1     21072    3    0    3
 -2      2764      2779      2745      5406
 -1     21073    3    0    3
 -2      4068       511       604       575
 -1     21074    3    0    3
 -2      2548      5869      2650      2651
 -1     21075    3    0    3
 -2      3816      5073      3601      5072
 -1     21076    3    0    3
 -2      4388      5069      3523      5072
 -1     21077    3    0    3
 -2      4362      5073      3816      5072
 -1     21078    3    0    3
 -2      3816       589       632       604
 -1     21079    3    0    3
 -2      3816      5637      4362      5072
 -1     21080    3    0    3
 -2      2730      4843      2765      2744
 -1     21081    3    0    3
 -2      4362      5637      4388      5072
 -1     21082    3    0    3
 -2       633      4450       632      3847
 -1     21083    3    0    3
 -2      6381       897      5560      1164
 -1     21084    3    0    3
 -2      5072      5069      4068      3847
 -1     21085    3    0    3
 -2      5633      4086       585      3878
 -1     21086    3    0    3
 -2      3847      5069      4068       575
 -1     21087    3    0    3
 -2      3847      4068       604       575
 -1     21088    3    0    3
 -2      3601      3816      5072       604
 -1     21089    3    0    3
 -2      5072      4068      3601       604
 -1     21090    3    0    3
 -2      5052       564      5051      4278
 -1     21091    3    0    3
 -2      2753      3825      4829      2736
 -1     21092    3    0    3
 -2      5052       564       566      5050
 -1     21093    3    0    3
 -2      3541       619      3950      3765
 -1     21094    3    0    3
 -2      2726      3651      2731      2732
 -1     21095    3    0    3
 -2      2731      3651      4843      2732
 -1     21096    3    0    3
 -2       583       631      3541       615
 -1     21097    3    0    3
 -2      3601       592      4006       591
 -1     21098    3    0    3
 -2       590       589      3791       591
 -1     21099    3    0    3
 -2      6330       287      5713      1710
 -1     21100    3    0    3
 -2       604      3816       589       591
 -1     21101    3    0    3
 -2      3816      3791       589       591
 -1     21102    3    0    3
 -2      3666       575      5069      3878
 -1     21103    3    0    3
 -2      5633       585      3909      3878
 -1     21104    3    0    3
 -2      4842      2765      1905      4843
 -1     21105    3    0    3
 -2      6051      4152      5278      4271
 -1     21106    3    0    3
 -2      4059      4847      3651      3866
 -1     21107    3    0    3
 -2      2773      2744      4846      2745
 -1     21108    3    0    3
 -2      5068      5633      3878      4413
 -1     21109    3    0    3
 -2      5630       629      4356      3938
 -1     21110    3    0    3
 -2       540      5629      4356      3938
 -1     21111    3    0    3
 -2       540      4356       629      3938
 -1     21112    3    0    3
 -2       606       540       629      3938
 -1     21113    3    0    3
 -2      4144       954      5648      5651
 -1     21114    3    0    3
 -2      4144       954      5693      5648
 -1     21115    3    0    3
 -2      4433      3651      4846      3569
 -1     21116    3    0    3
 -2      4847      3651      4433      3569
 -1     21117    3    0    3
 -2      3909      3938      5630      5065
 -1     21118    3    0    3
 -2      5066      3583      5063      4117
 -1     21119    3    0    3
 -2       504      5066      5063      4117
 -1     21120    3    0    3
 -2      2094      5051      2091      5758
 -1     21121    3    0    3
 -2      5761      6478      6395      1108
 -1     21122    3    0    3
 -2      3969      5629       540      3938
 -1     21123    3    0    3
 -2      1987      5067      1990      1735
 -1     21124    3    0    3
 -2       540       606       635      3938
 -1     21125    3    0    3
 -2        86       495        85      1708
 -1     21126    3    0    3
 -2      3719       504       599      5063
 -1     21127    3    0    3
 -2      5062      5064      3719      4274
 -1     21128    3    0    3
 -2      3479      4992      4993      3704
 -1     21129    3    0    3
 -2      3775       562       559      5059
 -1     21130    3    0    3
 -2       562      3775       559       536
 -1     21131    3    0    3
 -2        65      5478       613       614
 -1     21132    3    0    3
 -2      4119      3277      3208      5284
 -1     21133    3    0    3
 -2      5052      4108      4134       566
 -1     21134    3    0    3
 -2      5045      5048      4192      4383
 -1     21135    3    0    3
 -2       807      1691       808       255
 -1     21136    3    0    3
 -2      4979      4973      3667      3602
 -1     21137    3    0    3
 -2      4176       562      3775      5059
 -1     21138    3    0    3
 -2      5062      3719       599      5063
 -1     21139    3    0    3
 -2      2040      5054      1813      1877
 -1     21140    3    0    3
 -2       562      1802        79        80
 -1     21141    3    0    3
 -2      3969       540       635      3938
 -1     21142    3    0    3
 -2      1762      5062      1975      1802
 -1     21143    3    0    3
 -2      1619      6376      1441      5357
 -1     21144    3    0    3
 -2      4388      4997      4223      4413
 -1     21145    3    0    3
 -2      3997      3450      5626      5061
 -1     21146    3    0    3
 -2      3450      4516      5626      4499
 -1     21147    3    0    3
 -2      3479      4025      5057      5060
 -1     21148    3    0    3
 -2       585       633       575      3878
 -1     21149    3    0    3
 -2       629       585       606      3909
 -1     21150    3    0    3
 -2       606      3909       584      4117
 -1     21151    3    0    3
 -2      5026      2417      2181      5744
 -1     21152    3    0    3
 -2      5063      3583      5065      4117
 -1     21153    3    0    3
 -2      3583      1990      4997      4223
 -1     21154    3    0    3
 -2      5065       606      3719      4117
 -1     21155    3    0    3
 -2      5533      5549      3600       843
 -1     21156    3    0    3
 -2      3878      5069      5068      4413
 -1     21157    3    0    3
 -2      3583      5068      5065      4117
 -1     21158    3    0    3
 -2       635      3719       599      4176
 -1     21159    3    0    3
 -2       599       562       635      4176
 -1     21160    3    0    3
 -2       504       606      3719       599
 -1     21161    3    0    3
 -2      3719       606       635       599
 -1     21162    3    0    3
 -2      1802      5809      5062      1975
 -1     21163    3    0    3
 -2       485      5868      6761      3680
 -1     21164    3    0    3
 -2      3481      3679      3890      5081
 -1     21165    3    0    3
 -2      4057      3509      5622      5057
 -1     21166    3    0    3
 -2       558      5054       586      3828
 -1     21167    3    0    3
 -2      3704      3450      3479      5060
 -1     21168    3    0    3
 -2      4413      4238      5564      4446
 -1     21169    3    0    3
 -2      3450      3479      4993      3704
 -1     21170    3    0    3
 -2      2040      2066      5055      1877
 -1     21171    3    0    3
 -2      1803      5058      2066      1877
 -1     21172    3    0    3
 -2      3828      4085      5056      4278
 -1     21173    3    0    3
 -2      3479      5622      3509      5057
 -1     21174    3    0    3
 -2      3571      3536      4981      4992
 -1     21175    3    0    3
 -2      4992      3536      4981      3759
 -1     21176    3    0    3
 -2      5061      3997      3450      5060
 -1     21177    3    0    3
 -2      3997      5625      3450      5060
 -1     21178    3    0    3
 -2       616      4085      4057      3828
 -1     21179    3    0    3
 -2      4057      4085      5056      3828
 -1     21180    3    0    3
 -2      4057      5622      4025      5057
 -1     21181    3    0    3
 -2      1215      1297      5546      5793
 -1     21182    3    0    3
 -2      4228       558       559       537
 -1     21183    3    0    3
 -2       536      3775       559       537
 -1     21184    3    0    3
 -2      2536      5764      4988      5751
 -1     21185    3    0    3
 -2      3985      5626      5629      3969
 -1     21186    3    0    3
 -2       536       508       510      3997
 -1     21187    3    0    3
 -2        65      5478       614       641
 -1     21188    3    0    3
 -2       536       510       540      3969
 -1     21189    3    0    3
 -2      3985       540       510      3969
 -1     21190    3    0    3
 -2      3985      5629       540      3969
 -1     21191    3    0    3
 -2      6757      2142      2256      2395
 -1     21192    3    0    3
 -2      4025       616      4228       537
 -1     21193    3    0    3
 -2       616      4025       508       537
 -1     21194    3    0    3
 -2      5560      5559      3479      3746
 -1     21195    3    0    3
 -2      3479      3450      5625      5060
 -1     21196    3    0    3
 -2      5764      2536      4988      4989
 -1     21197    3    0    3
 -2      3775       536      3997       537
 -1     21198    3    0    3
 -2       627       497      4134       566
 -1     21199    3    0    3
 -2      4134      4108       638       566
 -1     21200    3    0    3
 -2      3952      5049       497       565
 -1     21201    3    0    3
 -2       638       627      4134       566
 -1     21202    3    0    3
 -2        85      1770      5047       565
 -1     21203    3    0    3
 -2      4108      4085       636       587
 -1     21204    3    0    3
 -2      4278      5056      5054      3759
 -1     21205    3    0    3
 -2      5053      3536      3759      3568
 -1     21206    3    0    3
 -2      5054      4278      3759      5051
 -1     21207    3    0    3
 -2      5629      5626      4516      4499
 -1     21208    3    0    3
 -2      1829      4593      6494      6651
 -1     21209    3    0    3
 -2      3453      4996      5563      4499
 -1     21210    3    0    3
 -2      5629      3969      4499      5064
 -1     21211    3    0    3
 -2       606      3719       635      3938
 -1     21212    3    0    3
 -2      3681       629      5630      3909
 -1     21213    3    0    3
 -2      3847      5634      5069      3878
 -1     21214    3    0    3
 -2       585       629      3681      3909
 -1     21215    3    0    3
 -2      5630      5633      3681      3909
 -1     21216    3    0    3
 -2       585      3681      5633      3909
 -1     21217    3    0    3
 -2      3666      5068      5066      4117
 -1     21218    3    0    3
 -2      1132      6393      1133      1387
 -1     21219    3    0    3
 -2      4094      3733      5439      6102
 -1     21220    3    0    3
 -2       575       585      3878       584
 -1     21221    3    0    3
 -2      3878      3666       575       584
 -1     21222    3    0    3
 -2       585      4086       633      3878
 -1     21223    3    0    3
 -2      5634       633      4086      3878
 -1     21224    3    0    3
 -2       575       633      3847      3878
 -1     21225    3    0    3
 -2      3847       633      5634      3878
 -1     21226    3    0    3
 -2      3450      5560      4516      4499
 -1     21227    3    0    3
 -2      3841      5630      5629      4473
 -1     21228    3    0    3
 -2      2844      6724      5014      1759
 -1     21229    3    0    3
 -2      3909       606      3938      5065
 -1     21230    3    0    3
 -2      3938       606      3719      5065
 -1     21231    3    0    3
 -2      3666       584      5068      4117
 -1     21232    3    0    3
 -2       584      3909      5068      4117
 -1     21233    3    0    3
 -2      4413      3583      5068      4446
 -1     21234    3    0    3
 -2      2776      2777      5393      2770
 -1     21235    3    0    3
 -2      4899      1979      2287      1943
 -1     21236    3    0    3
 -2      4094      3733      6102      5432
 -1     21237    3    0    3
 -2        34      5640       782       781
 -1     21238    3    0    3
 -2      5027      2249      5029      5745
 -1     21239    3    0    3
 -2       536       635       562      4176
 -1     21240    3    0    3
 -2      3768      1998      4927      4924
 -1     21241    3    0    3
 -2      4499      4996      5563      4473
 -1     21242    3    0    3
 -2      3719      3938      5065      5064
 -1     21243    3    0    3
 -2      5696      2462      2463      6714
 -1     21244    3    0    3
 -2       536       562      3775      4176
 -1     21245    3    0    3
 -2      5062      4176      5064      3642
 -1     21246    3    0    3
 -2      4499      5563      3841      4473
 -1     21247    3    0    3
 -2      2724      5407      3732      2769
 -1     21248    3    0    3
 -2      4274      4996      4499      4473
 -1     21249    3    0    3
 -2       635       536      3969      4176
 -1     21250    3    0    3
 -2      5626      3450      4499      5061
 -1     21251    3    0    3
 -2      3866      2732      2726      2779
 -1     21252    3    0    3
 -2      4176      5064      3719      5062
 -1     21253    3    0    3
 -2      3510      3453      5560      4993
 -1     21254    3    0    3
 -2      2417      2418      2181      5744
 -1     21255    3    0    3
 -2      2282      4996      1975      2283
 -1     21256    3    0    3
 -2      4979      4973      5778      3880
 -1     21257    3    0    3
 -2      4238      3537      5633      4413
 -1     21258    3    0    3
 -2      2779      4846      2745      5406
 -1     21259    3    0    3
 -2      5742      5593      1320      6362
 -1     21260    3    0    3
 -2      5593      5742      1320      6767
 -1     21261    3    0    3
 -2        34      5640       593       596
 -1     21262    3    0    3
 -2      3583      1990      5066      1974
 -1     21263    3    0    3
 -2      4228      3704      5058      5055
 -1     21264    3    0    3
 -2      4176       599       562      5062
 -1     21265    3    0    3
 -2      4176      3719       599      5062
 -1     21266    3    0    3
 -2      5403      1412      1477      5840
 -1     21267    3    0    3
 -2      5927      2857      5929      2821
 -1     21268    3    0    3
 -2       606       504      3719      4117
 -1     21269    3    0    3
 -2      5063       504        78      1734
 -1     21270    3    0    3
 -2      5064      5065      4274      4473
 -1     21271    3    0    3
 -2      5067      1761        76      1735
 -1     21272    3    0    3
 -2      2251      2283      1974      5767
 -1     21273    3    0    3
 -2       504       505      5066      4117
 -1     21274    3    0    3
 -2      5066       505      3666      4117
 -1     21275    3    0    3
 -2       505       504       584      4117
 -1     21276    3    0    3
 -2      3666       505       584      4117
 -1     21277    3    0    3
 -2      1212      5563      6409      6428
 -1     21278    3    0    3
 -2      5768      5555      1630      6404
 -1     21279    3    0    3
 -2      4995      4447      4989      4502
 -1     21280    3    0    3
 -2      3866      2779      3970      5406
 -1     21281    3    0    3
 -2      4059      3651      4906      3866
 -1     21282    3    0    3
 -2      2717      5698      2649      4840
 -1     21283    3    0    3
 -2      4388      5564      4417      4997
 -1     21284    3    0    3
 -2      5470      5469      3970      4344
 -1     21285    3    0    3
 -2      2249      5027      5029      5736
 -1     21286    3    0    3
 -2      5689      6368      5571      1506
 -1     21287    3    0    3
 -2      4325      5059      2051      5809
 -1     21288    3    0    3
 -2      5026      4417      4447      4995
 -1     21289    3    0    3
 -2      5744      2418      4995      5746
 -1     21290    3    0    3
 -2      3569      4280      4035      4847
 -1     21291    3    0    3
 -2      5744      2417      2418      5746
 -1     21292    3    0    3
 -2      4447      4417      5562      4995
 -1     21293    3    0    3
 -2      4417      4474      5562      4995
 -1     21294    3    0    3
 -2      3841      5629      4499      4473
 -1     21295    3    0    3
 -2      5065      5063      3719      4274
 -1     21296    3    0    3
 -2      5063      5062      3719      4274
 -1     21297    3    0    3
 -2      3651      4847      4433      3866
 -1     21298    3    0    3
 -2      2726      4906      3651      3866
 -1     21299    3    0    3
 -2      3651      4433      4846      3866
 -1     21300    3    0    3
 -2      2732      4846      2745      2779
 -1     21301    3    0    3
 -2      3569      4280      3651      4843
 -1     21302    3    0    3
 -2      4843      4846      3651      3569
 -1     21303    3    0    3
 -2      5469      2779      3970      3866
 -1     21304    3    0    3
 -2      4846      4433      4462      5406
 -1     21305    3    0    3
 -2      2251      2383      2382      6733
 -1     21306    3    0    3
 -2      5469      2780      2728      2781
 -1     21307    3    0    3
 -2      2727      4906      2726      2728
 -1     21308    3    0    3
 -2      2743        69      3492      2747
 -1     21309    3    0    3
 -2      3583      5063      5065      4274
 -1     21310    3    0    3
 -2      4979      4973      3880      3667
 -1     21311    3    0    3
 -2      5067      5069      3523      4223
 -1     21312    3    0    3
 -2      5689      6368      1418      6349
 -1     21313    3    0    3
 -2      4997      3523      4388      4223
 -1     21314    3    0    3
 -2      5069      4388      3523      4223
 -1     21315    3    0    3
 -2      4128      4433      3866      5406
 -1     21316    3    0    3
 -2      4846      4843      3651      2732
 -1     21317    3    0    3
 -2      4223      3583      5068      4413
 -1     21318    3    0    3
 -2      5069      5634      4388      4413
 -1     21319    3    0    3
 -2      3878      5633      5634      4413
 -1     21320    3    0    3
 -2      3878      5634      5069      4413
 -1     21321    3    0    3
 -2      5562      4447      4995      4502
 -1     21322    3    0    3
 -2      4995      4474      5562      4502
 -1     21323    3    0    3
 -2      2772      4179      3970      5409
 -1     21324    3    0    3
 -2      4995      4994      4474      4502
 -1     21325    3    0    3
 -2      6747       938      6326      1199
 -1     21326    3    0    3
 -2       523      4930      4232      3833
 -1     21327    3    0    3
 -2      3970      2779      2764      5406
 -1     21328    3    0    3
 -2      5409      2764      2763      5406
 -1     21329    3    0    3
 -2      5733      2102      2109      1821
 -1     21330    3    0    3
 -2      4223      5069      4388      4413
 -1     21331    3    0    3
 -2      4223      5068      5069      4413
 -1     21332    3    0    3
 -2      5475      5476      3752      4438
 -1     21333    3    0    3
 -2      5837      2570      2490      5862
 -1     21334    3    0    3
 -2      2313      4872      4875      6716
 -1     21335    3    0    3
 -2      4872      2313      4875      6582
 -1     21336    3    0    3
 -2      4910      4909      2767      5471
 -1     21337    3    0    3
 -2      2490      4985      5837      5862
 -1     21338    3    0    3
 -2      4906      2728      2737      5469
 -1     21339    3    0    3
 -2      2738       826       242       648
 -1     21340    3    0    3
 -2      2779      2764      2780      3970
 -1     21341    3    0    3
 -2      5689      6368      1506      1418
 -1     21342    3    0    3
 -2      4274      4499      5064      4473
 -1     21343    3    0    3
 -2      5629      3938      5064      4473
 -1     21344    3    0    3
 -2      5064      3938      5065      4473
 -1     21345    3    0    3
 -2      4413      5068      5633      4446
 -1     21346    3    0    3
 -2      5068      3583      5065      4446
 -1     21347    3    0    3
 -2      3909      5068      5065      4446
 -1     21348    3    0    3
 -2      5068      3909      5633      4446
 -1     21349    3    0    3
 -2      5630      4238      5633      4446
 -1     21350    3    0    3
 -2      5630      3909      5065      4446
 -1     21351    3    0    3
 -2      3909      5630      5633      4446
 -1     21352    3    0    3
 -2      4094      3733      3677      5439
 -1     21353    3    0    3
 -2      5630      5065      4473      4446
 -1     21354    3    0    3
 -2      4182      3415      4948      3444
 -1     21355    3    0    3
 -2      2455      2662      5719      2514
 -1     21356    3    0    3
 -2      3415      4182      4948      4373
 -1     21357    3    0    3
 -2      2743      3492      4199      2747
 -1     21358    3    0    3
 -2      2775      5469      2780      3970
 -1     21359    3    0    3
 -2       485      5868       486      3340
 -1     21360    3    0    3
 -2      4499      4274      5064      3642
 -1     21361    3    0    3
 -2      3970      4179      4128      5409
 -1     21362    3    0    3
 -2      4274      5062      5064      3642
 -1     21363    3    0    3
 -2      4996      4274      4499      3642
 -1     21364    3    0    3
 -2      2844      6724      1759       372
 -1     21365    3    0    3
 -2      5769      2344      4990      2432
 -1     21366    3    0    3
 -2      4996      1975      4274      5809
 -1     21367    3    0    3
 -2      5625      5622      3746      3479
 -1     21368    3    0    3
 -2      3450      5625      3746      3479
 -1     21369    3    0    3
 -2      3450      3746      5560      3479
 -1     21370    3    0    3
 -2      4990      5769      2432      5836
 -1     21371    3    0    3
 -2      6405      1321      5742      5759
 -1     21372    3    0    3
 -2      2853      4803      1790      6755
 -1     21373    3    0    3
 -2      6405      1321      1149      5742
 -1     21374    3    0    3
 -2       679      6378      1050      5623
 -1     21375    3    0    3
 -2      3642      5062      4176      5059
 -1     21376    3    0    3
 -2      2066      4993      4325      2051
 -1     21377    3    0    3
 -2      3479      3509      4992      3704
 -1     21378    3    0    3
 -2      5061      4325      3775      5060
 -1     21379    3    0    3
 -2      4377      5055      2040      5800
 -1     21380    3    0    3
 -2       562      4176      5062      5059
 -1     21381    3    0    3
 -2      4992      3510      3479      4993
 -1     21382    3    0    3
 -2      4344      3866      5469      3970
 -1     21383    3    0    3
 -2      5058      5055      2066      1877
 -1     21384    3    0    3
 -2       586        83       564      5051
 -1     21385    3    0    3
 -2      4278      5054       586      5051
 -1     21386    3    0    3
 -2      3759      5051      5053      4431
 -1     21387    3    0    3
 -2      4025      5622      3479      5057
 -1     21388    3    0    3
 -2      4992      3509      3536      3759
 -1     21389    3    0    3
 -2      3536      3509      5056      3759
 -1     21390    3    0    3
 -2      4179      3920      5762      5410
 -1     21391    3    0    3
 -2      4993      5560      3479      3450
 -1     21392    3    0    3
 -2      2241      2091      2040      5801
 -1     21393    3    0    3
 -2      5559      5560      3479      3510
 -1     21394    3    0    3
 -2      3704      3479      3509      5057
 -1     21395    3    0    3
 -2      3704      3509      4992      4377
 -1     21396    3    0    3
 -2       558      4228       559      5058
 -1     21397    3    0    3
 -2       559      4228      3775      5058
 -1     21398    3    0    3
 -2      3759      5056      5054      4377
 -1     21399    3    0    3
 -2      4344      3866      3970      5410
 -1     21400    3    0    3
 -2      2388      2291      2282      5678
 -1     21401    3    0    3
 -2      2282      4996      5809      1975
 -1     21402    3    0    3
 -2       514      1859       513        91
 -1     21403    3    0    3
 -2      5054      3828      5055      4377
 -1     21404    3    0    3
 -2      2296      2040      2066      5800
 -1     21405    3    0    3
 -2      2419      6722      5792      2154
 -1     21406    3    0    3
 -2      2737      2743      2767      5471
 -1     21407    3    0    3
 -2      2140      4984      5817      5866
 -1     21408    3    0    3
 -2      5472      4304      3779      5475
 -1     21409    3    0    3
 -2      2051      4993      4325      5809
 -1     21410    3    0    3
 -2      2743      2767      4304        68
 -1     21411    3    0    3
 -2      3830      5469      5471      4344
 -1     21412    3    0    3
 -2         2       241       642        70
 -1     21413    3    0    3
 -2      4993      3453      4996      5797
 -1     21414    3    0    3
 -2      5058      3775      5059      4325
 -1     21415    3    0    3
 -2      3828      4228       558      5055
 -1     21416    3    0    3
 -2      3828       558      5054      5055
 -1     21417    3    0    3
 -2      5058       558      4228      5055
 -1     21418    3    0    3
 -2       558        81        82      1877
 -1     21419    3    0    3
 -2      2066      2040      5055      5800
 -1     21420    3    0    3
 -2      4119      3277      3207      3208
 -1     21421    3    0    3
 -2      4261      5731      4214      5598
 -1     21422    3    0    3
 -2      5471      5472      3668      4199
 -1     21423    3    0    3
 -2      3899       617      5476      4285
 -1     21424    3    0    3
 -2      4498      4913      4910      4304
 -1     21425    3    0    3
 -2      2767      4498      4910      4304
 -1     21426    3    0    3
 -2       617       541      4249       580
 -1     21427    3    0    3
 -2      2767        67      4498      4304
 -1     21428    3    0    3
 -2      3752      3779      4913      5475
 -1     21429    3    0    3
 -2      4165      3722      5445      3697
 -1     21430    3    0    3
 -2      4917      4918      3474      3697
 -1     21431    3    0    3
 -2       504        77        78      1734
 -1     21432    3    0    3
 -2      2521      2432      2430      5836
 -1     21433    3    0    3
 -2      5045       557      4217      4011
 -1     21434    3    0    3
 -2      5618      3536      4085      5053
 -1     21435    3    0    3
 -2      2771      5471      2737      2781
 -1     21436    3    0    3
 -2      5839       765       843      1023
 -1     21437    3    0    3
 -2      3546      4290      3769      5141
 -1     21438    3    0    3
 -2      5469      2728      2737      2781
 -1     21439    3    0    3
 -2      4977      5544      3659      3693
 -1     21440    3    0    3
 -2      4993      3450      3704      4325
 -1     21441    3    0    3
 -2      5057      3704      3479      5060
 -1     21442    3    0    3
 -2      5057      4228      3704      5060
 -1     21443    3    0    3
 -2      4499      3450      3642      5061
 -1     21444    3    0    3
 -2      2738      2747      5474       241
 -1     21445    3    0    3
 -2      3969      5064      4176      5061
 -1     21446    3    0    3
 -2      4840      4834      3959      3902
 -1     21447    3    0    3
 -2      4273      3492        69      3899
 -1     21448    3    0    3
 -2      5054      5056      3828      4377
 -1     21449    3    0    3
 -2      5473      5470      5469      2781
 -1     21450    3    0    3
 -2      5471      4910      4909      3804
 -1     21451    3    0    3
 -2      4910      3587      4909      3804
 -1     21452    3    0    3
 -2      2743      4910      4304      2767
 -1     21453    3    0    3
 -2      3830      4909      3587      3804
 -1     21454    3    0    3
 -2      4059      4906      4909      3830
 -1     21455    3    0    3
 -2      5472      3668      3779      3804
 -1     21456    3    0    3
 -2      1077      6616      1329      5695
 -1     21457    3    0    3
 -2      4249      3722      4914      5476
 -1     21458    3    0    3
 -2      3474      4881      3940      3722
 -1     21459    3    0    3
 -2      4304      3779      4910      5472
 -1     21460    3    0    3
 -2      2636      3877      2512      4822
 -1     21461    3    0    3
 -2      5548      5547      1132      6486
 -1     21462    3    0    3
 -2      5547      5548      1132      5796
 -1     21463    3    0    3
 -2      4070      4199      3492      5474
 -1     21464    3    0    3
 -2      4344      3970      4179      5410
 -1     21465    3    0    3
 -2      2743      4910      2767      5471
 -1     21466    3    0    3
 -2      5472      5471      3668      3804
 -1     21467    3    0    3
 -2      5472      4910      5471      3804
 -1     21468    3    0    3
 -2      5471      4909      3830      3804
 -1     21469    3    0    3
 -2      3668      5471      3830      3804
 -1     21470    3    0    3
 -2      3779      3668      4070      5413
 -1     21471    3    0    3
 -2      5482        63       796       571
 -1     21472    3    0    3
 -2      4914      3752      4273      5476
 -1     21473    3    0    3
 -2      2091      5051      1814      1813
 -1     21474    3    0    3
 -2      6309      3959      5403      5858
 -1     21475    3    0    3
 -2      4249       580       581       626
 -1     21476    3    0    3
 -2      4304        67      4273        68
 -1     21477    3    0    3
 -2      4165      5480      3697      3670
 -1     21478    3    0    3
 -2      4273       541      4914      4249
 -1     21479    3    0    3
 -2      4914      4273      4249      5476
 -1     21480    3    0    3
 -2      3670      5483      3864      3455
 -1     21481    3    0    3
 -2      4108      4278       587       566
 -1     21482    3    0    3
 -2      4328      3646      5617      3598
 -1     21483    3    0    3
 -2      5481      5479      4165      3594
 -1     21484    3    0    3
 -2      5471      2771      2743      4199
 -1     21485    3    0    3
 -2      4273      3492      3899      5475
 -1     21486    3    0    3
 -2      5476      3899      4285      5478
 -1     21487    3    0    3
 -2      5479      4165      3767      5481
 -1     21488    3    0    3
 -2      4285      5476      5478      3767
 -1     21489    3    0    3
 -2      4070      5475      4438      5477
 -1     21490    3    0    3
 -2      2771      5471      2743      2737
 -1     21491    3    0    3
 -2      5049       497      4166      3952
 -1     21492    3    0    3
 -2      3767      4165      5445      5669
 -1     21493    3    0    3
 -2      4925      3604      4922      4141
 -1     21494    3    0    3
 -2      4285      5479      3767      5481
 -1     21495    3    0    3
 -2      5479      5476      4285      3767
 -1     21496    3    0    3
 -2      3759      5053      3568      4431
 -1     21497    3    0    3
 -2       613      4285      5478      5481
 -1     21498    3    0    3
 -2      4438      5475      3899      5477
 -1     21499    3    0    3
 -2      6237      5338      1649      5309
 -1     21500    3    0    3
 -2      5559      4992      3536      3571
 -1     21501    3    0    3
 -2      6102      4392      5426      6134
 -1     21502    3    0    3
 -2      3642      4176      5064      5061
 -1     21503    3    0    3
 -2      4285       614       613      5478
 -1     21504    3    0    3
 -2      5064      4499      3642      5061
 -1     21505    3    0    3
 -2      4176      3642      5059      5061
 -1     21506    3    0    3
 -2      5470       243      2746       826
 -1     21507    3    0    3
 -2      5479       581       626      4249
 -1     21508    3    0    3
 -2      3775      4176      5059      5061
 -1     21509    3    0    3
 -2      4325      5059      3642      5061
 -1     21510    3    0    3
 -2      4325      3775      5059      5061
 -1     21511    3    0    3
 -2      4377      5056      3828      5057
 -1     21512    3    0    3
 -2      4377      3704      3509      5057
 -1     21513    3    0    3
 -2      4377      5055      3704      5057
 -1     21514    3    0    3
 -2      4377      3828      5055      5057
 -1     21515    3    0    3
 -2      5055      3828      4228      5057
 -1     21516    3    0    3
 -2      5055      4228      3704      5057
 -1     21517    3    0    3
 -2      3450      4325      5061      5060
 -1     21518    3    0    3
 -2      4325      3450      3704      5060
 -1     21519    3    0    3
 -2      4325      5058      3775      5060
 -1     21520    3    0    3
 -2      3704      5058      4325      5060
 -1     21521    3    0    3
 -2      5058      4228      3775      5060
 -1     21522    3    0    3
 -2      3704      4228      5058      5060
 -1     21523    3    0    3
 -2      5547      3948      3540      3626
 -1     21524    3    0    3
 -2      5610      5613      4192      3659
 -1     21525    3    0    3
 -2      4165      3722      5479      3767
 -1     21526    3    0    3
 -2       626      5479      4249      4285
 -1     21527    3    0    3
 -2      5414      1237       962      5669
 -1     21528    3    0    3
 -2      5475      3752      3779      4438
 -1     21529    3    0    3
 -2      1109       869      5542      6478
 -1     21530    3    0    3
 -2      4285      3899       614      5478
 -1     21531    3    0    3
 -2      3948      5547      3540      6445
 -1     21532    3    0    3
 -2      4992      5559      3479      3510
 -1     21533    3    0    3
 -2      5774      3540      5547      6445
 -1     21534    3    0    3
 -2      6309      3959      5858      6071
 -1     21535    3    0    3
 -2      4070      4199      5474      3668
 -1     21536    3    0    3
 -2      6391      1387      1215      6778
 -1     21537    3    0    3
 -2      3568      5053      4108      5052
 -1     21538    3    0    3
 -2      3899        69       617       614
 -1     21539    3    0    3
 -2      5475      5472      4304      3492
 -1     21540    3    0    3
 -2      3715      5543      5544      3749
 -1     21541    3    0    3
 -2      3749      6250      4976      4370
 -1     21542    3    0    3
 -2       617      4273        68        69
 -1     21543    3    0    3
 -2      4273      4304        68        69
 -1     21544    3    0    3
 -2      4304      2743        68        69
 -1     21545    3    0    3
 -2      5043        87      1752       600
 -1     21546    3    0    3
 -2      4485      3626      3598      4980
 -1     21547    3    0    3
 -2      3443      3528      4966      3405
 -1     21548    3    0    3
 -2        69       617      4273      3899
 -1     21549    3    0    3
 -2       617      5476      4273      3899
 -1     21550    3    0    3
 -2      4249      5476       617      4285
 -1     21551    3    0    3
 -2      6105      3675      5441      6107
 -1     21552    3    0    3
 -2      5476      4249      5479      4285
 -1     21553    3    0    3
 -2      4485      3598      3811      4980
 -1     21554    3    0    3
 -2      5053      4108      5618      3568
 -1     21555    3    0    3
 -2      5485      3455      5482      6282
 -1     21556    3    0    3
 -2      5483      4169      3634      5484
 -1     21557    3    0    3
 -2      5846      1446      5362      6332
 -1     21558    3    0    3
 -2      5846      1446      1300      5362
 -1     21559    3    0    3
 -2       617      3899       614      4285
 -1     21560    3    0    3
 -2       614       626       617      4285
 -1     21561    3    0    3
 -2      4438      5476      3722      3767
 -1     21562    3    0    3
 -2       614       613       626      4285
 -1     21563    3    0    3
 -2        69      4304      2743      3492
 -1     21564    3    0    3
 -2      4273      3492      4304        69
 -1     21565    3    0    3
 -2      3753      3806      4851      5414
 -1     21566    3    0    3
 -2      3598      3646      5617      3568
 -1     21567    3    0    3
 -2      3767      4438      5478      5669
 -1     21568    3    0    3
 -2      5476      3752      4273      5475
 -1     21569    3    0    3
 -2      5475      4070      3492      5477
 -1     21570    3    0    3
 -2      5617      5618      4108      3568
 -1     21571    3    0    3
 -2      5414       962      4438      5669
 -1     21572    3    0    3
 -2      4485      3659      4980      3873
 -1     21573    3    0    3
 -2      2094      2091      2154      5758
 -1     21574    3    0    3
 -2      5472      2743      4304      3492
 -1     21575    3    0    3
 -2      5476      3722      3752      4438
 -1     21576    3    0    3
 -2      5053      5618      3536      3568
 -1     21577    3    0    3
 -2      4485      3659      3873      5048
 -1     21578    3    0    3
 -2      3806      3868      4850      5413
 -1     21579    3    0    3
 -2      3804      3668      3779      5413
 -1     21580    3    0    3
 -2      5475      3899      5476      4438
 -1     21581    3    0    3
 -2      5478      5476      3899      4438
 -1     21582    3    0    3
 -2       663      5493       726       507
 -1     21583    3    0    3
 -2       902      6624      5602      5753
 -1     21584    3    0    3
 -2      3722      4438      3767      5414
 -1     21585    3    0    3
 -2      5971      6055      6034      5966
 -1     21586    3    0    3
 -2       663      5493       947       726
 -1     21587    3    0    3
 -2      5474      4070      3668      3848
 -1     21588    3    0    3
 -2      3779      5472      5475      4070
 -1     21589    3    0    3
 -2      3668      5472      3779      4070
 -1     21590    3    0    3
 -2      5543      3715      5544      3845
 -1     21591    3    0    3
 -2      3626      5547      4328      3598
 -1     21592    3    0    3
 -2      3779      5475      4438      4070
 -1     21593    3    0    3
 -2      4975      4978      3720      3693
 -1     21594    3    0    3
 -2      3646      5618      5617      3568
 -1     21595    3    0    3
 -2      5618      3646      3536      3568
 -1     21596    3    0    3
 -2      3598      5548      3646      3568
 -1     21597    3    0    3
 -2       641         2       642        70
 -1     21598    3    0    3
 -2      3598      4981      5548      3568
 -1     21599    3    0    3
 -2      4981      3536      5548      3568
 -1     21600    3    0    3
 -2      5471      3668      3830      4344
 -1     21601    3    0    3
 -2      3668      5471      5473      4344
 -1     21602    3    0    3
 -2      6381       897      6422      5560
 -1     21603    3    0    3
 -2      3536      3646      5548      3568
 -1     21604    3    0    3
 -2      3598      5049      4485      3811
 -1     21605    3    0    3
 -2      5610      4192      5045      3659
 -1     21606    3    0    3
 -2        86       600      5046      1752
 -1     21607    3    0    3
 -2      5048      5045      4192      3659
 -1     21608    3    0    3
 -2      3970      4179      5470      4344
 -1     21609    3    0    3
 -2      4485      3659      5048      3626
 -1     21610    3    0    3
 -2      5479       581      4221      3594
 -1     21611    3    0    3
 -2      4273      4498      4913      4079
 -1     21612    3    0    3
 -2      4070      5472      5475      3492
 -1     21613    3    0    3
 -2      5457       767       712      5456
 -1     21614    3    0    3
 -2      5479      4917       581      4249
 -1     21615    3    0    3
 -2      5472      5471      2743      4199
 -1     21616    3    0    3
 -2      3492      5472      2743      4199
 -1     21617    3    0    3
 -2      2747        69      3492        70
 -1     21618    3    0    3
 -2      3899      5475      3492      5477
 -1     21619    3    0    3
 -2      5474      3492      5477        70
 -1     21620    3    0    3
 -2      4192      5613      5048      3659
 -1     21621    3    0    3
 -2      4485      3659      3626      4980
 -1     21622    3    0    3
 -2      5043        87       527      1753
 -1     21623    3    0    3
 -2      5043        87      1753      1752
 -1     21624    3    0    3
 -2      5474      2738       241       648
 -1     21625    3    0    3
 -2       157      5787       645       646
 -1     21626    3    0    3
 -2       527      4011       557       600
 -1     21627    3    0    3
 -2       496      4166       497      3952
 -1     21628    3    0    3
 -2      3492      5474      4199      2747
 -1     21629    3    0    3
 -2      3380      3381      3777      3405
 -1     21630    3    0    3
 -2      3811      4431      5052      5050
 -1     21631    3    0    3
 -2      4981      2094      2154      5758
 -1     21632    3    0    3
 -2      4485      5049      3952      5047
 -1     21633    3    0    3
 -2      2781      5473      5470      2746
 -1     21634    3    0    3
 -2      2781      2771      5473      2746
 -1     21635    3    0    3
 -2      2738      5473      2771      2746
 -1     21636    3    0    3
 -2      2874      6333      2802      2798
 -1     21637    3    0    3
 -2      4431      5053      3568      5052
 -1     21638    3    0    3
 -2      5047      5049      3952       565
 -1     21639    3    0    3
 -2      4485      3952      5046      5047
 -1     21640    3    0    3
 -2      4241      3715      5544      3691
 -1     21641    3    0    3
 -2      6608      4853      3917      6719
 -1     21642    3    0    3
 -2      2747      5474      4199      2738
 -1     21643    3    0    3
 -2      4199      5474      5473      2738
 -1     21644    3    0    3
 -2      2747      4199      2771      2738
 -1     21645    3    0    3
 -2      4199      5473      2771      2738
 -1     21646    3    0    3
 -2      5457       767      1018       712
 -1     21647    3    0    3
 -2      3939      3472      4971      3696
 -1     21648    3    0    3
 -2      5054      3759      4377      5801
 -1     21649    3    0    3
 -2      1167      3848      1055      1054
 -1     21650    3    0    3
 -2      5051        83      1814      1813
 -1     21651    3    0    3
 -2      3472      3939      4978      3696
 -1     21652    3    0    3
 -2      4224      4972      5536      4250
 -1     21653    3    0    3
 -2      3720      4971      3939      4966
 -1     21654    3    0    3
 -2      6716      6705      6701      4868
 -1     21655    3    0    3
 -2      3371      5534      3373      3384
 -1     21656    3    0    3
 -2      3445      4973      4224      4415
 -1     21657    3    0    3
 -2       815      5838      4179      1053
 -1     21658    3    0    3
 -2      3458      6244      5463      4435
 -1     21659    3    0    3
 -2      1413      5597      6343      6725
 -1     21660    3    0    3
 -2      4879      2478      5672      6254
 -1     21661    3    0    3
 -2       242      2746       243       826
 -1     21662    3    0    3
 -2       826      5473      5470      5838
 -1     21663    3    0    3
 -2      2746      5473      5470       826
 -1     21664    3    0    3
 -2      4973      5540      3635      3672
 -1     21665    3    0    3
 -2      5470      2781      2746      2775
 -1     21666    3    0    3
 -2      2165      3880      4979      5778
 -1     21667    3    0    3
 -2      1006       826      1053      5838
 -1     21668    3    0    3
 -2      2420      2165      5777      5778
 -1     21669    3    0    3
 -2      4384      5545      4012      3667
 -1     21670    3    0    3
 -2      4978      5545      3631      3667
 -1     21671    3    0    3
 -2      5546      3571      3631      4979
 -1     21672    3    0    3
 -2      6381       897      1160      6422
 -1     21673    3    0    3
 -2       243      5470      2746      2775
 -1     21674    3    0    3
 -2      3602      3571      5546      4979
 -1     21675    3    0    3
 -2      4025      3882       508      4269
 -1     21676    3    0    3
 -2      3472      3880      4972      3667
 -1     21677    3    0    3
 -2      5542      5544      3749      3693
 -1     21678    3    0    3
 -2      5478      1055      4438      5477
 -1     21679    3    0    3
 -2      2775      4179      3970      2772
 -1     21680    3    0    3
 -2      4415      3384      3362      3361
 -1     21681    3    0    3
 -2      6381       897      1164      1160
 -1     21682    3    0    3
 -2      4179      3970      5470      2775
 -1     21683    3    0    3
 -2      3880      4224      4973      4415
 -1     21684    3    0    3
 -2      3468      3435      5534      4250
 -1     21685    3    0    3
 -2      4971      3472      4972      3696
 -1     21686    3    0    3
 -2      3468      5534      5536      4250
 -1     21687    3    0    3
 -2      2762      2772      2764      5409
 -1     21688    3    0    3
 -2      5473      5474      3668      5838
 -1     21689    3    0    3
 -2      4978      4980      3631      3693
 -1     21690    3    0    3
 -2      5545      3607      3696      3720
 -1     21691    3    0    3
 -2      3631      5546      4979      3667
 -1     21692    3    0    3
 -2      3468      5536      5535      4250
 -1     21693    3    0    3
 -2       826      5470       243       815
 -1     21694    3    0    3
 -2      5470      4179      2775       815
 -1     21695    3    0    3
 -2      2775       243      5470       815
 -1     21696    3    0    3
 -2      5478      4285      3767      5481
 -1     21697    3    0    3
 -2      5481      4165      3767      5669
 -1     21698    3    0    3
 -2      4165      5481       870      5669
 -1     21699    3    0    3
 -2      3435      3468      5535      4250
 -1     21700    3    0    3
 -2      5546      3602      4979      3667
 -1     21701    3    0    3
 -2      4224      3880      4973      3667
 -1     21702    3    0    3
 -2      3481      3679      5081      3705
 -1     21703    3    0    3
 -2      4917      5479       581      4221
 -1     21704    3    0    3
 -2      3899      5478      4438      5477
 -1     21705    3    0    3
 -2      2446      6211      6058      6678
 -1     21706    3    0    3
 -2      3492      4070      5474      5477
 -1     21707    3    0    3
 -2      6211      2446      6058      6664
 -1     21708    3    0    3
 -2      4273      4498      4304      4913
 -1     21709    3    0    3
 -2      5477      4070      5474      3848
 -1     21710    3    0    3
 -2      4384      4224      5540      3667
 -1     21711    3    0    3
 -2      4344      4179      5470      5838
 -1     21712    3    0    3
 -2      5546      1296      6392      1297
 -1     21713    3    0    3
 -2      3520      6234      2112      3876
 -1     21714    3    0    3
 -2      3607      4012      5545      3696
 -1     21715    3    0    3
 -2      3749      5790      3693      4977
 -1     21716    3    0    3
 -2      3667      5545      4012      3696
 -1     21717    3    0    3
 -2      5414      5445      3722      3753
 -1     21718    3    0    3
 -2      3749      6250      4370      4974
 -1     21719    3    0    3
 -2      4438      4070      5477      3848
 -1     21720    3    0    3
 -2      4438      3722      3752      5414
 -1     21721    3    0    3
 -2      3667      4978      5545      3696
 -1     21722    3    0    3
 -2      5477      4438      3848      1055
 -1     21723    3    0    3
 -2      3749      5790      5785      4975
 -1     21724    3    0    3
 -2      5474      5477      3848       642
 -1     21725    3    0    3
 -2      4980      5547      3631      3693
 -1     21726    3    0    3
 -2      3631      5547      5545      3693
 -1     21727    3    0    3
 -2      4273      4498        67      4304
 -1     21728    3    0    3
 -2      3492      3899      5477        70
 -1     21729    3    0    3
 -2       795      5481       870       796
 -1     21730    3    0    3
 -2      2204      6208      6249      6268
 -1     21731    3    0    3
 -2      4978      4975      3720      3939
 -1     21732    3    0    3
 -2      4971      3939      3696      3720
 -1     21733    3    0    3
 -2      3959      5688      6309      5403
 -1     21734    3    0    3
 -2      5858      6309      1663      5403
 -1     21735    3    0    3
 -2       641        65         2        70
 -1     21736    3    0    3
 -2       641       614        65        70
 -1     21737    3    0    3
 -2      4025      3882      4057       508
 -1     21738    3    0    3
 -2      1219      6336       953      1221
 -1     21739    3    0    3
 -2      5477       641       642        70
 -1     21740    3    0    3
 -2      5535      4971      3696      3720
 -1     21741    3    0    3
 -2      3607      5535      3696      3720
 -1     21742    3    0    3
 -2      5530      5535      3607      3720
 -1     21743    3    0    3
 -2      2747      3492      5474        70
 -1     21744    3    0    3
 -2      5535      5530      4971      3720
 -1     21745    3    0    3
 -2      4300      3607      5542      3720
 -1     21746    3    0    3
 -2      5530      3607      4300      3720
 -1     21747    3    0    3
 -2      3344      3343      4969      3342
 -1     21748    3    0    3
 -2      3777      3381      4300      3751
 -1     21749    3    0    3
 -2      4971      4969      3939      4966
 -1     21750    3    0    3
 -2      4978      1928      1927      2229
 -1     21751    3    0    3
 -2      5781      4975      2230      5790
 -1     21752    3    0    3
 -2      4966      3939      3751      3528
 -1     21753    3    0    3
 -2      5534      3435      3373      3384
 -1     21754    3    0    3
 -2      3492        69      3899        70
 -1     21755    3    0    3
 -2       614      3899        69        70
 -1     21756    3    0    3
 -2      4972      4971      3696      4250
 -1     21757    3    0    3
 -2      3749      5542      3693      4975
 -1     21758    3    0    3
 -2      4884      4883      6249      3577
 -1     21759    3    0    3
 -2      3939      3720      3751      4975
 -1     21760    3    0    3
 -2      5769      2344      2241      5795
 -1     21761    3    0    3
 -2      4977      2026      2200      2290
 -1     21762    3    0    3
 -2      4966      4969      3939      4965
 -1     21763    3    0    3
 -2      2241      5758      2091      5801
 -1     21764    3    0    3
 -2      3528      4966      3939      4965
 -1     21765    3    0    3
 -2      3777      3751      4975      3528
 -1     21766    3    0    3
 -2      3384      5534      3435      4250
 -1     21767    3    0    3
 -2      2229      4978      1928      5781
 -1     21768    3    0    3
 -2      6225      2221      2224      6573
 -1     21769    3    0    3
 -2      1922      3466      2026      4977
 -1     21770    3    0    3
 -2       641      5478       962       795
 -1     21771    3    0    3
 -2      3939      4969      4978      1928
 -1     21772    3    0    3
 -2      1619      6376      1521      1441
 -1     21773    3    0    3
 -2      2160      2201      2202      5785
 -1     21774    3    0    3
 -2      4993      2296      4992      5769
 -1     21775    3    0    3
 -2      4965      4969      3939      1928
 -1     21776    3    0    3
 -2      4975      3777      3528      3998
 -1     21777    3    0    3
 -2      3777      4975      4974      3998
 -1     21778    3    0    3
 -2      5478       613      5481       795
 -1     21779    3    0    3
 -2      4943      1859      1773      1915
 -1     21780    3    0    3
 -2      5544      3715      3749      4977
 -1     21781    3    0    3
 -2      4383      5045      3873      5043
 -1     21782    3    0    3
 -2       572      4016      4071       503
 -1     21783    3    0    3
 -2      3745      4976      3715      3524
 -1     21784    3    0    3
 -2      5041      5044      3715      4245
 -1     21785    3    0    3
 -2      4395      3452      4419      5504
 -1     21786    3    0    3
 -2      3749      6250      4974      5785
 -1     21787    3    0    3
 -2      3749      6250      5785      4976
 -1     21788    3    0    3
 -2        64       613        65       795
 -1     21789    3    0    3
 -2      2085      5780      2150      5863
 -1     21790    3    0    3
 -2      5606      3745      3715      5041
 -1     21791    3    0    3
 -2      3715      3466      3935      4977
 -1     21792    3    0    3
 -2      4370      4904      4902      6250
 -1     21793    3    0    3
 -2      3952      5048      4485      5046
 -1     21794    3    0    3
 -2      4192       496       557      4383
 -1     21795    3    0    3
 -2      1753      5042      1922      1840
 -1     21796    3    0    3
 -2      5785      5782      2201      5786
 -1     21797    3    0    3
 -2      6289       154      3404      5460
 -1     21798    3    0    3
 -2      3693      5544      3749      4977
 -1     21799    3    0    3
 -2      3524      4976      3715      3935
 -1     21800    3    0    3
 -2      6673      2787      2869      2807
 -1     21801    3    0    3
 -2      2085      5780      5863      5831
 -1     21802    3    0    3
 -2      5041      5039      4442      4071
 -1     21803    3    0    3
 -2      5042      5039      4442      3935
 -1     21804    3    0    3
 -2      3998       340      3320      3394
 -1     21805    3    0    3
 -2      3715      5606      5041      4245
 -1     21806    3    0    3
 -2      3715      5609      5606      4245
 -1     21807    3    0    3
 -2      6105      3675      3703      5441
 -1     21808    3    0    3
 -2       537       508      3997      4025
 -1     21809    3    0    3
 -2      1922      5039      1923      1840
 -1     21810    3    0    3
 -2       642      1055      3848      1054
 -1     21811    3    0    3
 -2      3811      4134      5050      5052
 -1     21812    3    0    3
 -2      5050      4134      5049       565
 -1     21813    3    0    3
 -2      6309      3959      6071      5397
 -1     21814    3    0    3
 -2      4241      5609      3715      3691
 -1     21815    3    0    3
 -2      2745      2763      2764      5406
 -1     21816    3    0    3
 -2      3466      3715      3935      5044
 -1     21817    3    0    3
 -2      5043        87       600       527
 -1     21818    3    0    3
 -2      5610      5045      3691      3659
 -1     21819    3    0    3
 -2      4357      5606      5609      4245
 -1     21820    3    0    3
 -2      5041      5606      3745      4268
 -1     21821    3    0    3
 -2       612      4245       502      4217
 -1     21822    3    0    3
 -2      4011      5044       612      4217
 -1     21823    3    0    3
 -2      3691      3466      5045      5044
 -1     21824    3    0    3
 -2      3466      4011      5045      5044
 -1     21825    3    0    3
 -2      2738      5474      5473       648
 -1     21826    3    0    3
 -2      4931      4928      6432      1979
 -1     21827    3    0    3
 -2      1155       868      5545      6473
 -1     21828    3    0    3
 -2      3540      5547      3626      3659
 -1     21829    3    0    3
 -2       242       241      2738       648
 -1     21830    3    0    3
 -2      5457       767      5456      3994
 -1     21831    3    0    3
 -2      4975      3777      5542      3751
 -1     21832    3    0    3
 -2      3693      5547      5545      5774
 -1     21833    3    0    3
 -2      3777      4975      5542      3749
 -1     21834    3    0    3
 -2      5771      6395       951      5541
 -1     21835    3    0    3
 -2      4891      1891      1696      2063
 -1     21836    3    0    3
 -2      4071      5039      4442       526
 -1     21837    3    0    3
 -2      1708      5046      5047      2012
 -1     21838    3    0    3
 -2      3935      4442      5044      5041
 -1     21839    3    0    3
 -2       503      4071      5039      5038
 -1     21840    3    0    3
 -2      3848       642      1054       648
 -1     21841    3    0    3
 -2      4202      6603      4225      4605
 -1     21842    3    0    3
 -2      3848      5474       642       648
 -1     21843    3    0    3
 -2      4016      5040      4071      5038
 -1     21844    3    0    3
 -2      3821      4098      3796      5508
 -1     21845    3    0    3
 -2      6673      2787      5891      2869
 -1     21846    3    0    3
 -2      3935      3524      5039      5041
 -1     21847    3    0    3
 -2      4939       542      4940      3674
 -1     21848    3    0    3
 -2      3745      5605      3556      4342
 -1     21849    3    0    3
 -2      4357       502       500      4245
 -1     21850    3    0    3
 -2      4166       497       579       496
 -1     21851    3    0    3
 -2      3684      5609      5610      4217
 -1     21852    3    0    3
 -2      5045      5610      3691      4217
 -1     21853    3    0    3
 -2      3691      5610      5609      4217
 -1     21854    3    0    3
 -2      4071       573       572       503
 -1     21855    3    0    3
 -2      2204      6268      4886      6432
 -1     21856    3    0    3
 -2      3987      3796      5605      4268
 -1     21857    3    0    3
 -2      5606      3987      5605      4268
 -1     21858    3    0    3
 -2      5040      5605      3796      4268
 -1     21859    3    0    3
 -2      3821      4098       623      3796
 -1     21860    3    0    3
 -2      5040      3524      4071      5038
 -1     21861    3    0    3
 -2      3524      5041      5040      4071
 -1     21862    3    0    3
 -2      5041      3524      5039      4071
 -1     21863    3    0    3
 -2      3987       500      3796      4268
 -1     21864    3    0    3
 -2      5044      4442      4011       612
 -1     21865    3    0    3
 -2      5610      4192       530      4217
 -1     21866    3    0    3
 -2      3821      4098      3698       623
 -1     21867    3    0    3
 -2      3821      4098      5508      3698
 -1     21868    3    0    3
 -2      5615       907       775      5616
 -1     21869    3    0    3
 -2       621      3796      3821       623
 -1     21870    3    0    3
 -2      5039      5042      4442       526
 -1     21871    3    0    3
 -2      4071      4442       573       526
 -1     21872    3    0    3
 -2       600       527      4011      5043
 -1     21873    3    0    3
 -2      4245      5044      5609      4217
 -1     21874    3    0    3
 -2      4011      5042      3466      5043
 -1     21875    3    0    3
 -2       752      2772      4179       244
 -1     21876    3    0    3
 -2       815      4179      2775       244
 -1     21877    3    0    3
 -2      1752      1753      5043      2026
 -1     21878    3    0    3
 -2      1375      5656      5731      5730
 -1     21879    3    0    3
 -2       496      5048      4166      3952
 -1     21880    3    0    3
 -2       496       530      4192       557
 -1     21881    3    0    3
 -2       530      4192       579       496
 -1     21882    3    0    3
 -2      4192      5048       496      4383
 -1     21883    3    0    3
 -2      3952       496      5048      4383
 -1     21884    3    0    3
 -2      5044      3691      5609      4217
 -1     21885    3    0    3
 -2      5045      3691      5044      4217
 -1     21886    3    0    3
 -2       526      4071      5039       503
 -1     21887    3    0    3
 -2      5859      6073      6071      5396
 -1     21888    3    0    3
 -2       565        85      1770        84
 -1     21889    3    0    3
 -2      4108      5617      3568      5052
 -1     21890    3    0    3
 -2      5617      3598      3568      5052
 -1     21891    3    0    3
 -2      3598      5617      4134      5052
 -1     21892    3    0    3
 -2      5617      4108      4134      5052
 -1     21893    3    0    3
 -2       636      4108       587       566
 -1     21894    3    0    3
 -2       638      4108       636       566
 -1     21895    3    0    3
 -2      3466      4977      3873      6477
 -1     21896    3    0    3
 -2       815      5838      5470      4179
 -1     21897    3    0    3
 -2        72      5075      1825      1798
 -1     21898    3    0    3
 -2      4128      5409      3920      5408
 -1     21899    3    0    3
 -2      3970      2764      2780      2772
 -1     21900    3    0    3
 -2      3811      5049      4485      5047
 -1     21901    3    0    3
 -2      5051      1814      5050      2094
 -1     21902    3    0    3
 -2      5039        89      1840       526
 -1     21903    3    0    3
 -2      4383      3873      5046      5043
 -1     21904    3    0    3
 -2       557       612       530      4217
 -1     21905    3    0    3
 -2      4011       612       557      4217
 -1     21906    3    0    3
 -2      5877      5371      4132      5878
 -1     21907    3    0    3
 -2       557       530      4192      4217
 -1     21908    3    0    3
 -2      5371      5877      4132      6074
 -1     21909    3    0    3
 -2      6237      5338      5309      3717
 -1     21910    3    0    3
 -2      5050      5049      3811      5047
 -1     21911    3    0    3
 -2       495      5047      3952       565
 -1     21912    3    0    3
 -2        85      5047       495       565
 -1     21913    3    0    3
 -2       157      5787      3423       645
 -1     21914    3    0    3
 -2      3952       497       495       565
 -1     21915    3    0    3
 -2      6673      2787      6672      5891
 -1     21916    3    0    3
 -2      2026      4977      3466      6477
 -1     21917    3    0    3
 -2      5047      5050      5049       565
 -1     21918    3    0    3
 -2      4134       497      5049       565
 -1     21919    3    0    3
 -2      5043      5046       600      1752
 -1     21920    3    0    3
 -2      5048      3873      5046      4383
 -1     21921    3    0    3
 -2      1770        85      5047      1708
 -1     21922    3    0    3
 -2      3749      5790      4977      5785
 -1     21923    3    0    3
 -2      5408       918       820      1064
 -1     21924    3    0    3
 -2      5039        89       503      1794
 -1     21925    3    0    3
 -2       557       496       600      4383
 -1     21926    3    0    3
 -2       566       497      4134       565
 -1     21927    3    0    3
 -2      1375      5656      6344      5731
 -1     21928    3    0    3
 -2      5045       557      4011      4383
 -1     21929    3    0    3
 -2       612      4011       557       527
 -1     21930    3    0    3
 -2       573      4442       612       526
 -1     21931    3    0    3
 -2       526      5042      4442       527
 -1     21932    3    0    3
 -2      4442      5042      4011       527
 -1     21933    3    0    3
 -2       526      4442       612       527
 -1     21934    3    0    3
 -2       612      4442      4011       527
 -1     21935    3    0    3
 -2       496       495       600      4383
 -1     21936    3    0    3
 -2       495       496      3952      4383
 -1     21937    3    0    3
 -2       600       495      5046      4383
 -1     21938    3    0    3
 -2       495      3952      5046      4383
 -1     21939    3    0    3
 -2       503      4016      4071      5038
 -1     21940    3    0    3
 -2      5042        88      1753       527
 -1     21941    3    0    3
 -2      5042        88       526      1840
 -1     21942    3    0    3
 -2       526      5039      5042      1840
 -1     21943    3    0    3
 -2      1922      5042      5039      1840
 -1     21944    3    0    3
 -2      5408       918      5789      4480
 -1     21945    3    0    3
 -2      4383       600      4011      5043
 -1     21946    3    0    3
 -2      5046       600      4383      5043
 -1     21947    3    0    3
 -2      6322      1536      1623      5351
 -1     21948    3    0    3
 -2      5046      5047       495      1708
 -1     21949    3    0    3
 -2      5046      4485      5047      2012
 -1     21950    3    0    3
 -2      5408       918      4480       820
 -1     21951    3    0    3
 -2      5408       918      1064      5789
 -1     21952    3    0    3
 -2      3524      3935      5039      5782
 -1     21953    3    0    3
 -2      4016      4944      4946      3470
 -1     21954    3    0    3
 -2        33      5643       593       781
 -1     21955    3    0    3
 -2      5038      3524      5039      5782
 -1     21956    3    0    3
 -2      3935      3524      4976      5782
 -1     21957    3    0    3
 -2      6289       154       155      3404
 -1     21958    3    0    3
 -2      5038      5039      1923      5782
 -1     21959    3    0    3
 -2      1758      5935      2023      5014
 -1     21960    3    0    3
 -2      5868      6380       486      6742
 -1     21961    3    0    3
 -2      5040      4016      4946      3470
 -1     21962    3    0    3
 -2      1840      5039      1923      1794
 -1     21963    3    0    3
 -2      5039      5038      1923      1794
 -1     21964    3    0    3
 -2        88       526      1840        89
 -1     21965    3    0    3
 -2      5042        88      1840      1753
 -1     21966    3    0    3
 -2      5042        88       527       526
 -1     21967    3    0    3
 -2      3735       603       637      4266
 -1     21968    3    0    3
 -2      3735       603       620       637
 -1     21969    3    0    3
 -2      3735       603      4266      3879
 -1     21970    3    0    3
 -2      3735       603      3879       620
 -1     21971    3    0    3
 -2      5047        85       495      1708
 -1     21972    3    0    3
 -2       495       600      5046        86
 -1     21973    3    0    3
 -2      5039        89      1794      1840
 -1     21974    3    0    3
 -2      2012      2290      2026      6477
 -1     21975    3    0    3
 -2      5050      1770      5047      1926
 -1     21976    3    0    3
 -2        86      5046      1708      1752
 -1     21977    3    0    3
 -2      5045       557      4192      4217
 -1     21978    3    0    3
 -2       565      1770      5050        84
 -1     21979    3    0    3
 -2      5050       564       565        84
 -1     21980    3    0    3
 -2      2432      5769      2430      5836
 -1     21981    3    0    3
 -2      1928      4975      2230      5781
 -1     21982    3    0    3
 -2      3667      5546      5545      3631
 -1     21983    3    0    3
 -2      5544      4977      3659      3691
 -1     21984    3    0    3
 -2      3749      5790      4975      3693
 -1     21985    3    0    3
 -2      5043      3466      3873      6477
 -1     21986    3    0    3
 -2      2775      3970      2780      2772
 -1     21987    3    0    3
 -2      6322      1536      5351      6020
 -1     21988    3    0    3
 -2      3466      5043      2026      6477
 -1     21989    3    0    3
 -2      4980      2012      4485      6477
 -1     21990    3    0    3
 -2      3413       336       337      1751
 -1     21991    3    0    3
 -2      2026      1922      4977      2200
 -1     21992    3    0    3
 -2      5782      1922      2201      5786
 -1     21993    3    0    3
 -2      4167       926      1041      5526
 -1     21994    3    0    3
 -2      3939      4978      4975      1928
 -1     21995    3    0    3
 -2      1923      2201      2161      5782
 -1     21996    3    0    3
 -2      5782      2030      5038      6485
 -1     21997    3    0    3
 -2      2200      4977      2290      5790
 -1     21998    3    0    3
 -2      4976      3524      4342      3470
 -1     21999    3    0    3
 -2      5716      2095      2103      6330
 -1     22000    3    0    3
 -2      3998      1795      5788      5791
 -1     22001    3    0    3
 -2      2093      2165      4970      1927
 -1     22002    3    0    3
 -2      1758      5935      2024      2023
 -1     22003    3    0    3
 -2      3590      4128      3920      5408
 -1     22004    3    0    3
 -2      3998      3528      2083      1718
 -1     22005    3    0    3
 -2      6757      2256      2229      2395
 -1     22006    3    0    3
 -2      1927      4969      4970      1727
 -1     22007    3    0    3
 -2      2094      5792      5770      4981
 -1     22008    3    0    3
 -2      5039      1922      1923      5782
 -1     22009    3    0    3
 -2       815      2775       243       244
 -1     22010    3    0    3
 -2      5478      1055       641       962
 -1     22011    3    0    3
 -2      2085      5780      5831      2212
 -1     22012    3    0    3
 -2      4974      4975      3749      5785
 -1     22013    3    0    3
 -2      2094      5792      2154      2142
 -1     22014    3    0    3
 -2      3394      3528      3443      3405
 -1     22015    3    0    3
 -2      1751      1750       337      6564
 -1     22016    3    0    3
 -2      2772       752      4179      5409
 -1     22017    3    0    3
 -2      3654      4284      4507      4901
 -1     22018    3    0    3
 -2      3345      1860       339      5791
 -1     22019    3    0    3
 -2       648      3848      1006      1054
 -1     22020    3    0    3
 -2      3342       341      4965      3394
 -1     22021    3    0    3
 -2      4167       926      5520      1041
 -1     22022    3    0    3
 -2      3993      4023      4831      5394
 -1     22023    3    0    3
 -2      3528      3939      4975      1928
 -1     22024    3    0    3
 -2      4969       342      1717      3342
 -1     22025    3    0    3
 -2      3811      4134      3598      5049
 -1     22026    3    0    3
 -2      1927      2165      4978      2229
 -1     22027    3    0    3
 -2      1718      4965      3528      1928
 -1     22028    3    0    3
 -2      5051      4981      5050      4431
 -1     22029    3    0    3
 -2      3435      5530      5535      3395
 -1     22030    3    0    3
 -2      3362      3672      3445      4968
 -1     22031    3    0    3
 -2      4978      4970      3880      2165
 -1     22032    3    0    3
 -2      2229      6757      2395      2165
 -1     22033    3    0    3
 -2      2229      6757      2165      4978
 -1     22034    3    0    3
 -2      5051      4981      4431      3759
 -1     22035    3    0    3
 -2      4973      3851      4984      5811
 -1     22036    3    0    3
 -2       773       250       251      2766
 -1     22037    3    0    3
 -2      5046      3873      4485      6477
 -1     22038    3    0    3
 -2      2165      4970      3880      2093
 -1     22039    3    0    3
 -2      4973      6758      4979      5778
 -1     22040    3    0    3
 -2      5794      4978      4980      6757
 -1     22041    3    0    3
 -2      1928      4978      4975      5781
 -1     22042    3    0    3
 -2      5792      3631      4979      6757
 -1     22043    3    0    3
 -2      3458      6244      4435      5464
 -1     22044    3    0    3
 -2      5184      6442      5714      6451
 -1     22045    3    0    3
 -2      2230      2229      1928      5781
 -1     22046    3    0    3
 -2      2142      2256      1926      5770
 -1     22047    3    0    3
 -2      5777      2395      2419      5792
 -1     22048    3    0    3
 -2      5652       258      5665      1692
 -1     22049    3    0    3
 -2      5767      4474      4994      4996
 -1     22050    3    0    3
 -2      3636      3729      3675      4880
 -1     22051    3    0    3
 -2      3527      1916      4943      4940
 -1     22052    3    0    3
 -2      3954      4320      3926      3892
 -1     22053    3    0    3
 -2      5761      6478      1108      6476
 -1     22054    3    0    3
 -2      5560      4993      3479      3510
 -1     22055    3    0    3
 -2      4979      3631      4978      6757
 -1     22056    3    0    3
 -2      3631      3811      5770      4981
 -1     22057    3    0    3
 -2      2165      2395      2420      5777
 -1     22058    3    0    3
 -2      3494      6475       989      5190
 -1     22059    3    0    3
 -2      4983      4960      3549      5780
 -1     22060    3    0    3
 -2      2782      2766      3521      2784
 -1     22061    3    0    3
 -2      2382      5798      6733      6723
 -1     22062    3    0    3
 -2      5593      5562      6767      5743
 -1     22063    3    0    3
 -2      4344      3866      3830      5469
 -1     22064    3    0    3
 -2      5780      3798      5863      4960
 -1     22065    3    0    3
 -2      5055      3704      5058      5800
 -1     22066    3    0    3
 -2      5761      6478      6476      5542
 -1     22067    3    0    3
 -2      3642      4274      5062      5809
 -1     22068    3    0    3
 -2      3811      3631      5770      4980
 -1     22069    3    0    3
 -2      4384      1215      4012      5545
 -1     22070    3    0    3
 -2      4991      2570      5862      6760
 -1     22071    3    0    3
 -2      2570      4991      5862      5837
 -1     22072    3    0    3
 -2      5557      6392      1296      1367
 -1     22073    3    0    3
 -2      2397      4986      4983      5684
 -1     22074    3    0    3
 -2      1659      1663      1069      5858
 -1     22075    3    0    3
 -2      5063        78       599      1762
 -1     22076    3    0    3
 -2      5066       504      5063      1734
 -1     22077    3    0    3
 -2      2001      4973      2164      5811
 -1     22078    3    0    3
 -2      2432      2344      4990      2425
 -1     22079    3    0    3
 -2      4993      3510      4991      5769
 -1     22080    3    0    3
 -2      4993      4991      5678      5769
 -1     22081    3    0    3
 -2      4056      5992      6007      5381
 -1     22082    3    0    3
 -2      1990      6733      2251      5767
 -1     22083    3    0    3
 -2      5817      3576      4984      4985
 -1     22084    3    0    3
 -2      5547      5545      6778      3631
 -1     22085    3    0    3
 -2      2382      2383      2571      6723
 -1     22086    3    0    3
 -2      4997      4474      4995      5798
 -1     22087    3    0    3
 -2      3103      3105      4391      3153
 -1     22088    3    0    3
 -2      5552      3542      3576      4985
 -1     22089    3    0    3
 -2      5571      5683      6368      6349
 -1     22090    3    0    3
 -2      6723      2382      2383      6733
 -1     22091    3    0    3
 -2      4994      4996      3453      5797
 -1     22092    3    0    3
 -2      5063      1975      1762      5062
 -1     22093    3    0    3
 -2      2666      2382      2571      6723
 -1     22094    3    0    3
 -2      3488      4963      4964      2548
 -1     22095    3    0    3
 -2      3848      1167      1006      1054
 -1     22096    3    0    3
 -2      2619      4989      2618      2617
 -1     22097    3    0    3
 -2      4994      2569      2666      2339
 -1     22098    3    0    3
 -2      3576      3542      4984      4985
 -1     22099    3    0    3
 -2      4833      4839      4222      6234
 -1     22100    3    0    3
 -2      5063      1975      4274      1974
 -1     22101    3    0    3
 -2      4989      4995      4502      5764
 -1     22102    3    0    3
 -2      2492      2490      2570      5862
 -1     22103    3    0    3
 -2      2492      2570      2569      5862
 -1     22104    3    0    3
 -2      3542      5552      3482      4985
 -1     22105    3    0    3
 -2      1528      6351      5886      1599
 -1     22106    3    0    3
 -2      3920       820      5409       819
 -1     22107    3    0    3
 -2      3482      5552      3516      4985
 -1     22108    3    0    3
 -2      4987      5554      3488      3457
 -1     22109    3    0    3
 -2      3482      3516      5555      4988
 -1     22110    3    0    3
 -2      2617      2536      2571      5764
 -1     22111    3    0    3
 -2      1975      2283      4996      1974
 -1     22112    3    0    3
 -2      2382      2283      2251      5767
 -1     22113    3    0    3
 -2       505        76        77      1735
 -1     22114    3    0    3
 -2      5764      4995      4994      6723
 -1     22115    3    0    3
 -2      5067        76       505      1735
 -1     22116    3    0    3
 -2      3583      5066      5063      1974
 -1     22117    3    0    3
 -2      1975      4996      4274      1974
 -1     22118    3    0    3
 -2      2051      5059      5058      1803
 -1     22119    3    0    3
 -2       599      5062      5063      1762
 -1     22120    3    0    3
 -2      2456      5917      2603      5749
 -1     22121    3    0    3
 -2      2181      5028      5744      5763
 -1     22122    3    0    3
 -2      4995      4417      4997      5744
 -1     22123    3    0    3
 -2      6322      1536      6020      1636
 -1     22124    3    0    3
 -2      4995      5026      4417      5744
 -1     22125    3    0    3
 -2      3453      4991      4994      5797
 -1     22126    3    0    3
 -2      5473      3668      4344      5838
 -1     22127    3    0    3
 -2      1044      1015      4242       774
 -1     22128    3    0    3
 -2      5055      5058      2066      5800
 -1     22129    3    0    3
 -2      3898      4480      5407      4283
 -1     22130    3    0    3
 -2      3806      3836      4848      5411
 -1     22131    3    0    3
 -2      5778      5795      6758      4979
 -1     22132    3    0    3
 -2      5059      4325      3642      5809
 -1     22133    3    0    3
 -2      4242      4436      3933      5402
 -1     22134    3    0    3
 -2      2456      5917      2457      2603
 -1     22135    3    0    3
 -2      5067       505      5066      1735
 -1     22136    3    0    3
 -2      1990      5067      5066      1735
 -1     22137    3    0    3
 -2      5066       505        77      1735
 -1     22138    3    0    3
 -2        77      5066      1735      1734
 -1     22139    3    0    3
 -2      2456      5917      5024      2457
 -1     22140    3    0    3
 -2      5062       562      5059      1802
 -1     22141    3    0    3
 -2      4993      3642      4325      5809
 -1     22142    3    0    3
 -2      5059      5058      4325      2051
 -1     22143    3    0    3
 -2      5059      3642      5062      5809
 -1     22144    3    0    3
 -2      2066      2291      4993      2051
 -1     22145    3    0    3
 -2      4839      3930      4840      3959
 -1     22146    3    0    3
 -2      4274      1975      5062      5809
 -1     22147    3    0    3
 -2       485      5868      3680       486
 -1     22148    3    0    3
 -2      2776       773       250       774
 -1     22149    3    0    3
 -2      1057       739       647      6323
 -1     22150    3    0    3
 -2      2282      4993      2291      2051
 -1     22151    3    0    3
 -2      4325      5058      2066      2051
 -1     22152    3    0    3
 -2      4030      3839      4633      6152
 -1     22153    3    0    3
 -2      3663      3955      4839      4518
 -1     22154    3    0    3
 -2      5058      4325      2066      5800
 -1     22155    3    0    3
 -2      3704      4993      4325      5800
 -1     22156    3    0    3
 -2      2296      4992      2040      5800
 -1     22157    3    0    3
 -2      5938      2147      5885      2168
 -1     22158    3    0    3
 -2      5058      3704      4325      5800
 -1     22159    3    0    3
 -2      4993      2066      4325      5800
 -1     22160    3    0    3
 -2      5911      2719      2515      5019
 -1     22161    3    0    3
 -2      2752      2761      2753      4049
 -1     22162    3    0    3
 -2      1802      5059      2051      1803
 -1     22163    3    0    3
 -2      2505      2360      4818      2565
 -1     22164    3    0    3
 -2      2456      5917      5749      5024
 -1     22165    3    0    3
 -2      4994      4995      4474      5798
 -1     22166    3    0    3
 -2      1762      1974      5063      1734
 -1     22167    3    0    3
 -2      2051      5058      2066      1803
 -1     22168    3    0    3
 -2      1974      1990      5066      1734
 -1     22169    3    0    3
 -2      5066        77       504      1734
 -1     22170    3    0    3
 -2      1974      5066      5063      1734
 -1     22171    3    0    3
 -2      5066      1990      1735      1734
 -1     22172    3    0    3
 -2       511      3666       575      4068
 -1     22173    3    0    3
 -2       511      3666       505       575
 -1     22174    3    0    3
 -2       511      3666      4068      5067
 -1     22175    3    0    3
 -2      1762        78       599        79
 -1     22176    3    0    3
 -2        41      5624       841      5627
 -1     22177    3    0    3
 -2      1802      5809      5059      5062
 -1     22178    3    0    3
 -2      4119      3277      3579      3207
 -1     22179    3    0    3
 -2      4119      3277      5284      3579
 -1     22180    3    0    3
 -2      5055       558      5054      1877
 -1     22181    3    0    3
 -2      2040      5055      5054      1877
 -1     22182    3    0    3
 -2       807      1691       255      1683
 -1     22183    3    0    3
 -2      5059       559      5058      1803
 -1     22184    3    0    3
 -2       559        80        81      1803
 -1     22185    3    0    3
 -2      1802      5809      1975      2051
 -1     22186    3    0    3
 -2      5627        40       509      5628
 -1     22187    3    0    3
 -2      5054       558       586        82
 -1     22188    3    0    3
 -2      5055      5058       558      1877
 -1     22189    3    0    3
 -2      1802      5809      2051      5059
 -1     22190    3    0    3
 -2      1993      1994      4961      2199
 -1     22191    3    0    3
 -2      4904      4395      4903      3527
 -1     22192    3    0    3
 -2      6252      3447      6217      4704
 -1     22193    3    0    3
 -2      1953      2247      2073      4902
 -1     22194    3    0    3
 -2      5532      3635      4968      4204
 -1     22195    3    0    3
 -2      5009      5008      4483      5805
 -1     22196    3    0    3
 -2      5855      5012      4349      5913
 -1     22197    3    0    3
 -2      5757      1334      5572      1244
 -1     22198    3    0    3
 -2      1549      6321      1448      1447
 -1     22199    3    0    3
 -2      5733      5034      2054      5914
 -1     22200    3    0    3
 -2      2866      5015      2827      2877
 -1     22201    3    0    3
 -2       381      1823      2868       380
 -1     22202    3    0    3
 -2      5850      5017      2859      5926
 -1     22203    3    0    3
 -2      2839      5017      1820      5802
 -1     22204    3    0    3
 -2      5716      4293      4240      5025
 -1     22205    3    0    3
 -2      5016      2825      2878      2785
 -1     22206    3    0    3
 -2      1818      1820      1992      5802
 -1     22207    3    0    3
 -2      5911      2719      5018      2712
 -1     22208    3    0    3
 -2      5024      2456      2455      2398
 -1     22209    3    0    3
 -2      4323      5017      4299      5013
 -1     22210    3    0    3
 -2      5022      2308      2514      2500
 -1     22211    3    0    3
 -2      5008      3460      5575      4483
 -1     22212    3    0    3
 -2      5910      4369      5019      4422
 -1     22213    3    0    3
 -2      5020      4447      4989      5746
 -1     22214    3    0    3
 -2       253       462       647      5895
 -1     22215    3    0    3
 -2      5018      2719      2688      2712
 -1     22216    3    0    3
 -2      4839      4020      5402      3959
 -1     22217    3    0    3
 -2      2639      4794      6025      5982
 -1     22218    3    0    3
 -2      4283      3955      3898      4518
 -1     22219    3    0    3
 -2      3989      3955      3663      4518
 -1     22220    3    0    3
 -2      2607      5021      5027      5917
 -1     22221    3    0    3
 -2      2137      5986      5828      2179
 -1     22222    3    0    3
 -2      4818      4820      2360      2505
 -1     22223    3    0    3
 -2      4506      5008      5018      5908
 -1     22224    3    0    3
 -2      2336      2551      2396      5660
 -1     22225    3    0    3
 -2      5006      5008      3460      6612
 -1     22226    3    0    3
 -2      4349      5590      5023      4299
 -1     22227    3    0    3
 -2      3930      5410      5403      3590
 -1     22228    3    0    3
 -2      2655      2515      5009      5911
 -1     22229    3    0    3
 -2      2137      5986      2179      2358
 -1     22230    3    0    3
 -2      5586      1487      6361      5589
 -1     22231    3    0    3
 -2      2642      5910      2662      2688
 -1     22232    3    0    3
 -2      4422      5585      5586      4454
 -1     22233    3    0    3
 -2      4454      5586      5576      5904
 -1     22234    3    0    3
 -2      5406      3970      5409      2764
 -1     22235    3    0    3
 -2      2549      2553      4964      2697
 -1     22236    3    0    3
 -2      5527      3497      3460      4962
 -1     22237    3    0    3
 -2      5407      2724      2723      2769
 -1     22238    3    0    3
 -2      6238      2760      4826      2756
 -1     22239    3    0    3
 -2       846       820       247      5407
 -1     22240    3    0    3
 -2      5404      2773      3732      2769
 -1     22241    3    0    3
 -2      4460      4428      5574      5007
 -1     22242    3    0    3
 -2      5020      5018      4422      5910
 -1     22243    3    0    3
 -2      1468      1485      1486      5806
 -1     22244    3    0    3
 -2      3920      5409       752       819
 -1     22245    3    0    3
 -2      5579      4375      4349      5012
 -1     22246    3    0    3
 -2      2500      5022      2307      5855
 -1     22247    3    0    3
 -2      4267      5590      5023      4321
 -1     22248    3    0    3
 -2      2236      5011      2336      2269
 -1     22249    3    0    3
 -2      4375      5580      4349      5013
 -1     22250    3    0    3
 -2      3664      6786      2126      4579
 -1     22251    3    0    3
 -2      5402      5396      3959      4020
 -1     22252    3    0    3
 -2       462      2721       461      5871
 -1     22253    3    0    3
 -2      2269      2236      5011      5807
 -1     22254    3    0    3
 -2      3435      5530      4971      5535
 -1     22255    3    0    3
 -2      1034      1438      1015      5859
 -1     22256    3    0    3
 -2      5005      4434      5003      5773
 -1     22257    3    0    3
 -2      5011      5010      2335      2336
 -1     22258    3    0    3
 -2      5398      3934      3872      5400
 -1     22259    3    0    3
 -2      5994      3652      6382      5327
 -1     22260    3    0    3
 -2      4436      4242      3933      5392
 -1     22261    3    0    3
 -2      3825      4829      4020      4049
 -1     22262    3    0    3
 -2      3898      4283      4518      4436
 -1     22263    3    0    3
 -2      4829      3663      4020      4518
 -1     22264    3    0    3
 -2      2562      2644      2555      5819
 -1     22265    3    0    3
 -2      4460      5010      5007      5899
 -1     22266    3    0    3
 -2      5000      3497      4952      5890
 -1     22267    3    0    3
 -2      5010      4375      4428      5012
 -1     22268    3    0    3
 -2      4955      1832      2105      1743
 -1     22269    3    0    3
 -2      2199      4961      2151      5834
 -1     22270    3    0    3
 -2      5526       926      1189      5655
 -1     22271    3    0    3
 -2      3460      5573      5527      5830
 -1     22272    3    0    3
 -2      5935      4800      5986      5003
 -1     22273    3    0    3
 -2       250       249      2776       774
 -1     22274    3    0    3
 -2      2698      2709      2644      5819
 -1     22275    3    0    3
 -2      5010      4428      4460      5007
 -1     22276    3    0    3
 -2      5009      4454      5008      5911
 -1     22277    3    0    3
 -2      1572      1571      1600      6775
 -1     22278    3    0    3
 -2      5392      1015       773       774
 -1     22279    3    0    3
 -2      2379      5967      6040      2424
 -1     22280    3    0    3
 -2      4406      4378      5570      5003
 -1     22281    3    0    3
 -2      5014      4378      4406      5003
 -1     22282    3    0    3
 -2      5390      3933      3521      5392
 -1     22283    3    0    3
 -2      5820      2663      2582      4998
 -1     22284    3    0    3
 -2      2873       368       369      1789
 -1     22285    3    0    3
 -2      5773      5986      5002      5003
 -1     22286    3    0    3
 -2       953      5367      6335      6341
 -1     22287    3    0    3
 -2      5007      5001      4460      5899
 -1     22288    3    0    3
 -2      2358      2616      5002      2595
 -1     22289    3    0    3
 -2      5004      4460      4486      5001
 -1     22290    3    0    3
 -2      6323      6074       860      5388
 -1     22291    3    0    3
 -2      2507      2682      2540      5981
 -1     22292    3    0    3
 -2      5013      2306      5914      5913
 -1     22293    3    0    3
 -2      5772       836      5582      6673
 -1     22294    3    0    3
 -2      1759      1736       372      6724
 -1     22295    3    0    3
 -2      2090      2176      2024      5933
 -1     22296    3    0    3
 -2      5003      5014      4378      5828
 -1     22297    3    0    3
 -2      3436      6564      3413      3346
 -1     22298    3    0    3
 -2      1789      2873       368      6755
 -1     22299    3    0    3
 -2      3971      4180      4472      4957
 -1     22300    3    0    3
 -2      3851      4967      4390      5866
 -1     22301    3    0    3
 -2      2206      2294      2421      4950
 -1     22302    3    0    3
 -2      3432      3391      4368      3363
 -1     22303    3    0    3
 -2      4455      3591      3436      6232
 -1     22304    3    0    3
 -2      2784      6751      2757      5389
 -1     22305    3    0    3
 -2      1888       346      3335      3337
 -1     22306    3    0    3
 -2      2039      1851      1994      5822
 -1     22307    3    0    3
 -2      5519      5518      4167      4150
 -1     22308    3    0    3
 -2      2093      4970      3880      4415
 -1     22309    3    0    3
 -2      4967      3335       345      3334
 -1     22310    3    0    3
 -2      3034       680      5369      5998
 -1     22311    3    0    3
 -2      3320      3355      3998      3405
 -1     22312    3    0    3
 -2       342      4969      1717      1727
 -1     22313    3    0    3
 -2      2221      2232      2231      6225
 -1     22314    3    0    3
 -2      4954      3363      1743      5873
 -1     22315    3    0    3
 -2      4493      4390      4982      4204
 -1     22316    3    0    3
 -2       739       253       647      5895
 -1     22317    3    0    3
 -2      3576      5550      5549      5839
 -1     22318    3    0    3
 -2      5530      3405      3397      4966
 -1     22319    3    0    3
 -2      5530      3405      3381      3397
 -1     22320    3    0    3
 -2      1953      6568      2231      2247
 -1     22321    3    0    3
 -2      3635      3445      4968      3851
 -1     22322    3    0    3
 -2      5700      5861      3933      5859
 -1     22323    3    0    3
 -2      3798      3549      4963      3580
 -1     22324    3    0    3
 -2      2843      2865      5367      6338
 -1     22325    3    0    3
 -2      4987      4964      2550      2548
 -1     22326    3    0    3
 -2      1608      1605      1624      6611
 -1     22327    3    0    3
 -2      5392      5393      4242       774
 -1     22328    3    0    3
 -2      4368      3391      4175      4472
 -1     22329    3    0    3
 -2      4431      3598      3568      4981
 -1     22330    3    0    3
 -2      5801      1813      2040      5054
 -1     22331    3    0    3
 -2      4986      4983      3549      5780
 -1     22332    3    0    3
 -2      5020      2619      2620      5746
 -1     22333    3    0    3
 -2      5020      5018      2667      5907
 -1     22334    3    0    3
 -2      2394      2397      4986      5780
 -1     22335    3    0    3
 -2      5586      4369      4422      5019
 -1     22336    3    0    3
 -2      2667      5018      2688      2712
 -1     22337    3    0    3
 -2      4983      2397      2212      5780
 -1     22338    3    0    3
 -2      4993      4499      4996      3453
 -1     22339    3    0    3
 -2      5548      5547      3598      4328
 -1     22340    3    0    3
 -2      5709      5738      5032      1930
 -1     22341    3    0    3
 -2      4446      5767      3583      4996
 -1     22342    3    0    3
 -2      1990      6733      2242      2251
 -1     22343    3    0    3
 -2      2548      4963      2390      2394
 -1     22344    3    0    3
 -2      4986      4987      3457      5869
 -1     22345    3    0    3
 -2      5587      5588      4422      5898
 -1     22346    3    0    3
 -2      2688      5018      5020      5910
 -1     22347    3    0    3
 -2      4974      4902      2073      6250
 -1     22348    3    0    3
 -2      2151      4963      2150      2390
 -1     22349    3    0    3
 -2      2549      4964      2390      2548
 -1     22350    3    0    3
 -2      4462      4845      3955      5405
 -1     22351    3    0    3
 -2      4477      4989      4987      5907
 -1     22352    3    0    3
 -2      3825      2736      2752      2733
 -1     22353    3    0    3
 -2      4987      3488      4964      2548
 -1     22354    3    0    3
 -2      2667      2550      5018      2712
 -1     22355    3    0    3
 -2      5586      4422      4454      5019
 -1     22356    3    0    3
 -2      5576      4428      4398      5009
 -1     22357    3    0    3
 -2      5007      2698      5006      5819
 -1     22358    3    0    3
 -2      4963      3488      3549      4986
 -1     22359    3    0    3
 -2      4964      2549      2390      2375
 -1     22360    3    0    3
 -2      3555      3584      5517      4952
 -1     22361    3    0    3
 -2      3415      3367      3647      3863
 -1     22362    3    0    3
 -2      2226      2399      4764      2280
 -1     22363    3    0    3
 -2      2327      4762      2214      2451
 -1     22364    3    0    3
 -2      4764      4950      3616      5821
 -1     22365    3    0    3
 -2      2534      4795      2591      2582
 -1     22366    3    0    3
 -2      6031      2047      4761      6032
 -1     22367    3    0    3
 -2      3615      5512      4182      4948
 -1     22368    3    0    3
 -2      2272      4899      2287      1943
 -1     22369    3    0    3
 -2      3866      4128      3970      5410
 -1     22370    3    0    3
 -2      1281      1438      1035      6073
 -1     22371    3    0    3
 -2      6026      4761      2047      6032
 -1     22372    3    0    3
 -2       752      1040      3920       819
 -1     22373    3    0    3
 -2      1256      5340      5931      5342
 -1     22374    3    0    3
 -2      4950      5515      3559      3616
 -1     22375    3    0    3
 -2      2006      4949      5879      5826
 -1     22376    3    0    3
 -2      3559      5358      4795      3588
 -1     22377    3    0    3
 -2      4950      3559      4764      3616
 -1     22378    3    0    3
 -2      2644      5006      2698      5819
 -1     22379    3    0    3
 -2      4795      4998      3559      5820
 -1     22380    3    0    3
 -2      4999      4998      3499      6373
 -1     22381    3    0    3
 -2      4344      3668      3830      5413
 -1     22382    3    0    3
 -2      1423      5376      6693      6493
 -1     22383    3    0    3
 -2      1726       353      3430      6750
 -1     22384    3    0    3
 -2      2743      4910      5471      5472
 -1     22385    3    0    3
 -2       353       352      1726      3430
 -1     22386    3    0    3
 -2      6169      6583      4033      2015
 -1     22387    3    0    3
 -2      3374      1851       352      3430
 -1     22388    3    0    3
 -2      1851      1726       352      3430
 -1     22389    3    0    3
 -2      3863      4951      4373      5822
 -1     22390    3    0    3
 -2      5482        63       531       757
 -1     22391    3    0    3
 -2      4036      2079      6174      6083
 -1     22392    3    0    3
 -2       962      1237       870      5669
 -1     22393    3    0    3
 -2      3555      4962      4961      5825
 -1     22394    3    0    3
 -2      2682      5982      2507      2639
 -1     22395    3    0    3
 -2      3415      3374      3430      3863
 -1     22396    3    0    3
 -2      5361      1219      6317      5363
 -1     22397    3    0    3
 -2      2075      4752      1885      2088
 -1     22398    3    0    3
 -2       353      3366      3430      6750
 -1     22399    3    0    3
 -2      3366      3367      3863      5883
 -1     22400    3    0    3
 -2      5373      1284      5372      5988
 -1     22401    3    0    3
 -2      3367      3415      3366      3863
 -1     22402    3    0    3
 -2      5414      5413      3848      5851
 -1     22403    3    0    3
 -2      5842      1167      1399      6800
 -1     22404    3    0    3
 -2      3848      4438      4070      5414
 -1     22405    3    0    3
 -2      5327      4764      3559      3616
 -1     22406    3    0    3
 -2      5411      3868      3806      5413
 -1     22407    3    0    3
 -2      5356      5358      3588      3531
 -1     22408    3    0    3
 -2      2451      4762      2214      2226
 -1     22409    3    0    3
 -2      2421      4950      4952      6654
 -1     22410    3    0    3
 -2      3998       340      1718      1795
 -1     22411    3    0    3
 -2      2552      5006      2625      2644
 -1     22412    3    0    3
 -2      3460      5575      5529      4506
 -1     22413    3    0    3
 -2      2698      5007      2709      5819
 -1     22414    3    0    3
 -2      6055      5971      6034      5370
 -1     22415    3    0    3
 -2      4952      2614      2421      6654
 -1     22416    3    0    3
 -2      2400      2280      2206      5821
 -1     22417    3    0    3
 -2      3615      5526      4961      3555
 -1     22418    3    0    3
 -2      4951      4961      1994      5825
 -1     22419    3    0    3
 -2      1993      1804      1832      4953
 -1     22420    3    0    3
 -2      1993      1832      4955      4953
 -1     22421    3    0    3
 -2      2614      2663      2421      6654
 -1     22422    3    0    3
 -2      4962      3497      3460      5006
 -1     22423    3    0    3
 -2      4480      5858      1069      5789
 -1     22424    3    0    3
 -2      4961      1994      3826      4951
 -1     22425    3    0    3
 -2      4964      2549      2550      2548
 -1     22426    3    0    3
 -2      5414      3767      5445      5669
 -1     22427    3    0    3
 -2      5411      3806      3836      5412
 -1     22428    3    0    3
 -2      4346      3615      4961      3826
 -1     22429    3    0    3
 -2      5575      1583      5573      5830
 -1     22430    3    0    3
 -2      5575      5573      3460      5830
 -1     22431    3    0    3
 -2      4346      3971      4955      4957
 -1     22432    3    0    3
 -2      5519      4167      3580      4150
 -1     22433    3    0    3
 -2      3526      5567      3497      5000
 -1     22434    3    0    3
 -2      4480      5858      4242      1069
 -1     22435    3    0    3
 -2      4955      3971      4954      4472
 -1     22436    3    0    3
 -2      5435      3810      5437      6081
 -1     22437    3    0    3
 -2      3369      3431      5511      3444
 -1     22438    3    0    3
 -2      3392      3391      3971      3393
 -1     22439    3    0    3
 -2      4346      1994      1993      4953
 -1     22440    3    0    3
 -2       350      1832      3392       349
 -1     22441    3    0    3
 -2      3798      4955      2105      5863
 -1     22442    3    0    3
 -2      3363       349      3392      4954
 -1     22443    3    0    3
 -2      2390      2151      4963      5834
 -1     22444    3    0    3
 -2      1832      1993      4955      2105
 -1     22445    3    0    3
 -2      2199      2375      4962      5834
 -1     22446    3    0    3
 -2      3497      5567      4515      5000
 -1     22447    3    0    3
 -2      5438      1607      5437      5670
 -1     22448    3    0    3
 -2      3836      4838      4837      3872
 -1     22449    3    0    3
 -2      3516      3576      4983      4985
 -1     22450    3    0    3
 -2      5482      3455      4165      6282
 -1     22451    3    0    3
 -2      3363      1743       349      4954
 -1     22452    3    0    3
 -2      4472      4180      3391      3614
 -1     22453    3    0    3
 -2      2401      2421      2294      4952
 -1     22454    3    0    3
 -2      3810      5399      4836      3872
 -1     22455    3    0    3
 -2      3836      4849      3785      5412
 -1     22456    3    0    3
 -2      2553      2549      4964      2375
 -1     22457    3    0    3
 -2      5527      5573      1583      5830
 -1     22458    3    0    3
 -2      2135      2314      2387      6772
 -1     22459    3    0    3
 -2      3497      5573      5527      3460
 -1     22460    3    0    3
 -2      4506      5554      4987      4477
 -1     22461    3    0    3
 -2      2697      2553      4964      5008
 -1     22462    3    0    3
 -2      1444      1658      5401      6675
 -1     22463    3    0    3
 -2      5006      4962      3497      5890
 -1     22464    3    0    3
 -2      4961      4962      3522      5834
 -1     22465    3    0    3
 -2      3872      5399      5398      5845
 -1     22466    3    0    3
 -2      3954      4320      3892      5190
 -1     22467    3    0    3
 -2      2548      3488      4963      4986
 -1     22468    3    0    3
 -2      4170      2071      5070      5763
 -1     22469    3    0    3
 -2      4963      2390      4964      2548
 -1     22470    3    0    3
 -2      2199      2151      2375      5834
 -1     22471    3    0    3
 -2      6550      5550      5525      5804
 -1     22472    3    0    3
 -2      5021      5588      4369      4422
 -1     22473    3    0    3
 -2      4477      4422      5587      5020
 -1     22474    3    0    3
 -2      2394      4963      2150      5780
 -1     22475    3    0    3
 -2      2390      4963      2150      2394
 -1     22476    3    0    3
 -2      2618      4989      2651      2535
 -1     22477    3    0    3
 -2      2536      4989      2618      2535
 -1     22478    3    0    3
 -2      5709      5738      1930      2248
 -1     22479    3    0    3
 -2      3959      4834      3993      5397
 -1     22480    3    0    3
 -2      2651      4987      2550      2548
 -1     22481    3    0    3
 -2      5403      1412      1555      1477
 -1     22482    3    0    3
 -2      3488      5553      5528      3549
 -1     22483    3    0    3
 -2      3966      4835      3907      5398
 -1     22484    3    0    3
 -2      3488      5528      4963      3549
 -1     22485    3    0    3
 -2      4968      3445      4967      3851
 -1     22486    3    0    3
 -2      6722      4979      5777      5792
 -1     22487    3    0    3
 -2      4994      4988      5751      5862
 -1     22488    3    0    3
 -2      3542      4990      4984      5860
 -1     22489    3    0    3
 -2      4963      2394      4986      5780
 -1     22490    3    0    3
 -2      5400      5401      3872      5845
 -1     22491    3    0    3
 -2      2426      2521      2490      5837
 -1     22492    3    0    3
 -2      4880      4882      3636      3699
 -1     22493    3    0    3
 -2      1167      5842      5851      6800
 -1     22494    3    0    3
 -2      3785      4849      3753      5412
 -1     22495    3    0    3
 -2      5412      3806      3753      5414
 -1     22496    3    0    3
 -2      2548      4987      3488      4986
 -1     22497    3    0    3
 -2      4849      3806      3753      5412
 -1     22498    3    0    3
 -2      4849      3836      3806      5412
 -1     22499    3    0    3
 -2      4967      2001      2119      3851
 -1     22500    3    0    3
 -2      3445      3362      4968      3334
 -1     22501    3    0    3
 -2      3362      5532      3371      3672
 -1     22502    3    0    3
 -2      4985      2426      2490      5837
 -1     22503    3    0    3
 -2      4438      3752      3779      5414
 -1     22504    3    0    3
 -2      4431      3598      5052      3568
 -1     22505    3    0    3
 -2      4985      3542      4984      5837
 -1     22506    3    0    3
 -2      3635      5551      4984      3576
 -1     22507    3    0    3
 -2       555      5487      4101      4112
 -1     22508    3    0    3
 -2      6709      2228      4851      5676
 -1     22509    3    0    3
 -2       555      5487       554      3700
 -1     22510    3    0    3
 -2      5552      5550      3516      3576
 -1     22511    3    0    3
 -2      4859      3792      5424      4312
 -1     22512    3    0    3
 -2      4959      5523      3428      3638
 -1     22513    3    0    3
 -2      2119      4967      3851      5866
 -1     22514    3    0    3
 -2      4390      3635      4982      4204
 -1     22515    3    0    3
 -2      4970      2093      1927      1727
 -1     22516    3    0    3
 -2      2093      4973      2164      2001
 -1     22517    3    0    3
 -2      5410      3930      5403      3868
 -1     22518    3    0    3
 -2      5406      4846      3866      2779
 -1     22519    3    0    3
 -2      3445      2001      4973      1876
 -1     22520    3    0    3
 -2      1792      1888       345      4967
 -1     22521    3    0    3
 -2      2115      4331      3712      4898
 -1     22522    3    0    3
 -2      3880      4972      4224      4415
 -1     22523    3    0    3
 -2      3364       347      1742      4958
 -1     22524    3    0    3
 -2      2001      2093      4973      1876
 -1     22525    3    0    3
 -2      3635      4982      5549      3576
 -1     22526    3    0    3
 -2      3635      5549      5551      3576
 -1     22527    3    0    3
 -2      4984      4982      3635      3576
 -1     22528    3    0    3
 -2      1431      6775      1571      5573
 -1     22529    3    0    3
 -2        70      5474       241       642
 -1     22530    3    0    3
 -2      4472      3391      4175      3614
 -1     22531    3    0    3
 -2      5839      1023      1211      6547
 -1     22532    3    0    3
 -2      6477      1752      2026      2012
 -1     22533    3    0    3
 -2      4846      5406      3866      4433
 -1     22534    3    0    3
 -2       342       341      1717      3342
 -1     22535    3    0    3
 -2      1717      4965      4969      3342
 -1     22536    3    0    3
 -2      3696      5536      4972      4250
 -1     22537    3    0    3
 -2      4850      4059      3830      5685
 -1     22538    3    0    3
 -2      1758      5935      5755      2024
 -1     22539    3    0    3
 -2      3751      3777      3381      3405
 -1     22540    3    0    3
 -2      5733      2102      5902      2109
 -1     22541    3    0    3
 -2      4972      3880      4970      4415
 -1     22542    3    0    3
 -2      1928      4965      4969      1717
 -1     22543    3    0    3
 -2      1928      1718      4965      1717
 -1     22544    3    0    3
 -2      5478      1055       962      4438
 -1     22545    3    0    3
 -2      5762      1477      1411      5840
 -1     22546    3    0    3
 -2      5413      5410      4344      5762
 -1     22547    3    0    3
 -2      2716      2714      2713      5654
 -1     22548    3    0    3
 -2      3528      4965      3394      3443
 -1     22549    3    0    3
 -2      5413      5411      3868      5840
 -1     22550    3    0    3
 -2       341      1718      4965      3394
 -1     22551    3    0    3
 -2       340      1718       341      3394
 -1     22552    3    0    3
 -2      1927      1928      4969      1717
 -1     22553    3    0    3
 -2      3998      3355      3777      3405
 -1     22554    3    0    3
 -2      1949      5817      2270      5856
 -1     22555    3    0    3
 -2      5762      1477      5403      5789
 -1     22556    3    0    3
 -2      1718      3998      3528      3394
 -1     22557    3    0    3
 -2      3934      6010      5659      5395
 -1     22558    3    0    3
 -2      3397      4966      3443      3344
 -1     22559    3    0    3
 -2      2093      4970      1876      1727
 -1     22560    3    0    3
 -2      3998      3777      3528      3405
 -1     22561    3    0    3
 -2      3591      4455      4902      6232
 -1     22562    3    0    3
 -2      4840      3930      3868      5403
 -1     22563    3    0    3
 -2      1949      5817      5856      5866
 -1     22564    3    0    3
 -2      3384      4224      5534      4250
 -1     22565    3    0    3
 -2      2786      6683      6671      5857
 -1     22566    3    0    3
 -2      4840      3959      3930      5403
 -1     22567    3    0    3
 -2      2479      2469      2480      5690
 -1     22568    3    0    3
 -2       247       820      2724      5407
 -1     22569    3    0    3
 -2       927       807      6692       808
 -1     22570    3    0    3
 -2      3902      4834      4837      5844
 -1     22571    3    0    3
 -2      5843      5883      4949      5822
 -1     22572    3    0    3
 -2      5412      5671      1302      5842
 -1     22573    3    0    3
 -2      3635      5532      3600      4204
 -1     22574    3    0    3
 -2      3798      1993      4346      4961
 -1     22575    3    0    3
 -2      3614      5519      3597      3580
 -1     22576    3    0    3
 -2      4961      4346      3580      4150
 -1     22577    3    0    3
 -2      1742      2104      2085      5831
 -1     22578    3    0    3
 -2      3822      4958      4493      4959
 -1     22579    3    0    3
 -2      4368      3822      4175      4959
 -1     22580    3    0    3
 -2      3516      4988      4985      5684
 -1     22581    3    0    3
 -2      4390      4968      3635      4204
 -1     22582    3    0    3
 -2      4982      4493      4204      3638
 -1     22583    3    0    3
 -2      3362      5532      3672      4968
 -1     22584    3    0    3
 -2      5684      4988      4985      6801
 -1     22585    3    0    3
 -2      3898      5393      4242      4436
 -1     22586    3    0    3
 -2      3635      3672      5532      4968
 -1     22587    3    0    3
 -2      3955      3898      5404      4283
 -1     22588    3    0    3
 -2      3461      3600      3347      4204
 -1     22589    3    0    3
 -2      1906      6296      1962      1961
 -1     22590    3    0    3
 -2      3663      4839      4020      4518
 -1     22591    3    0    3
 -2      5745      5026      2404      6754
 -1     22592    3    0    3
 -2      5390      4436      5393      5391
 -1     22593    3    0    3
 -2      4480      3898      4242      4283
 -1     22594    3    0    3
 -2      1015       773      1034      5861
 -1     22595    3    0    3
 -2      3361      1727      4051      3343
 -1     22596    3    0    3
 -2      4967      4968      3851      4390
 -1     22597    3    0    3
 -2      2753      2761      2782      4049
 -1     22598    3    0    3
 -2      1069       779      1044      4242
 -1     22599    3    0    3
 -2       779      4242      5393       774
 -1     22600    3    0    3
 -2      1887      2104      1742      4958
 -1     22601    3    0    3
 -2       347       346      1887      3337
 -1     22602    3    0    3
 -2      4250      4224      4972      4051
 -1     22603    3    0    3
 -2      4436      5390      5393      5392
 -1     22604    3    0    3
 -2       774      2770      5393       779
 -1     22605    3    0    3
 -2      2774      5393      2777      2770
 -1     22606    3    0    3
 -2      3989      4830      2768      5391
 -1     22607    3    0    3
 -2      1015      1659      1044      5858
 -1     22608    3    0    3
 -2      4242      1069       779       846
 -1     22609    3    0    3
 -2      4056      5992      5380      6007
 -1     22610    3    0    3
 -2      2724      2762      2763      5409
 -1     22611    3    0    3
 -2      2137      5986      5773      5828
 -1     22612    3    0    3
 -2      4480      1069      4242       846
 -1     22613    3    0    3
 -2      1477      1663      5403      5789
 -1     22614    3    0    3
 -2      5406      4462      3732      5405
 -1     22615    3    0    3
 -2      4480       918      1069       846
 -1     22616    3    0    3
 -2      1949      5817      2140      2270
 -1     22617    3    0    3
 -2      3362      5532      4968      3336
 -1     22618    3    0    3
 -2      4242       779      5393       846
 -1     22619    3    0    3
 -2      3429      4368      3432      4959
 -1     22620    3    0    3
 -2      5789      5410      5403      5762
 -1     22621    3    0    3
 -2      4954      4955      4472      5873
 -1     22622    3    0    3
 -2       820      2724       246       247
 -1     22623    3    0    3
 -2       846      4480       918       820
 -1     22624    3    0    3
 -2      5409      2724       820      5407
 -1     22625    3    0    3
 -2       820      4480      5408      5407
 -1     22626    3    0    3
 -2      5549      4982      4204      3638
 -1     22627    3    0    3
 -2      4204      3461      5549      3638
 -1     22628    3    0    3
 -2      3336      3348      5532      4204
 -1     22629    3    0    3
 -2      6757      2256      5794      2229
 -1     22630    3    0    3
 -2      5523      3461      3428      3638
 -1     22631    3    0    3
 -2      1394      5808      6069      1397
 -1     22632    3    0    3
 -2      5409       820      5408      5407
 -1     22633    3    0    3
 -2      1237      5445       870      5669
 -1     22634    3    0    3
 -2      3334      3362      4968      3336
 -1     22635    3    0    3
 -2      4954      1743      4955      5873
 -1     22636    3    0    3
 -2      5824      5414      1237      5671
 -1     22637    3    0    3
 -2      1477      1064      1663      5789
 -1     22638    3    0    3
 -2      4518      3898      4436      5391
 -1     22639    3    0    3
 -2      4128      3866      3970      5406
 -1     22640    3    0    3
 -2      2738       826       648      5473
 -1     22641    3    0    3
 -2      5409      4179      4128      3920
 -1     22642    3    0    3
 -2      5409       752      4179      3920
 -1     22643    3    0    3
 -2      3930      4128      4433      5410
 -1     22644    3    0    3
 -2      3751      4966      3528      3405
 -1     22645    3    0    3
 -2      1168      1237      5414      5671
 -1     22646    3    0    3
 -2      5671      5414      5412      5824
 -1     22647    3    0    3
 -2      4965      3528      4966      3443
 -1     22648    3    0    3
 -2      3384      3435      3344      4250
 -1     22649    3    0    3
 -2      1717       341      4965      3342
 -1     22650    3    0    3
 -2      1876      2093      4973      4415
 -1     22651    3    0    3
 -2      4051      3384      4224      4415
 -1     22652    3    0    3
 -2      4415      3445      1876      3361
 -1     22653    3    0    3
 -2      3384      4051      3343      3361
 -1     22654    3    0    3
 -2      5443      3753      5445      5824
 -1     22655    3    0    3
 -2      5410      3868      5403      5762
 -1     22656    3    0    3
 -2      5412      3753      5443      5824
 -1     22657    3    0    3
 -2      4179       815      1053      1033
 -1     22658    3    0    3
 -2      5469      2779      2728      2780
 -1     22659    3    0    3
 -2       815      4179       752      1033
 -1     22660    3    0    3
 -2      2082      2083      1795      5788
 -1     22661    3    0    3
 -2      2365      6618      2573      2547
 -1     22662    3    0    3
 -2      1750      3346       337      6564
 -1     22663    3    0    3
 -2      4974      3998      5788      5791
 -1     22664    3    0    3
 -2      1860      1795       339      5791
 -1     22665    3    0    3
 -2      3528      3777      3751      3405
 -1     22666    3    0    3
 -2      4966      3397      3443      3405
 -1     22667    3    0    3
 -2      3920      1064       820       819
 -1     22668    3    0    3
 -2      1040      1064      3920       819
 -1     22669    3    0    3
 -2      5478      1055      5477       641
 -1     22670    3    0    3
 -2      5733      2102      5035      5902
 -1     22671    3    0    3
 -2       246       245      2762       819
 -1     22672    3    0    3
 -2      4352      6794      6639      5583
 -1     22673    3    0    3
 -2      3343      3344      4969      4051
 -1     22674    3    0    3
 -2      3934      6010      5395      3993
 -1     22675    3    0    3
 -2      3934      6010      5397      5659
 -1     22676    3    0    3
 -2      3934      6010      3993      5397
 -1     22677    3    0    3
 -2      5469      2779      2780      3970
 -1     22678    3    0    3
 -2      5402      3590      5403      5789
 -1     22679    3    0    3
 -2      4179      3970      4128      5410
 -1     22680    3    0    3
 -2       663      5493      5490       947
 -1     22681    3    0    3
 -2      4438       962      5478      5669
 -1     22682    3    0    3
 -2      1906      6703      4876      4500
 -1     22683    3    0    3
 -2      4966      4971      4969      3344
 -1     22684    3    0    3
 -2      3342      4965      4969      3344
 -1     22685    3    0    3
 -2      1233       872      5446      1234
 -1     22686    3    0    3
 -2      4882      5446      3636      3699
 -1     22687    3    0    3
 -2      3634      3604      4882      5446
 -1     22688    3    0    3
 -2      5445      1237       870      1240
 -1     22689    3    0    3
 -2      4965      4966      4969      3344
 -1     22690    3    0    3
 -2      1792       345       344      3334
 -1     22691    3    0    3
 -2      3371      3348      5532      3336
 -1     22692    3    0    3
 -2      2301      4737      2405      6040
 -1     22693    3    0    3
 -2      5766      1161      5559      6421
 -1     22694    3    0    3
 -2      4967      3335      3334      4390
 -1     22695    3    0    3
 -2      2426      2140      2141      4984
 -1     22696    3    0    3
 -2      4924       100      4923      1771
 -1     22697    3    0    3
 -2      4990      3602      3542      4984
 -1     22698    3    0    3
 -2      4882      3670      5446      3699
 -1     22699    3    0    3
 -2      1663      1555      1477      5403
 -1     22700    3    0    3
 -2      5789      5410      5762      3920
 -1     22701    3    0    3
 -2      4834      4837      3934      3902
 -1     22702    3    0    3
 -2      3836      4837      4848      3902
 -1     22703    3    0    3
 -2      5654      2649      5686      4840
 -1     22704    3    0    3
 -2      4438      3779      4070      5414
 -1     22705    3    0    3
 -2      5762      3868      5403      5840
 -1     22706    3    0    3
 -2      5413      3868      5410      5762
 -1     22707    3    0    3
 -2      5858      5396      3933      5859
 -1     22708    3    0    3
 -2      5406      2773      3732      4462
 -1     22709    3    0    3
 -2      5406      4433      4462      5405
 -1     22710    3    0    3
 -2      5841      1053      1411      5762
 -1     22711    3    0    3
 -2      1554      1657      1658      5400
 -1     22712    3    0    3
 -2      3902      4834      3959      5397
 -1     22713    3    0    3
 -2      2713      2714      4834      5654
 -1     22714    3    0    3
 -2      3907      4836      3844      5399
 -1     22715    3    0    3
 -2      1237      1168      1303      5671
 -1     22716    3    0    3
 -2      1411      1477      1412      5840
 -1     22717    3    0    3
 -2      4848      3836      3902      5411
 -1     22718    3    0    3
 -2      3806      5411      5413      5842
 -1     22719    3    0    3
 -2      5398      1575      1657      5845
 -1     22720    3    0    3
 -2      3902      3868      4848      5411
 -1     22721    3    0    3
 -2      2743      4910      5472      4304
 -1     22722    3    0    3
 -2      4433      4128      3866      5410
 -1     22723    3    0    3
 -2       650      5666      5647      5644
 -1     22724    3    0    3
 -2      3954      4320      5189      3926
 -1     22725    3    0    3
 -2      1033      1411      1053      5762
 -1     22726    3    0    3
 -2      5927      2857      2821      2860
 -1     22727    3    0    3
 -2      5403      3868      3902      5411
 -1     22728    3    0    3
 -2      1477      5762      5403      5840
 -1     22729    3    0    3
 -2      3902      5403      5411      5688
 -1     22730    3    0    3
 -2      5403      1663      1555      6309
 -1     22731    3    0    3
 -2      5769      2344      5795      4990
 -1     22732    3    0    3
 -2       555      5487      4112       554
 -1     22733    3    0    3
 -2      1658      1554      5400      5833
 -1     22734    3    0    3
 -2      1394      1117      1393      6075
 -1     22735    3    0    3
 -2      5411      1412      1445      5833
 -1     22736    3    0    3
 -2      1302      1303      1168      5671
 -1     22737    3    0    3
 -2      5412      3785      5401      5848
 -1     22738    3    0    3
 -2      1483      1501      1366      5848
 -1     22739    3    0    3
 -2      3335      3427      3336      4390
 -1     22740    3    0    3
 -2      6246      6222      2637      4874
 -1     22741    3    0    3
 -2      2071      4170      5070      5071
 -1     22742    3    0    3
 -2       247      2723       846      5407
 -1     22743    3    0    3
 -2       820       846      4480      5407
 -1     22744    3    0    3
 -2      2724      2723       247      5407
 -1     22745    3    0    3
 -2      1064      3920       820      5408
 -1     22746    3    0    3
 -2      6757      2256      5770      5794
 -1     22747    3    0    3
 -2      6603      4202      4225      4594
 -1     22748    3    0    3
 -2      4128      5406      3732      5405
 -1     22749    3    0    3
 -2      5406      4128      4433      5405
 -1     22750    3    0    3
 -2      5406      5409      4128      3732
 -1     22751    3    0    3
 -2      3732      4462      5404      5405
 -1     22752    3    0    3
 -2      4845      4433      3930      5405
 -1     22753    3    0    3
 -2      4433      4845      4462      5405
 -1     22754    3    0    3
 -2      1412      1399      1411      5840
 -1     22755    3    0    3
 -2      3806      5413      5414      5842
 -1     22756    3    0    3
 -2      5982      2682      2507      5981
 -1     22757    3    0    3
 -2      5851      5842      5413      6800
 -1     22758    3    0    3
 -2      3590      4128      3930      5410
 -1     22759    3    0    3
 -2      3954      4320      5190      5189
 -1     22760    3    0    3
 -2       648      5474      5473      5838
 -1     22761    3    0    3
 -2      4997      5564      4446      4413
 -1     22762    3    0    3
 -2      4773      4744      2665      6039
 -1     22763    3    0    3
 -2      5412      5411      3806      5842
 -1     22764    3    0    3
 -2      1167      1168      1055      5851
 -1     22765    3    0    3
 -2      3848      1167      1055      5851
 -1     22766    3    0    3
 -2      5413      3848      4070      5414
 -1     22767    3    0    3
 -2      5443      3785      5412      5848
 -1     22768    3    0    3
 -2      5840      5413      5411      6800
 -1     22769    3    0    3
 -2      1237      1303      1366      5671
 -1     22770    3    0    3
 -2      4179      4344      5410      5762
 -1     22771    3    0    3
 -2      3970      5406      5409      4128
 -1     22772    3    0    3
 -2      6246      6222      4873      2699
 -1     22773    3    0    3
 -2      5861      1035      5859      5700
 -1     22774    3    0    3
 -2      3758      3675      5438      3729
 -1     22775    3    0    3
 -2      1477      1411      1033      5762
 -1     22776    3    0    3
 -2      4128      3590      3920      5410
 -1     22777    3    0    3
 -2      1906      6296      4876      6703
 -1     22778    3    0    3
 -2      3920      4179      4128      5410
 -1     22779    3    0    3
 -2      4195      3955      3663      3989
 -1     22780    3    0    3
 -2      4829      4830      3663      4518
 -1     22781    3    0    3
 -2      4020      4518      4436      5390
 -1     22782    3    0    3
 -2      3989      3663      4830      4518
 -1     22783    3    0    3
 -2      1394      5808      1397      1249
 -1     22784    3    0    3
 -2      1394      5808      1249      6075
 -1     22785    3    0    3
 -2      5405      3590      3955      4283
 -1     22786    3    0    3
 -2      2774      5393      2723      3898
 -1     22787    3    0    3
 -2      5408      5409      5407      3732
 -1     22788    3    0    3
 -2       989      3494      4072      5206
 -1     22789    3    0    3
 -2      2773      4462      5404      3732
 -1     22790    3    0    3
 -2      4959      3822      4175      3611
 -1     22791    3    0    3
 -2      6477      1752      2012      5046
 -1     22792    3    0    3
 -2      5407      5409      2724      3732
 -1     22793    3    0    3
 -2      2763      2724      5409      3732
 -1     22794    3    0    3
 -2      5407      3898      5404      2769
 -1     22795    3    0    3
 -2      2723      3898      5407      2769
 -1     22796    3    0    3
 -2      5390      2782      2753      2777
 -1     22797    3    0    3
 -2      2769      2723      3898      2774
 -1     22798    3    0    3
 -2      5402      5396      4020      3933
 -1     22799    3    0    3
 -2      5014      2801      2862      2822
 -1     22800    3    0    3
 -2      5405      3955      5404      4283
 -1     22801    3    0    3
 -2      6404      5556      5562      4502
 -1     22802    3    0    3
 -2      3732      5408      4128      5405
 -1     22803    3    0    3
 -2      5408      3590      4128      5405
 -1     22804    3    0    3
 -2      5407      4480      5408      4283
 -1     22805    3    0    3
 -2      5407      5408      3732      4283
 -1     22806    3    0    3
 -2      5404      5407      3732      4283
 -1     22807    3    0    3
 -2      5405      3732      5408      4283
 -1     22808    3    0    3
 -2      5404      3732      5405      4283
 -1     22809    3    0    3
 -2      5405      5408      3590      4283
 -1     22810    3    0    3
 -2      4436      4283      4518      5402
 -1     22811    3    0    3
 -2      5747      1882      4825      1732
 -1     22812    3    0    3
 -2      4283      3898      4242      4436
 -1     22813    3    0    3
 -2      4436      3898      5393      5391
 -1     22814    3    0    3
 -2      5390      2753      5391      2777
 -1     22815    3    0    3
 -2      4346      1994      4953      3826
 -1     22816    3    0    3
 -2        33      5643       781       793
 -1     22817    3    0    3
 -2      4830      3989      4518      5391
 -1     22818    3    0    3
 -2      4053      5396      5394      5700
 -1     22819    3    0    3
 -2      4833      4839      6234      3959
 -1     22820    3    0    3
 -2      4518      3989      3898      5391
 -1     22821    3    0    3
 -2      3427      4390      4493      4204
 -1     22822    3    0    3
 -2      2689      5965      2585      4773
 -1     22823    3    0    3
 -2      2689      5965      2545      2585
 -1     22824    3    0    3
 -2      1044      1659      1069      5858
 -1     22825    3    0    3
 -2      2637      6246      4874      2475
 -1     22826    3    0    3
 -2      5773      5986      2358      5002
 -1     22827    3    0    3
 -2      1910      1968      4911      1861
 -1     22828    3    0    3
 -2      1015      5392       773      5861
 -1     22829    3    0    3
 -2      5858      3933      1015      5859
 -1     22830    3    0    3
 -2      5382      4083      5394      6049
 -1     22831    3    0    3
 -2      5838      5413      3848      3668
 -1     22832    3    0    3
 -2      3933      4436      4020      5402
 -1     22833    3    0    3
 -2      4518      4020      4436      5402
 -1     22834    3    0    3
 -2      5004      5001      2590      5899
 -1     22835    3    0    3
 -2      4984      4990      3602      6758
 -1     22836    3    0    3
 -2       815      5838       826      5470
 -1     22837    3    0    3
 -2      1949      5817      5866      2140
 -1     22838    3    0    3
 -2       634      4061      4468      3793
 -1     22839    3    0    3
 -2      4250      3384      4224      4051
 -1     22840    3    0    3
 -2      1876       344       343      3361
 -1     22841    3    0    3
 -2      5390      4518      4436      5391
 -1     22842    3    0    3
 -2      2742      5404      3989      2774
 -1     22843    3    0    3
 -2      2666      5764      4994      6723
 -1     22844    3    0    3
 -2      3344      3384      4250      4051
 -1     22845    3    0    3
 -2      5390      4436      3933      5392
 -1     22846    3    0    3
 -2      4518      4829      4830      5390
 -1     22847    3    0    3
 -2      4830      4829      2753      5390
 -1     22848    3    0    3
 -2      4049      2753      4829      5390
 -1     22849    3    0    3
 -2      4049      4829      4020      5390
 -1     22850    3    0    3
 -2      4020      4829      4518      5390
 -1     22851    3    0    3
 -2      5391      2753      2768      2777
 -1     22852    3    0    3
 -2      2753      4830      5390      5391
 -1     22853    3    0    3
 -2      2753      2768      4830      5391
 -1     22854    3    0    3
 -2      3362      3445      4415      3361
 -1     22855    3    0    3
 -2      5393      5390      5391      2777
 -1     22856    3    0    3
 -2      4250      4972      4971      4051
 -1     22857    3    0    3
 -2      3472      4971      4972      4051
 -1     22858    3    0    3
 -2      4972      4970      3472      4051
 -1     22859    3    0    3
 -2      4971      3472      4969      4051
 -1     22860    3    0    3
 -2      4970      4969      3472      4051
 -1     22861    3    0    3
 -2      4971      3344      4250      4051
 -1     22862    3    0    3
 -2      3344      4971      4969      4051
 -1     22863    3    0    3
 -2      5877       753      5874      6067
 -1     22864    3    0    3
 -2      3384      3362      4224      4415
 -1     22865    3    0    3
 -2      4952      2552      5000      5890
 -1     22866    3    0    3
 -2      3445      4224      3362      4415
 -1     22867    3    0    3
 -2       342      1727       343      3343
 -1     22868    3    0    3
 -2       815      5838      1053       826
 -1     22869    3    0    3
 -2      4242       846      3898      4480
 -1     22870    3    0    3
 -2      1727       342      4969      3343
 -1     22871    3    0    3
 -2      4544      1749      4541      2894
 -1     22872    3    0    3
 -2      3342      4969       342      3343
 -1     22873    3    0    3
 -2      4982      5549      3611      3638
 -1     22874    3    0    3
 -2      4242      1015      3933      5392
 -1     22875    3    0    3
 -2      3524      6485      5782      5038
 -1     22876    3    0    3
 -2       348      1743       349      3363
 -1     22877    3    0    3
 -2      4431      3598      3811      5052
 -1     22878    3    0    3
 -2      3048      5962      6270      3051
 -1     22879    3    0    3
 -2      2766      2782      3521      2776
 -1     22880    3    0    3
 -2      5764      2666      4994      5751
 -1     22881    3    0    3
 -2      1727      4051      3343      4969
 -1     22882    3    0    3
 -2      5549      4982      3611      3576
 -1     22883    3    0    3
 -2      2766       773       250      2776
 -1     22884    3    0    3
 -2      2433      2491      2397      5684
 -1     22885    3    0    3
 -2       774      2770       779       249
 -1     22886    3    0    3
 -2      1727      4051      4969      4970
 -1     22887    3    0    3
 -2      4415      4051      3384      3361
 -1     22888    3    0    3
 -2      4953      3392      3393      3375
 -1     22889    3    0    3
 -2      4242       779      1044       774
 -1     22890    3    0    3
 -2      6750       483      3366      5883
 -1     22891    3    0    3
 -2      2412      4849      5676      2413
 -1     22892    3    0    3
 -2      4061       634      4468       597
 -1     22893    3    0    3
 -2      2769      3898      5404      2774
 -1     22894    3    0    3
 -2      2723       247       846       248
 -1     22895    3    0    3
 -2      2189      2386      6709      5680
 -1     22896    3    0    3
 -2       346       345      1888      3335
 -1     22897    3    0    3
 -2      2536      2617      4989      5764
 -1     22898    3    0    3
 -2      3336      3334      3335      4390
 -1     22899    3    0    3
 -2      3336      3347      3348      4204
 -1     22900    3    0    3
 -2      2425      4990      2521      5860
 -1     22901    3    0    3
 -2      5532      4968      3336      4204
 -1     22902    3    0    3
 -2      2165      2420      2164      5778
 -1     22903    3    0    3
 -2      3335      4493      3337      3427
 -1     22904    3    0    3
 -2      2301      4737      6040      6196
 -1     22905    3    0    3
 -2      2301      4737      5915      2405
 -1     22906    3    0    3
 -2      3461      5549      3600      4204
 -1     22907    3    0    3
 -2      4982      3635      5549      4204
 -1     22908    3    0    3
 -2      3971      3391      4954      4472
 -1     22909    3    0    3
 -2      3433      4175      3432      3391
 -1     22910    3    0    3
 -2      2768      3989      5391      2774
 -1     22911    3    0    3
 -2      5402      5396      3933      5858
 -1     22912    3    0    3
 -2      4958      4368      3429      4959
 -1     22913    3    0    3
 -2      4959      3428      3429      3638
 -1     22914    3    0    3
 -2      2491      6801      4988      5684
 -1     22915    3    0    3
 -2      5391      3989      3898      2774
 -1     22916    3    0    3
 -2      1906      6296      1961      4876
 -1     22917    3    0    3
 -2      3428      3429      3432      4959
 -1     22918    3    0    3
 -2      5404      2742      2769      2774
 -1     22919    3    0    3
 -2      3580      4167      5526      4150
 -1     22920    3    0    3
 -2      3735      4266      5645      3879
 -1     22921    3    0    3
 -2       248       249       779      2770
 -1     22922    3    0    3
 -2      2774      5393      2770      2723
 -1     22923    3    0    3
 -2      4957      5519      4180      3614
 -1     22924    3    0    3
 -2      3434      3331      4180      3391
 -1     22925    3    0    3
 -2      6750       483       353      3366
 -1     22926    3    0    3
 -2      3615      4961      4951      3555
 -1     22927    3    0    3
 -2      1743      4955      1832      4954
 -1     22928    3    0    3
 -2      5671      5412      1302      1303
 -1     22929    3    0    3
 -2      3363      4368      3364      5873
 -1     22930    3    0    3
 -2      4960      3822      4368      5831
 -1     22931    3    0    3
 -2      4957      4346      3971      4956
 -1     22932    3    0    3
 -2      4499      4993      4996      3642
 -1     22933    3    0    3
 -2      1743      1832       349      4954
 -1     22934    3    0    3
 -2      1949      1888      2119      5866
 -1     22935    3    0    3
 -2      3363       348      1743      5873
 -1     22936    3    0    3
 -2      5764      2666      5751      2536
 -1     22937    3    0    3
 -2      4368      3432      3363      3364
 -1     22938    3    0    3
 -2       347      1742       348      3364
 -1     22939    3    0    3
 -2      4368      3429      3432      3364
 -1     22940    3    0    3
 -2      3635      4982      3851      4390
 -1     22941    3    0    3
 -2      5532      3348      3600      4204
 -1     22942    3    0    3
 -2      4493      3429      3427      3638
 -1     22943    3    0    3
 -2      4368      4175      3432      4959
 -1     22944    3    0    3
 -2      1887      1742       347      4958
 -1     22945    3    0    3
 -2      3337      3429      3427      4493
 -1     22946    3    0    3
 -2      3337      3364      3429      4958
 -1     22947    3    0    3
 -2      3364      4368      3429      4958
 -1     22948    3    0    3
 -2      3429      3337      4958      4493
 -1     22949    3    0    3
 -2      3337       347      3364      4958
 -1     22950    3    0    3
 -2      1887       347      3337      4958
 -1     22951    3    0    3
 -2      4982      3635      3851      4984
 -1     22952    3    0    3
 -2      5551      3602      3635      4984
 -1     22953    3    0    3
 -2      3542      3602      5551      4984
 -1     22954    3    0    3
 -2      5530      3395      5531      5535
 -1     22955    3    0    3
 -2      3851      4982      4984      5866
 -1     22956    3    0    3
 -2      5817      4984      4982      5866
 -1     22957    3    0    3
 -2      6477      1752      5043      2026
 -1     22958    3    0    3
 -2      2140      2119      2141      4984
 -1     22959    3    0    3
 -2      4968      3635      3851      4390
 -1     22960    3    0    3
 -2      3516      5550      5553      3549
 -1     22961    3    0    3
 -2      4958      3429      4493      4959
 -1     22962    3    0    3
 -2      4959      3429      4493      3638
 -1     22963    3    0    3
 -2      3361      1727       343      1876
 -1     22964    3    0    3
 -2      4954      4953      4955      1832
 -1     22965    3    0    3
 -2      4954      4953      3971      4955
 -1     22966    3    0    3
 -2      3337      1887      4958      4493
 -1     22967    3    0    3
 -2      3427      3428      3347      3638
 -1     22968    3    0    3
 -2      5815      6057      6323      5895
 -1     22969    3    0    3
 -2      5764      2666      2536      2571
 -1     22970    3    0    3
 -2      5764      2666      2571      6723
 -1     22971    3    0    3
 -2      6057      5815      6323      5881
 -1     22972    3    0    3
 -2      2076      6257      2096      6259
 -1     22973    3    0    3
 -2      1888      1887      3337      4493
 -1     22974    3    0    3
 -2      2161      6250      2159      6485
 -1     22975    3    0    3
 -2      4958      3822      4368      4959
 -1     22976    3    0    3
 -2      3461      3871      5549      3638
 -1     22977    3    0    3
 -2      5523      3871      3461      3638
 -1     22978    3    0    3
 -2      1445      1658      6675      5833
 -1     22979    3    0    3
 -2      4493      3427      4204      3638
 -1     22980    3    0    3
 -2      4390      3427      3336      4204
 -1     22981    3    0    3
 -2      3336      3427      3347      4204
 -1     22982    3    0    3
 -2      3461      3347      3428      3638
 -1     22983    3    0    3
 -2      3347      3461      4204      3638
 -1     22984    3    0    3
 -2      4204      3427      3347      3638
 -1     22985    3    0    3
 -2      5551      3542      4984      3576
 -1     22986    3    0    3
 -2      3542      5551      5552      3576
 -1     22987    3    0    3
 -2      4988      2492      2536      5751
 -1     22988    3    0    3
 -2      3811      4134      5049      5050
 -1     22989    3    0    3
 -2      3638      5523      3871      3611
 -1     22990    3    0    3
 -2      3638      4959      5523      3611
 -1     22991    3    0    3
 -2      3638      3822      4959      3611
 -1     22992    3    0    3
 -2      1658      1445      6675      1444
 -1     22993    3    0    3
 -2      4973      4984      3635      3602
 -1     22994    3    0    3
 -2      3638      3871      5549      3611
 -1     22995    3    0    3
 -2      5528       958      1110      1143
 -1     22996    3    0    3
 -2      4984      4973      3635      3851
 -1     22997    3    0    3
 -2      3638      4982      3822      3611
 -1     22998    3    0    3
 -2      4460      5574      4515      5007
 -1     22999    3    0    3
 -2      5573      3460      5006      4483
 -1     23000    3    0    3
 -2      5000      2614      2562      2644
 -1     23001    3    0    3
 -2      3488      4987      4964      4506
 -1     23002    3    0    3
 -2      5529      5554      3488      4506
 -1     23003    3    0    3
 -2      3488      4964      5529      4506
 -1     23004    3    0    3
 -2      2397      2491      2650      4986
 -1     23005    3    0    3
 -2      3516      4986      4988      5684
 -1     23006    3    0    3
 -2      1993      3798      4346      4955
 -1     23007    3    0    3
 -2      4634      3244      1898      6587
 -1     23008    3    0    3
 -2      1953      6568      5816      2231
 -1     23009    3    0    3
 -2      6211      5814      4825      5880
 -1     23010    3    0    3
 -2      2426      2490      2433      4985
 -1     23011    3    0    3
 -2      2739       760      5861      6057
 -1     23012    3    0    3
 -2       958      5528      5525      3597
 -1     23013    3    0    3
 -2      5008      5006      2553      6612
 -1     23014    3    0    3
 -2      2625      2553      2697      5008
 -1     23015    3    0    3
 -2      2697      2625      5008      2655
 -1     23016    3    0    3
 -2      5579      4428      4375      5012
 -1     23017    3    0    3
 -2      3482      5555      4502      4988
 -1     23018    3    0    3
 -2      5389      2757      2739      6057
 -1     23019    3    0    3
 -2      3521      4020      5389      3933
 -1     23020    3    0    3
 -2      4502      5556      4989      3457
 -1     23021    3    0    3
 -2      5555      5556      4502      3457
 -1     23022    3    0    3
 -2      5554      5553      3457      5818
 -1     23023    3    0    3
 -2      3488      5553      5554      6613
 -1     23024    3    0    3
 -2      1953      6568      2247      4902
 -1     23025    3    0    3
 -2      2270      2397      2212      4983
 -1     23026    3    0    3
 -2      3457      3516      5553      4986
 -1     23027    3    0    3
 -2      4989      3457      4987      5869
 -1     23028    3    0    3
 -2      2535      4989      2651      5869
 -1     23029    3    0    3
 -2       461      3032      4132       460
 -1     23030    3    0    3
 -2      5780      4963      2150      5863
 -1     23031    3    0    3
 -2      3244      4634      1898      6124
 -1     23032    3    0    3
 -2      2784      3521      4049      5389
 -1     23033    3    0    3
 -2      5688      5403      1555      6309
 -1     23034    3    0    3
 -2      5785      2161      5782      6485
 -1     23035    3    0    3
 -2      3549      4963      4986      5780
 -1     23036    3    0    3
 -2      2270      2212      2104      4983
 -1     23037    3    0    3
 -2      2119      2140      1949      5866
 -1     23038    3    0    3
 -2      5810      2616      5705      5002
 -1     23039    3    0    3
 -2      4955      3798      4346      4957
 -1     23040    3    0    3
 -2      5785      2161      2160      2201
 -1     23041    3    0    3
 -2       846      4242      3898      5393
 -1     23042    3    0    3
 -2      4346      3798      4961      3580
 -1     23043    3    0    3
 -2      3615      4167      5518      4150
 -1     23044    3    0    3
 -2      4957      4472      3798      3614
 -1     23045    3    0    3
 -2      3614      4957      5519      3580
 -1     23046    3    0    3
 -2      3391      3433      4175      3614
 -1     23047    3    0    3
 -2      2151      4961      1993      3798
 -1     23048    3    0    3
 -2      4988      4986      2491      5684
 -1     23049    3    0    3
 -2      6699       786      6694      1009
 -1     23050    3    0    3
 -2      3457      5555      3516      4988
 -1     23051    3    0    3
 -2      4502      5555      3457      4988
 -1     23052    3    0    3
 -2      2651      2650      2535      5869
 -1     23053    3    0    3
 -2      2535      2491      2492      4988
 -1     23054    3    0    3
 -2      3933      1015      5861      5392
 -1     23055    3    0    3
 -2      4986      3457      3516      4988
 -1     23056    3    0    3
 -2      4986      2397      2491      5684
 -1     23057    3    0    3
 -2      5861      1035      5700      6323
 -1     23058    3    0    3
 -2      5709      5738      2248      5736
 -1     23059    3    0    3
 -2      3375      4948      3374      3390
 -1     23060    3    0    3
 -2      2651      4989      4987      5869
 -1     23061    3    0    3
 -2      4989      2535      4988      5869
 -1     23062    3    0    3
 -2      4988      4986      3457      5869
 -1     23063    3    0    3
 -2      2536      2492      2666      5751
 -1     23064    3    0    3
 -2      3811      4134      5052      3598
 -1     23065    3    0    3
 -2      5839      5533       896       843
 -1     23066    3    0    3
 -2      5839      5533      4138       896
 -1     23067    3    0    3
 -2      4960      4472      3798      5863
 -1     23068    3    0    3
 -2      2150      2105      2085      5863
 -1     23069    3    0    3
 -2      5990       681       912      5368
 -1     23070    3    0    3
 -2      5877       461      4132      5871
 -1     23071    3    0    3
 -2      4167      3597      5519      3580
 -1     23072    3    0    3
 -2      1229       992      1127      6741
 -1     23073    3    0    3
 -2      4150      4180      5518      4956
 -1     23074    3    0    3
 -2      1993      4955      4346      4953
 -1     23075    3    0    3
 -2      4953      4956      4346      3826
 -1     23076    3    0    3
 -2      1743       348      1742      5873
 -1     23077    3    0    3
 -2      4346      1994      4961      1993
 -1     23078    3    0    3
 -2      1150      6329      1203      5742
 -1     23079    3    0    3
 -2       790       462       226      5874
 -1     23080    3    0    3
 -2      4954      4368      3391      3363
 -1     23081    3    0    3
 -2      4954      4368      3363      5873
 -1     23082    3    0    3
 -2      2039      1726      1851      5822
 -1     23083    3    0    3
 -2      5550      6550      5525      3871
 -1     23084    3    0    3
 -2      2375      2553      2352      4962
 -1     23085    3    0    3
 -2      4964      2553      2375      4962
 -1     23086    3    0    3
 -2      3460      4962      5006      6612
 -1     23087    3    0    3
 -2      3580      4963      4961      3522
 -1     23088    3    0    3
 -2      3580      4961      5526      3522
 -1     23089    3    0    3
 -2      3364      1742       348      5873
 -1     23090    3    0    3
 -2      5519      4957      4180      4150
 -1     23091    3    0    3
 -2      4960      4368      4175      4472
 -1     23092    3    0    3
 -2      4180      3391      3971      4472
 -1     23093    3    0    3
 -2       989      3494      5206       719
 -1     23094    3    0    3
 -2      2844      1758       371      1759
 -1     23095    3    0    3
 -2      3032      5878      3083      3045
 -1     23096    3    0    3
 -2      3363      3364       348      5873
 -1     23097    3    0    3
 -2      1742      3364      4958      5873
 -1     23098    3    0    3
 -2      4957      3971      4180      4956
 -1     23099    3    0    3
 -2      3798      4957      3614      3580
 -1     23100    3    0    3
 -2      3798      4963      4961      3580
 -1     23101    3    0    3
 -2      4346      4957      3580      4150
 -1     23102    3    0    3
 -2      4291      5519      3597      3614
 -1     23103    3    0    3
 -2      4960      4175      5525      3614
 -1     23104    3    0    3
 -2      5878      5875      3046      6055
 -1     23105    3    0    3
 -2      3085      3046      3072      5971
 -1     23106    3    0    3
 -2      3597      5525      4291      3614
 -1     23107    3    0    3
 -2       122      5290       121      3174
 -1     23108    3    0    3
 -2      4291      4175      3433      3614
 -1     23109    3    0    3
 -2      3391      3434      3433      3614
 -1     23110    3    0    3
 -2      4291      3433      3434      3614
 -1     23111    3    0    3
 -2      1555      1663      1639      6309
 -1     23112    3    0    3
 -2      4180      3434      3391      3614
 -1     23113    3    0    3
 -2      3031       462       461      5871
 -1     23114    3    0    3
 -2      4291      3434      4180      3614
 -1     23115    3    0    3
 -2      5388      4132      4083      5814
 -1     23116    3    0    3
 -2      3614      4960      3798      3580
 -1     23117    3    0    3
 -2      3798      4960      3549      3580
 -1     23118    3    0    3
 -2      3614      3597      5525      3580
 -1     23119    3    0    3
 -2      4132      5388      4083      6074
 -1     23120    3    0    3
 -2      3522      5526      5528      5876
 -1     23121    3    0    3
 -2      5528      1331      5529      5876
 -1     23122    3    0    3
 -2      5877       461      5871      3031
 -1     23123    3    0    3
 -2      3085      3086      3060      5370
 -1     23124    3    0    3
 -2      1331      1143      1330      5876
 -1     23125    3    0    3
 -2      1330      5529      1331      5876
 -1     23126    3    0    3
 -2      3488      5528      5529      3522
 -1     23127    3    0    3
 -2      4964      3488      5529      3522
 -1     23128    3    0    3
 -2      6067      5877      5371      6074
 -1     23129    3    0    3
 -2      3366      3415      3430      3863
 -1     23130    3    0    3
 -2      3497      4962      3555      4952
 -1     23131    3    0    3
 -2      2294      2039      2295      5879
 -1     23132    3    0    3
 -2      4763      2099      6026      6095
 -1     23133    3    0    3
 -2      1240      5824      6279      5445
 -1     23134    3    0    3
 -2      3032      5878      3045      5877
 -1     23135    3    0    3
 -2      3084      6050       460       459
 -1     23136    3    0    3
 -2      5877       461      3031      3032
 -1     23137    3    0    3
 -2      4961      3580      5526      4150
 -1     23138    3    0    3
 -2      3615      5526      4167      4150
 -1     23139    3    0    3
 -2      5526      3615      4961      4150
 -1     23140    3    0    3
 -2      5526      5527      3522      3555
 -1     23141    3    0    3
 -2      4950      2294      2421      4952
 -1     23142    3    0    3
 -2      6353      3526      3559      5565
 -1     23143    3    0    3
 -2      3374      4948      3415      3390
 -1     23144    3    0    3
 -2      5871      4132      5877      6074
 -1     23145    3    0    3
 -2      5526      5516       926      5655
 -1     23146    3    0    3
 -2      1236      1189       926      5655
 -1     23147    3    0    3
 -2       252       251      2739       760
 -1     23148    3    0    3
 -2      4948      3615      5518      4956
 -1     23149    3    0    3
 -2      5518      3331      4948      4956
 -1     23150    3    0    3
 -2      5518      4180      3331      4956
 -1     23151    3    0    3
 -2       760       251      2739      5861
 -1     23152    3    0    3
 -2      4182      3332      5511      3444
 -1     23153    3    0    3
 -2      6169      6583      4712      4033
 -1     23154    3    0    3
 -2      2076      6257      6259      4847
 -1     23155    3    0    3
 -2      5841      1167      3848      6800
 -1     23156    3    0    3
 -2      1015      1034      5859      5861
 -1     23157    3    0    3
 -2      6750       483      5883      1880
 -1     23158    3    0    3
 -2      1993      2105      3798      4955
 -1     23159    3    0    3
 -2      1804       351       350      3375
 -1     23160    3    0    3
 -2       226       753       790      5874
 -1     23161    3    0    3
 -2      6519      6527      6563      5133
 -1     23162    3    0    3
 -2      4956      4180      3331      3393
 -1     23163    3    0    3
 -2      4956      3971      4180      3393
 -1     23164    3    0    3
 -2      1970      4222      5703      4827
 -1     23165    3    0    3
 -2      2531      4848      6259      5699
 -1     23166    3    0    3
 -2      3391      4180      3971      3393
 -1     23167    3    0    3
 -2      4373      1994      4951      3826
 -1     23168    3    0    3
 -2      3680      5883       484      6028
 -1     23169    3    0    3
 -2      3391      3331      4180      3393
 -1     23170    3    0    3
 -2       462      5871       647      5895
 -1     23171    3    0    3
 -2       351      3375      4947      3374
 -1     23172    3    0    3
 -2      5928      5939      1714      4802
 -1     23173    3    0    3
 -2      3680      5883      4949      6761
 -1     23174    3    0    3
 -2       459      2720       458      5747
 -1     23175    3    0    3
 -2      1731      1732       394      6665
 -1     23176    3    0    3
 -2      3415      3390      4948      3444
 -1     23177    3    0    3
 -2      2272      4899      1943      6577
 -1     23178    3    0    3
 -2      2105      1993      3798      2151
 -1     23179    3    0    3
 -2      4956      4346      3971      4953
 -1     23180    3    0    3
 -2      4480      5858      5789      5402
 -1     23181    3    0    3
 -2      3971      4346      4955      4953
 -1     23182    3    0    3
 -2      3375      1804       351      4947
 -1     23183    3    0    3
 -2      4953      1804      3375      4947
 -1     23184    3    0    3
 -2      1150      6329       973      1203
 -1     23185    3    0    3
 -2      5013      5807      2269      5011
 -1     23186    3    0    3
 -2      4953      1994      1804      4947
 -1     23187    3    0    3
 -2       351      1804      1851      4947
 -1     23188    3    0    3
 -2      3393      4948      4956      4953
 -1     23189    3    0    3
 -2      2462      4838      4837      5696
 -1     23190    3    0    3
 -2      4883      4884      2468      6379
 -1     23191    3    0    3
 -2      6750       483      1880       353
 -1     23192    3    0    3
 -2      3393      4956      3971      4953
 -1     23193    3    0    3
 -2      1994      1851      1804      4947
 -1     23194    3    0    3
 -2      2006      1726      2039      5822
 -1     23195    3    0    3
 -2      4948      4953      4947      3826
 -1     23196    3    0    3
 -2      4953      4948      4956      3826
 -1     23197    3    0    3
 -2      4947      4373      4948      3826
 -1     23198    3    0    3
 -2      3430      3366      3863      6750
 -1     23199    3    0    3
 -2      4947      4953      1994      3826
 -1     23200    3    0    3
 -2      4036      2079      4557      4560
 -1     23201    3    0    3
 -2      4767      2218      4765      2217
 -1     23202    3    0    3
 -2      5585      5587      1644      5799
 -1     23203    3    0    3
 -2      3430      1851      1726      5822
 -1     23204    3    0    3
 -2      1851       351      4947      3374
 -1     23205    3    0    3
 -2      1851       352       351      3374
 -1     23206    3    0    3
 -2      3368      5868      6532      3665
 -1     23207    3    0    3
 -2      3584      4949      5879      5843
 -1     23208    3    0    3
 -2      3415      3647      4373      3863
 -1     23209    3    0    3
 -2      4480      5858      5402      4242
 -1     23210    3    0    3
 -2      5990       681      1012       912
 -1     23211    3    0    3
 -2      3826      4373      3615      4951
 -1     23212    3    0    3
 -2      3334      4390      4968      4967
 -1     23213    3    0    3
 -2      4373      4182      3615      4951
 -1     23214    3    0    3
 -2      5516      3584      3555      4951
 -1     23215    3    0    3
 -2      4390      3334      4968      3336
 -1     23216    3    0    3
 -2      3863      3647      5843      6761
 -1     23217    3    0    3
 -2      5822      3863      4951      5843
 -1     23218    3    0    3
 -2      3680      5326      5514      3616
 -1     23219    3    0    3
 -2      5512      3365      5511      3332
 -1     23220    3    0    3
 -2      3340      3647      3431      3367
 -1     23221    3    0    3
 -2      2272      4899      6243      2287
 -1     23222    3    0    3
 -2      2785      5756      2813      5857
 -1     23223    3    0    3
 -2      5841      1167      6800      1399
 -1     23224    3    0    3
 -2      4182      3647      3415      3444
 -1     23225    3    0    3
 -2      2846      4784      5959      6345
 -1     23226    3    0    3
 -2      5511      3332      3369      3444
 -1     23227    3    0    3
 -2      3647      4373      4182      3415
 -1     23228    3    0    3
 -2      4763      4949      6028      6097
 -1     23229    3    0    3
 -2      5827      2654      2551      5916
 -1     23230    3    0    3
 -2      5821      2206      4950      5826
 -1     23231    3    0    3
 -2      4899      1979      4931      6432
 -1     23232    3    0    3
 -2      1968      4912      1861      1940
 -1     23233    3    0    3
 -2      1968      4912      1940      3530
 -1     23234    3    0    3
 -2      3415      3647      3431      3444
 -1     23235    3    0    3
 -2      3431      3647      5511      3444
 -1     23236    3    0    3
 -2      4951      4373      3647      3863
 -1     23237    3    0    3
 -2      1851      4373      1994      5822
 -1     23238    3    0    3
 -2      5514      4949      3680      3616
 -1     23239    3    0    3
 -2      6024      3723      5329      5331
 -1     23240    3    0    3
 -2      6519      6527      5133      6111
 -1     23241    3    0    3
 -2      5516      5517      1236      5655
 -1     23242    3    0    3
 -2      4950      2206      2294      5826
 -1     23243    3    0    3
 -2      5327      3559      5515      3616
 -1     23244    3    0    3
 -2      1851      4373      3374      4947
 -1     23245    3    0    3
 -2      5738      2087      2263      2253
 -1     23246    3    0    3
 -2      5841      1167      1006      3848
 -1     23247    3    0    3
 -2      1880       353      1726      6750
 -1     23248    3    0    3
 -2      1726      3430      5822      6750
 -1     23249    3    0    3
 -2      5005      5011      2166      5896
 -1     23250    3    0    3
 -2      3665      3647      3340      5868
 -1     23251    3    0    3
 -2      3526      5515      3559      4950
 -1     23252    3    0    3
 -2      3584      5515      3526      4950
 -1     23253    3    0    3
 -2      3526      3497      4952      5000
 -1     23254    3    0    3
 -2      2614      2421      2401      4952
 -1     23255    3    0    3
 -2      3526      3584      4950      4952
 -1     23256    3    0    3
 -2      3497      5517      3526      4952
 -1     23257    3    0    3
 -2      3526      5517      3584      4952
 -1     23258    3    0    3
 -2      2390      2375      2151      5834
 -1     23259    3    0    3
 -2      2401      2294      2295      4952
 -1     23260    3    0    3
 -2      2352      2295      2199      5825
 -1     23261    3    0    3
 -2      4962      2352      2199      5825
 -1     23262    3    0    3
 -2      4952      4962      3555      5825
 -1     23263    3    0    3
 -2      4952      3497      4962      5890
 -1     23264    3    0    3
 -2      2401      2295      2352      4952
 -1     23265    3    0    3
 -2      5006      5007      4515      4483
 -1     23266    3    0    3
 -2      5007      5574      4515      4483
 -1     23267    3    0    3
 -2      1572      1600      5574      6775
 -1     23268    3    0    3
 -2      4378      5896      5005      5828
 -1     23269    3    0    3
 -2      5566      4999      4486      3469
 -1     23270    3    0    3
 -2      4378      5896      5828      5015
 -1     23271    3    0    3
 -2      5568      5566      4486      3469
 -1     23272    3    0    3
 -2      5829      1182       965      1097
 -1     23273    3    0    3
 -2      4790      2146      4792      5969
 -1     23274    3    0    3
 -2      2616      2589      2392      5704
 -1     23275    3    0    3
 -2      2655      5009      2653      5805
 -1     23276    3    0    3
 -2      2552      4952      4962      5890
 -1     23277    3    0    3
 -2      1946      5828      5015      2050
 -1     23278    3    0    3
 -2      5000      4998      3526      3469
 -1     23279    3    0    3
 -2      5023      2273      2274      2307
 -1     23280    3    0    3
 -2      5000      5567      4515      3469
 -1     23281    3    0    3
 -2      5568      4515      5567      3469
 -1     23282    3    0    3
 -2      3469      5568      4515      5001
 -1     23283    3    0    3
 -2      4460      5568      4486      5001
 -1     23284    3    0    3
 -2      4460      4515      5568      5001
 -1     23285    3    0    3
 -2      2844      1758      1759      5014
 -1     23286    3    0    3
 -2      5857      5016      5583      5891
 -1     23287    3    0    3
 -2      4460      5577      5010      4403
 -1     23288    3    0    3
 -2      5571      5572      4403      4434
 -1     23289    3    0    3
 -2      5004      4460      5010      4403
 -1     23290    3    0    3
 -2      5008      5006      3460      4483
 -1     23291    3    0    3
 -2      3460      3497      5573      5006
 -1     23292    3    0    3
 -2      5573      3497      4515      5006
 -1     23293    3    0    3
 -2      5573      5575      3460      4483
 -1     23294    3    0    3
 -2      5000      5006      2552      2644
 -1     23295    3    0    3
 -2      2552      4962      5006      5890
 -1     23296    3    0    3
 -2      2712      2697      5008      2655
 -1     23297    3    0    3
 -2      5577      4375      5010      4403
 -1     23298    3    0    3
 -2      5578      4375      5577      4403
 -1     23299    3    0    3
 -2      2844      1758      5014      2822
 -1     23300    3    0    3
 -2      3469      5819      5900      5001
 -1     23301    3    0    3
 -2      5005      4403      5004      5832
 -1     23302    3    0    3
 -2      5015      2826      2827      2877
 -1     23303    3    0    3
 -2      5004      2392      2589      5704
 -1     23304    3    0    3
 -2      4905      2116      1767      1843
 -1     23305    3    0    3
 -2      2786      2785      2813      5857
 -1     23306    3    0    3
 -2      6341      2798      6333      5366
 -1     23307    3    0    3
 -2      5900      2556      2563      4999
 -1     23308    3    0    3
 -2      5016      4323      5583      4352
 -1     23309    3    0    3
 -2      3737       163       755      5533
 -1     23310    3    0    3
 -2      4634      3183      6587      3702
 -1     23311    3    0    3
 -2      5571      4486      5569      4434
 -1     23312    3    0    3
 -2      6637       994      1008      6762
 -1     23313    3    0    3
 -2      5320      1134      5321      6386
 -1     23314    3    0    3
 -2      4242      5858      1015      1044
 -1     23315    3    0    3
 -2      6701      6705      1934      6713
 -1     23316    3    0    3
 -2      5004      4486      5571      4434
 -1     23317    3    0    3
 -2      5004      5002      4486      4434
 -1     23318    3    0    3
 -2      4465      4800      4406      5003
 -1     23319    3    0    3
 -2      5867      5014      2862      5923
 -1     23320    3    0    3
 -2      4352      5807      5896      5016
 -1     23321    3    0    3
 -2      5011      5005      4352      5896
 -1     23322    3    0    3
 -2      4434      5570      4378      5003
 -1     23323    3    0    3
 -2      4465      5570      4434      5003
 -1     23324    3    0    3
 -2      5004      2589      2466      2590
 -1     23325    3    0    3
 -2      5001      2590      2555      2554
 -1     23326    3    0    3
 -2      5007      2703      2698      2709
 -1     23327    3    0    3
 -2      5578      5572      1097      5829
 -1     23328    3    0    3
 -2       462       253      2721      5895
 -1     23329    3    0    3
 -2      5994      3652      5327      3616
 -1     23330    3    0    3
 -2      5003      4434      5002      5773
 -1     23331    3    0    3
 -2      6658      5979      5369      3040
 -1     23332    3    0    3
 -2      2590      2709      2703      5899
 -1     23333    3    0    3
 -2        11       462       647       253
 -1     23334    3    0    3
 -2      2721       253      2759      5895
 -1     23335    3    0    3
 -2      5006      2698      2625      2644
 -1     23336    3    0    3
 -2      2663      4950      2421      6654
 -1     23337    3    0    3
 -2      2466      2335      2391      5832
 -1     23338    3    0    3
 -2      2392      5004      5773      5704
 -1     23339    3    0    3
 -2      2878      2787      2877      5921
 -1     23340    3    0    3
 -2      5900      2556      5001      2555
 -1     23341    3    0    3
 -2      5013      5011      4323      5807
 -1     23342    3    0    3
 -2      5015      5016      4352      5896
 -1     23343    3    0    3
 -2      4403      5005      5011      5832
 -1     23344    3    0    3
 -2      1399      5411      5842      6800
 -1     23345    3    0    3
 -2      2166      2335      5011      5832
 -1     23346    3    0    3
 -2      5005      2391      2166      5832
 -1     23347    3    0    3
 -2      2551      2465      5010      2336
 -1     23348    3    0    3
 -2      5013      4323      5017      5807
 -1     23349    3    0    3
 -2      2709      2590      5001      5899
 -1     23350    3    0    3
 -2      5827      5009      4428      5007
 -1     23351    3    0    3
 -2      4240      5036      5031      5716
 -1     23352    3    0    3
 -2      5011      2335      2236      2336
 -1     23353    3    0    3
 -2      2335      5010      2466      2465
 -1     23354    3    0    3
 -2      1585      1645      5586      5898
 -1     23355    3    0    3
 -2      5586      5589      4369      4398
 -1     23356    3    0    3
 -2      4454      5585      5586      5904
 -1     23357    3    0    3
 -2      4483      5007      4428      5009
 -1     23358    3    0    3
 -2      3999      4127      3587      4908
 -1     23359    3    0    3
 -2      2466      2590      2703      5899
 -1     23360    3    0    3
 -2      6716      6705      2254      6701
 -1     23361    3    0    3
 -2      3737       163      3418      3372
 -1     23362    3    0    3
 -2      5010      5004      2466      5899
 -1     23363    3    0    3
 -2      2590      5001      2555      2709
 -1     23364    3    0    3
 -2      5719      2308      5803      2455
 -1     23365    3    0    3
 -2      5006      5000      2552      5890
 -1     23366    3    0    3
 -2      2352      2401      4952      2552
 -1     23367    3    0    3
 -2      4952      4962      2352      2552
 -1     23368    3    0    3
 -2      2553      4962      5006      2552
 -1     23369    3    0    3
 -2      4962      2553      2352      2552
 -1     23370    3    0    3
 -2      2562      5000      2644      5819
 -1     23371    3    0    3
 -2      3469      4998      4999      5900
 -1     23372    3    0    3
 -2      5819      5001      2555      5900
 -1     23373    3    0    3
 -2      2007      2206      5821      5826
 -1     23374    3    0    3
 -2      5719      2308      2455      2514
 -1     23375    3    0    3
 -2      2664      2533      2563      6373
 -1     23376    3    0    3
 -2      2556      2563      4999      2664
 -1     23377    3    0    3
 -2      5023      2273      5913      5914
 -1     23378    3    0    3
 -2      5023      2273      5914      2274
 -1     23379    3    0    3
 -2      2709      2555      2644      5819
 -1     23380    3    0    3
 -2      5023      2273      2307      5913
 -1     23381    3    0    3
 -2      2709      5001      2555      5819
 -1     23382    3    0    3
 -2      5827      5007      5010      5899
 -1     23383    3    0    3
 -2      4952      3526      5000      6654
 -1     23384    3    0    3
 -2      4950      3526      4952      6654
 -1     23385    3    0    3
 -2      2614      4952      5000      6654
 -1     23386    3    0    3
 -2      2614      5000      2562      6654
 -1     23387    3    0    3
 -2      4950      2421      2400      2663
 -1     23388    3    0    3
 -2      5820      2663      2400      2582
 -1     23389    3    0    3
 -2      5015      2050      5828      6724
 -1     23390    3    0    3
 -2      2802      2873      2800      4804
 -1     23391    3    0    3
 -2      2166      1946      2136      5896
 -1     23392    3    0    3
 -2       377      5802      2839      1820
 -1     23393    3    0    3
 -2      5001      5004      4460      5899
 -1     23394    3    0    3
 -2      5829      1182      6639       965
 -1     23395    3    0    3
 -2      2826      5015      1838      5901
 -1     23396    3    0    3
 -2      1812      1728       375      5850
 -1     23397    3    0    3
 -2      2049      1946      2166      5896
 -1     23398    3    0    3
 -2      2465      2335      5010      2336
 -1     23399    3    0    3
 -2      4460      5004      5010      5899
 -1     23400    3    0    3
 -2      4515      5574      5573      4483
 -1     23401    3    0    3
 -2      2396      2306      5013      5913
 -1     23402    3    0    3
 -2       672      6077      5371      6034
 -1     23403    3    0    3
 -2      2334      2396      2499      5012
 -1     23404    3    0    3
 -2      4375      4323      5580      5013
 -1     23405    3    0    3
 -2      2273      2306      2334      5913
 -1     23406    3    0    3
 -2      4299      5580      4323      5013
 -1     23407    3    0    3
 -2      4349      5023      5022      5855
 -1     23408    3    0    3
 -2      4349      5580      4299      5013
 -1     23409    3    0    3
 -2       672      6077       916      5371
 -1     23410    3    0    3
 -2      2855      2812      5034      2810
 -1     23411    3    0    3
 -2      2236      2269      1986      5807
 -1     23412    3    0    3
 -2      5017      1992      1820      5802
 -1     23413    3    0    3
 -2      5024      5749      2456      5853
 -1     23414    3    0    3
 -2      4948      3331      3393      4956
 -1     23415    3    0    3
 -2      1686      3838      5650      1672
 -1     23416    3    0    3
 -2      5019      2514      2719      2515
 -1     23417    3    0    3
 -2       377      5802      1820      1818
 -1     23418    3    0    3
 -2      4477      5018      4422      5020
 -1     23419    3    0    3
 -2      4483      4428      5576      5009
 -1     23420    3    0    3
 -2      2515      5009      2654      2655
 -1     23421    3    0    3
 -2      4797      2639      2638      2506
 -1     23422    3    0    3
 -2       375      2859      2825      5850
 -1     23423    3    0    3
 -2      6710      1644      1668      5587
 -1     23424    3    0    3
 -2      6050      5880      2725      6216
 -1     23425    3    0    3
 -2       462        11       647       790
 -1     23426    3    0    3
 -2      2154      5795      6722      4981
 -1     23427    3    0    3
 -2      5716      4293      5750      5031
 -1     23428    3    0    3
 -2      4299      5034      5601      4267
 -1     23429    3    0    3
 -2      2455      2398      2308      5803
 -1     23430    3    0    3
 -2      4299      5023      5034      4267
 -1     23431    3    0    3
 -2      5733      5035      4267      5902
 -1     23432    3    0    3
 -2      2154      5795      4981      2241
 -1     23433    3    0    3
 -2      6415      1071      1080      5276
 -1     23434    3    0    3
 -2      2273      1992      2306      5914
 -1     23435    3    0    3
 -2      5919      2867      2831      6797
 -1     23436    3    0    3
 -2      2867      2812      2811      5903
 -1     23437    3    0    3
 -2        83      5054      5051       586
 -1     23438    3    0    3
 -2      5827      2654      5009      2653
 -1     23439    3    0    3
 -2      4299      5023      5013      5914
 -1     23440    3    0    3
 -2      5732      5722      2831      6679
 -1     23441    3    0    3
 -2      5602      6690      4189      6686
 -1     23442    3    0    3
 -2      1728      1986      1991      5850
 -1     23443    3    0    3
 -2      1818      2054      5034      5802
 -1     23444    3    0    3
 -2      1818      5034      2810      5802
 -1     23445    3    0    3
 -2      2550      5907      2651      2667
 -1     23446    3    0    3
 -2      5024      4369      5591      4321
 -1     23447    3    0    3
 -2      2642      5910      5021      2662
 -1     23448    3    0    3
 -2      5847      1231      1001      1002
 -1     23449    3    0    3
 -2      2799      5927      5928      2821
 -1     23450    3    0    3
 -2      5763      1761      2071      5070
 -1     23451    3    0    3
 -2      1651      5576      5586      5904
 -1     23452    3    0    3
 -2      2550      5018      5008      5908
 -1     23453    3    0    3
 -2      5935      4800      2176      5986
 -1     23454    3    0    3
 -2      4341      4393      5588      5021
 -1     23455    3    0    3
 -2      5021      4369      4341      5024
 -1     23456    3    0    3
 -2      4341      5591      4293      5024
 -1     23457    3    0    3
 -2      5029      4484      5709      5736
 -1     23458    3    0    3
 -2      5709      4484      5032      5736
 -1     23459    3    0    3
 -2      3481      3679       574      3890
 -1     23460    3    0    3
 -2      4341      4369      5591      5024
 -1     23461    3    0    3
 -2      4447      5587      4393      5020
 -1     23462    3    0    3
 -2      6415      1071      5278      1072
 -1     23463    3    0    3
 -2      3457      4989      4987      4477
 -1     23464    3    0    3
 -2      5575      5585      4506      4454
 -1     23465    3    0    3
 -2      2607      2642      2369      5906
 -1     23466    3    0    3
 -2      4393      4341      5027      5021
 -1     23467    3    0    3
 -2      2642      5021      5020      5906
 -1     23468    3    0    3
 -2      2662      2642      2607      5021
 -1     23469    3    0    3
 -2      5763      1761      1987      2071
 -1     23470    3    0    3
 -2      5917      2457      2607      6367
 -1     23471    3    0    3
 -2      5917      2607      5021      6367
 -1     23472    3    0    3
 -2      2688      2620      2642      5020
 -1     23473    3    0    3
 -2      4800      5935      2176      5933
 -1     23474    3    0    3
 -2      2372      5031      5739      5725
 -1     23475    3    0    3
 -2      5021      4393      5588      4422
 -1     23476    3    0    3
 -2      5588      4393      5587      4422
 -1     23477    3    0    3
 -2      2688      2667      2620      5020
 -1     23478    3    0    3
 -2      5018      2667      2688      5020
 -1     23479    3    0    3
 -2      4422      5587      5585      4477
 -1     23480    3    0    3
 -2      5585      5018      4422      4477
 -1     23481    3    0    3
 -2      4989      2651      4987      5907
 -1     23482    3    0    3
 -2      2837      6682      5035      2836
 -1     23483    3    0    3
 -2      5020      4477      5018      5907
 -1     23484    3    0    3
 -2      2619      2620      2667      5020
 -1     23485    3    0    3
 -2      2417      2620      2619      5746
 -1     23486    3    0    3
 -2      4506      3460      5575      5008
 -1     23487    3    0    3
 -2      2697      4964      2550      5008
 -1     23488    3    0    3
 -2      4506      4964      5008      5908
 -1     23489    3    0    3
 -2      5008      4964      2550      5908
 -1     23490    3    0    3
 -2      5586      5585      1651      5904
 -1     23491    3    0    3
 -2      5575      4506      5008      4454
 -1     23492    3    0    3
 -2      5008      4506      5018      4454
 -1     23493    3    0    3
 -2      5018      2550      5008      2712
 -1     23494    3    0    3
 -2      2550      2697      5008      2712
 -1     23495    3    0    3
 -2      5018      5585      4422      4454
 -1     23496    3    0    3
 -2      4454      5576      4398      5009
 -1     23497    3    0    3
 -2      4398      5586      4454      5019
 -1     23498    3    0    3
 -2      4422      5018      4454      5019
 -1     23499    3    0    3
 -2      4020      4839      5402      4518
 -1     23500    3    0    3
 -2      6192      5661      6265      6272
 -1     23501    3    0    3
 -2      4454      4483      5576      5009
 -1     23502    3    0    3
 -2      5009      4483      5007      5805
 -1     23503    3    0    3
 -2      2653      2698      2655      5805
 -1     23504    3    0    3
 -2      2703      2653      2465      5827
 -1     23505    3    0    3
 -2      2837      6682      2836      2868
 -1     23506    3    0    3
 -2      1686      3838      1690      4186
 -1     23507    3    0    3
 -2      2782      2784      4049      2761
 -1     23508    3    0    3
 -2      1487      5806      5586      1486
 -1     23509    3    0    3
 -2      5019      4422      5018      5910
 -1     23510    3    0    3
 -2      5008      2712      2655      5911
 -1     23511    3    0    3
 -2      2712      2515      2655      5911
 -1     23512    3    0    3
 -2      2515      2500      2499      5912
 -1     23513    3    0    3
 -2      2445      4797      6015      6340
 -1     23514    3    0    3
 -2      4483      5006      5007      5805
 -1     23515    3    0    3
 -2      5019      4454      5009      5911
 -1     23516    3    0    3
 -2      2784      2782      4049      3521
 -1     23517    3    0    3
 -2      4483      5008      5006      5805
 -1     23518    3    0    3
 -2      2654      5009      2653      2655
 -1     23519    3    0    3
 -2      5012      2396      2551      5660
 -1     23520    3    0    3
 -2      5013      5012      4375      5660
 -1     23521    3    0    3
 -2      6192      5661      6260      6265
 -1     23522    3    0    3
 -2      5827      5009      5007      2653
 -1     23523    3    0    3
 -2      2445      4797      4798      2435
 -1     23524    3    0    3
 -2      4600      6499      6643      4118
 -1     23525    3    0    3
 -2      2274      2109      5733      5902
 -1     23526    3    0    3
 -2      6710      1644      1669      1668
 -1     23527    3    0    3
 -2      4293      5024      4321      5025
 -1     23528    3    0    3
 -2      5919      2831      5732      6797
 -1     23529    3    0    3
 -2      1823      2103      1710      6330
 -1     23530    3    0    3
 -2      5035      1823      5823      6330
 -1     23531    3    0    3
 -2      5564      5563      4446      4238
 -1     23532    3    0    3
 -2      5023      4349      4299      5013
 -1     23533    3    0    3
 -2      5855      2334      5012      5913
 -1     23534    3    0    3
 -2      4441      6327      6777      4467
 -1     23535    3    0    3
 -2      5733      5023      5034      5914
 -1     23536    3    0    3
 -2      1311      5590      5589      6776
 -1     23537    3    0    3
 -2      2273      2054      1992      5914
 -1     23538    3    0    3
 -2      1991      5914      5017      5897
 -1     23539    3    0    3
 -2      6776      1242      6621      1333
 -1     23540    3    0    3
 -2      6710      1644      5587      5799
 -1     23541    3    0    3
 -2      5733      2054      2274      5914
 -1     23542    3    0    3
 -2      5850      2049      1812      1986
 -1     23543    3    0    3
 -2      5579      4349      4398      5012
 -1     23544    3    0    3
 -2       730      4420       887      5422
 -1     23545    3    0    3
 -2      5009      4428      4398      5012
 -1     23546    3    0    3
 -2      5007      5010      4428      5827
 -1     23547    3    0    3
 -2       231       680       230      3034
 -1     23548    3    0    3
 -2      2396      5013      5012      5913
 -1     23549    3    0    3
 -2      2551      2499      5012      5916
 -1     23550    3    0    3
 -2      5013      2396      5012      5660
 -1     23551    3    0    3
 -2      2149      5948      1960      2009
 -1     23552    3    0    3
 -2      2653      2551      2465      5827
 -1     23553    3    0    3
 -2      2306      2396      2334      5913
 -1     23554    3    0    3
 -2      4428      5010      5012      5827
 -1     23555    3    0    3
 -2      5010      2551      2336      5660
 -1     23556    3    0    3
 -2      4447      6619      4393      5587
 -1     23557    3    0    3
 -2      1102      5596      6362      5783
 -1     23558    3    0    3
 -2      2411      2456      5749      5853
 -1     23559    3    0    3
 -2      5966      3046      5971      6055
 -1     23560    3    0    3
 -2      2457      2456      2455      5024
 -1     23561    3    0    3
 -2      2277      2380      5031      5750
 -1     23562    3    0    3
 -2      4299      5590      5023      4267
 -1     23563    3    0    3
 -2      5601      5590      4299      4267
 -1     23564    3    0    3
 -2      5974      4202      5368      6270
 -1     23565    3    0    3
 -2      5935      5932      5014      5755
 -1     23566    3    0    3
 -2      3042      1858      3057       408
 -1     23567    3    0    3
 -2      1078      1009      1098      6617
 -1     23568    3    0    3
 -2       786       902      5602      6694
 -1     23569    3    0    3
 -2      5592      5602      4267      5753
 -1     23570    3    0    3
 -2      5023      4267      4321      5025
 -1     23571    3    0    3
 -2      5596      1102      6362      5702
 -1     23572    3    0    3
 -2      5024      5591      4293      4321
 -1     23573    3    0    3
 -2      5592      4293      5591      4321
 -1     23574    3    0    3
 -2      2102      1823      5035      6330
 -1     23575    3    0    3
 -2      2187      2102      2109      5902
 -1     23576    3    0    3
 -2      4321      4267      5592      5025
 -1     23577    3    0    3
 -2      4321      5592      4293      5025
 -1     23578    3    0    3
 -2      2654      5912      5916      5009
 -1     23579    3    0    3
 -2      2815      2831      2838      5722
 -1     23580    3    0    3
 -2      5023      4299      5034      5914
 -1     23581    3    0    3
 -2      1821      1823      5035      2102
 -1     23582    3    0    3
 -2      2859      1820       376      2839
 -1     23583    3    0    3
 -2      6000      6658      3086      5979
 -1     23584    3    0    3
 -2      2398      5024      2456      5853
 -1     23585    3    0    3
 -2      5849      2795      5584      6756
 -1     23586    3    0    3
 -2      2836      2811       379      5903
 -1     23587    3    0    3
 -2      1833      2811       379       378
 -1     23588    3    0    3
 -2      1821       379      1833      5903
 -1     23589    3    0    3
 -2      2109      1821      1833      5733
 -1     23590    3    0    3
 -2      2811      2812      5034      5903
 -1     23591    3    0    3
 -2      5035      4189      2837      2838
 -1     23592    3    0    3
 -2      4267      5903      5034      5732
 -1     23593    3    0    3
 -2      5035      4267      5602      5732
 -1     23594    3    0    3
 -2      5722      5035      5602      5732
 -1     23595    3    0    3
 -2      2878      5857      5016      2785
 -1     23596    3    0    3
 -2      4189      2816      2837      2838
 -1     23597    3    0    3
 -2      2836       379      1821      5903
 -1     23598    3    0    3
 -2      5035      2837      2836      2838
 -1     23599    3    0    3
 -2      5732      5034      5601      5919
 -1     23600    3    0    3
 -2      2813      2854      2795      5756
 -1     23601    3    0    3
 -2      4905      2116      1843      4280
 -1     23602    3    0    3
 -2      2855      2854      5017      5756
 -1     23603    3    0    3
 -2      5733      5035      1821      5903
 -1     23604    3    0    3
 -2      5034      2855      2810      5802
 -1     23605    3    0    3
 -2      2854      5017      2859      2839
 -1     23606    3    0    3
 -2      3130      4565      1763      3125
 -1     23607    3    0    3
 -2      2854      2855      5017      2839
 -1     23608    3    0    3
 -2      5802      1992      2054      5914
 -1     23609    3    0    3
 -2      2953       751       210      2927
 -1     23610    3    0    3
 -2        74      5071      1760       592
 -1     23611    3    0    3
 -2      5757      1334      1335      5689
 -1     23612    3    0    3
 -2      5017      5850      2859      1728
 -1     23613    3    0    3
 -2       379      2836      1821       380
 -1     23614    3    0    3
 -2      5079      1825       630      5078
 -1     23615    3    0    3
 -2       376      1728      2859       375
 -1     23616    3    0    3
 -2      2799      5927      2821      2820
 -1     23617    3    0    3
 -2      3664      6786      4579      6572
 -1     23618    3    0    3
 -2      1818      2810       378       377
 -1     23619    3    0    3
 -2       376      2839      1820       377
 -1     23620    3    0    3
 -2      1992      2054      1818      5802
 -1     23621    3    0    3
 -2       374      1812       375      2825
 -1     23622    3    0    3
 -2       665      5584       783      6683
 -1     23623    3    0    3
 -2      4352      5807      5016      4323
 -1     23624    3    0    3
 -2      5772      5582      5812      6673
 -1     23625    3    0    3
 -2      2827      1736      5015      5922
 -1     23626    3    0    3
 -2      5311       928      6390       741
 -1     23627    3    0    3
 -2      1758      5014      2023      1759
 -1     23628    3    0    3
 -2      1946      5015      1838      1736
 -1     23629    3    0    3
 -2      1946      2050      5015      1736
 -1     23630    3    0    3
 -2      2827       372      1736      5922
 -1     23631    3    0    3
 -2      3490      3994      5454      4067
 -1     23632    3    0    3
 -2       780      5581      2834      5772
 -1     23633    3    0    3
 -2      2843      2801      2862      5867
 -1     23634    3    0    3
 -2      1736      2050      5015      6724
 -1     23635    3    0    3
 -2      5867      2870      5581      5923
 -1     23636    3    0    3
 -2      2827      2866      2844      5922
 -1     23637    3    0    3
 -2      5757      1334      1244      1335
 -1     23638    3    0    3
 -2      5412      1366      5443      5848
 -1     23639    3    0    3
 -2      5812      2877      2869      5891
 -1     23640    3    0    3
 -2      2787      2869      2877      5891
 -1     23641    3    0    3
 -2      2306      5013      5914      5897
 -1     23642    3    0    3
 -2      5922      1736      5015      6724
 -1     23643    3    0    3
 -2      2878      5857      2785      2787
 -1     23644    3    0    3
 -2       672      3059      3047      5966
 -1     23645    3    0    3
 -2      5884      2090      5934      5933
 -1     23646    3    0    3
 -2      1728      1812      1986      5850
 -1     23647    3    0    3
 -2      5778      5795      4979      5777
 -1     23648    3    0    3
 -2      5016      2785      5857      5926
 -1     23649    3    0    3
 -2      2826      1838       374      5901
 -1     23650    3    0    3
 -2      5828      5014      5015      6724
 -1     23651    3    0    3
 -2      4428      5854      5852      5577
 -1     23652    3    0    3
 -2      5014      2844      2822      2862
 -1     23653    3    0    3
 -2      4352      5807      4323      5011
 -1     23654    3    0    3
 -2      4352      5807      5011      5896
 -1     23655    3    0    3
 -2      5934      5755      5933      2090
 -1     23656    3    0    3
 -2      6678      1929      1997      2446
 -1     23657    3    0    3
 -2      2522      5706      5708      6258
 -1     23658    3    0    3
 -2      2522      5706      2594      5708
 -1     23659    3    0    3
 -2      4352      5015      5582      5891
 -1     23660    3    0    3
 -2      6348      5975      1022      5365
 -1     23661    3    0    3
 -2      5015      2866      2827      5922
 -1     23662    3    0    3
 -2      1002      6346      5584      5847
 -1     23663    3    0    3
 -2      5583      5584      5857      6671
 -1     23664    3    0    3
 -2      5754      5584      5583      6671
 -1     23665    3    0    3
 -2      2878      5857      2787      5921
 -1     23666    3    0    3
 -2      2818      5812      5772      2876
 -1     23667    3    0    3
 -2      5365      4497      4802      4467
 -1     23668    3    0    3
 -2      4081      6731      4742      6044
 -1     23669    3    0    3
 -2      2821      2799      2856      5928
 -1     23670    3    0    3
 -2      5990      5369      1012      5998
 -1     23671    3    0    3
 -2      5975      2809       678      6366
 -1     23672    3    0    3
 -2      4804      2802      2873      5937
 -1     23673    3    0    3
 -2      2856      2821      5928      5929
 -1     23674    3    0    3
 -2      5910      4369      4422      5021
 -1     23675    3    0    3
 -2      2857      2821      2856      5929
 -1     23676    3    0    3
 -2      2858      6350      5347      5956
 -1     23677    3    0    3
 -2       233      3065       771      6728
 -1     23678    3    0    3
 -2      5974      5158      3065      6728
 -1     23679    3    0    3
 -2       718      5968      5364      6348
 -1     23680    3    0    3
 -2      6070      1170      6440      1395
 -1     23681    3    0    3
 -2      3588      4795      4793      3531
 -1     23682    3    0    3
 -2      5922      2862      5014      5923
 -1     23683    3    0    3
 -2      6325      5467      1126      6292
 -1     23684    3    0    3
 -2      2175      2148      2445      5884
 -1     23685    3    0    3
 -2      2050      2023      2137      5828
 -1     23686    3    0    3
 -2      5938      2046      4801      5978
 -1     23687    3    0    3
 -2      2799       366      2856      5928
 -1     23688    3    0    3
 -2       371      1758      2822       370
 -1     23689    3    0    3
 -2      2400      4950      4764      5821
 -1     23690    3    0    3
 -2      5930      5366      4441      6333
 -1     23691    3    0    3
 -2      5962      4168      5368      5995
 -1     23692    3    0    3
 -2      2024      1758      1757      5755
 -1     23693    3    0    3
 -2      2148      4798      2445      5884
 -1     23694    3    0    3
 -2      4783      4782      6104      5945
 -1     23695    3    0    3
 -2      4780      2028      4784      5938
 -1     23696    3    0    3
 -2      2858      6350      2819      5347
 -1     23697    3    0    3
 -2      2176      2175      4800      5933
 -1     23698    3    0    3
 -2      5003      5005      5773      5828
 -1     23699    3    0    3
 -2      2856       367      1863       366
 -1     23700    3    0    3
 -2      1738      5707      1966      1828
 -1     23701    3    0    3
 -2      5928      1863      2856      5929
 -1     23702    3    0    3
 -2       718      5968      6348      1021
 -1     23703    3    0    3
 -2      4783      4782      5945      3513
 -1     23704    3    0    3
 -2      2845      2806      2828      5985
 -1     23705    3    0    3
 -2      1552      6006      5373      6693
 -1     23706    3    0    3
 -2      1863      2856       366      5928
 -1     23707    3    0    3
 -2      3508      5885      4789      5954
 -1     23708    3    0    3
 -2      4774      2542      4776      5893
 -1     23709    3    0    3
 -2      1790      2097      4803      1960
 -1     23710    3    0    3
 -2       365      2799      1714       366
 -1     23711    3    0    3
 -2      2790      2806      2846      5959
 -1     23712    3    0    3
 -2      2828      1713      5939      5985
 -1     23713    3    0    3
 -2      4801      2045      2046      1895
 -1     23714    3    0    3
 -2       231       232       681      3035
 -1     23715    3    0    3
 -2      4168      6658      4806      4136
 -1     23716    3    0    3
 -2      4801      1713      2045      1895
 -1     23717    3    0    3
 -2       365       364      1713      2828
 -1     23718    3    0    3
 -2      1713       365      2828      5939
 -1     23719    3    0    3
 -2      5927      5939      5936      2820
 -1     23720    3    0    3
 -2      2847      2879      5364      6345
 -1     23721    3    0    3
 -2      5939      1713      1714      5949
 -1     23722    3    0    3
 -2      5906      4364      5027      4393
 -1     23723    3    0    3
 -2      2789      2848      2850      4784
 -1     23724    3    0    3
 -2      1852      6187      4677      4676
 -1     23725    3    0    3
 -2      6110      2329      6219      2275
 -1     23726    3    0    3
 -2      6253      2522      5708      6258
 -1     23727    3    0    3
 -2      5273      3296      5275      3308
 -1     23728    3    0    3
 -2       361      2829      1828      5942
 -1     23729    3    0    3
 -2      4784      2850      5940      5956
 -1     23730    3    0    3
 -2      6335      6333      5366      6341
 -1     23731    3    0    3
 -2       340      5791       339      1795
 -1     23732    3    0    3
 -2      4708      4044      4709      4469
 -1     23733    3    0    3
 -2      5963      6792      5962      4168
 -1     23734    3    0    3
 -2      2804       261       761      6316
 -1     23735    3    0    3
 -2      2009      5949      4802      1714
 -1     23736    3    0    3
 -2      1738      5707      2829      4783
 -1     23737    3    0    3
 -2      2799      2828       365      5939
 -1     23738    3    0    3
 -2      4784      1967      1827      2028
 -1     23739    3    0    3
 -2      3513      5957      5947      5341
 -1     23740    3    0    3
 -2      1967      4784      1827      5707
 -1     23741    3    0    3
 -2      5444      6256      1377      6297
 -1     23742    3    0    3
 -2      5365      2864      2861      6348
 -1     23743    3    0    3
 -2      4468      4112      4101      5488
 -1     23744    3    0    3
 -2      2559      6370      2558      2557
 -1     23745    3    0    3
 -2      4792      5948      4467      6727
 -1     23746    3    0    3
 -2      5888      2410      2442      4789
 -1     23747    3    0    3
 -2      3924      3757      5314      4308
 -1     23748    3    0    3
 -2      5864      5340      5334      6231
 -1     23749    3    0    3
 -2       876       791      5346      6739
 -1     23750    3    0    3
 -2      2146      2045      2147      5978
 -1     23751    3    0    3
 -2      2850      2875      2829      5940
 -1     23752    3    0    3
 -2      3513      5341      5947      5952
 -1     23753    3    0    3
 -2      2829      1738       360      1828
 -1     23754    3    0    3
 -2      6345      2847      2848      6350
 -1     23755    3    0    3
 -2      2789      1883       362      2790
 -1     23756    3    0    3
 -2      2872      2875      2863      5943
 -1     23757    3    0    3
 -2       699       919      5347      6319
 -1     23758    3    0    3
 -2      4772      3513      4782      3545
 -1     23759    3    0    3
 -2       706      6327      5366       880
 -1     23760    3    0    3
 -2      3480      3513      4778      5341
 -1     23761    3    0    3
 -2      5707      1827      1828      5942
 -1     23762    3    0    3
 -2      2790      2848      2789      4784
 -1     23763    3    0    3
 -2      5894      5334      5340      6231
 -1     23764    3    0    3
 -2      5707      2829      5942      1828
 -1     23765    3    0    3
 -2      2422      2309      5924      6258
 -1     23766    3    0    3
 -2       361      1828      1827      5942
 -1     23767    3    0    3
 -2      2829       360       361      1828
 -1     23768    3    0    3
 -2      3633      4777      4774      5958
 -1     23769    3    0    3
 -2      4776      2541      2542      5697
 -1     23770    3    0    3
 -2      2541      2524      2542      5697
 -1     23771    3    0    3
 -2      6260      6262      4781      5944
 -1     23772    3    0    3
 -2      3924      3757      4308      5317
 -1     23773    3    0    3
 -2      2789      2829       361      5942
 -1     23774    3    0    3
 -2      4784      2789      1827      5942
 -1     23775    3    0    3
 -2      2250      4898      2223      2115
 -1     23776    3    0    3
 -2      3513      5345      5335      5952
 -1     23777    3    0    3
 -2      2009      5949      2010      5887
 -1     23778    3    0    3
 -2      5335      3572      3513      5341
 -1     23779    3    0    3
 -2      4777      3539      4778      3572
 -1     23780    3    0    3
 -2      5894      5340      1404      6231
 -1     23781    3    0    3
 -2      3637      4769      4770      3606
 -1     23782    3    0    3
 -2      2288      2163      2371      6253
 -1     23783    3    0    3
 -2      3633      4774      4768      5958
 -1     23784    3    0    3
 -2      6253      4772      5925      6258
 -1     23785    3    0    3
 -2      2219      6046      2220      4739
 -1     23786    3    0    3
 -2      6340      4441      4798      4490
 -1     23787    3    0    3
 -2      3795      5273      3578      3295
 -1     23788    3    0    3
 -2      4790      4801      4497      5978
 -1     23789    3    0    3
 -2      5346       761       876      6352
 -1     23790    3    0    3
 -2      2806       363       364      1895
 -1     23791    3    0    3
 -2      1104      1020      5968      5951
 -1     23792    3    0    3
 -2      5936      3449      6345      4801
 -1     23793    3    0    3
 -2      5978      2045      4801      5949
 -1     23794    3    0    3
 -2      2281      2146      4792      5887
 -1     23795    3    0    3
 -2      5959      6345      4784      4801
 -1     23796    3    0    3
 -2      2028      1883      4784      5938
 -1     23797    3    0    3
 -2      2873      2853       368      6755
 -1     23798    3    0    3
 -2      1103      1307      5355      1370
 -1     23799    3    0    3
 -2      2860      5936      2820      5927
 -1     23800    3    0    3
 -2      5864      1502      1403      6306
 -1     23801    3    0    3
 -2      3475      4799      4796      5982
 -1     23802    3    0    3
 -2      4791      4792      2363      5969
 -1     23803    3    0    3
 -2      5894      5341      5335      5952
 -1     23804    3    0    3
 -2      5697      2541      2524      5970
 -1     23805    3    0    3
 -2      5888      2410      2460      2646
 -1     23806    3    0    3
 -2      2149      4798      5948      6727
 -1     23807    3    0    3
 -2      2146      2147      4790      5978
 -1     23808    3    0    3
 -2      5338      5309      3717      3690
 -1     23809    3    0    3
 -2      5939      2820      2828      5985
 -1     23810    3    0    3
 -2      1374      5757      1335      5689
 -1     23811    3    0    3
 -2      1374      5757      1230      1335
 -1     23812    3    0    3
 -2      1883      4784      1827      2028
 -1     23813    3    0    3
 -2      2845      2847      2846      6345
 -1     23814    3    0    3
 -2       706      6327       678      5366
 -1     23815    3    0    3
 -2       362       363      2790      1883
 -1     23816    3    0    3
 -2      2046      1883      2028      5938
 -1     23817    3    0    3
 -2      5745      5906      5027      2369
 -1     23818    3    0    3
 -2      2523      4771      4777      5953
 -1     23819    3    0    3
 -2      2168      5885      4780      5954
 -1     23820    3    0    3
 -2      4789      4790      3478      5969
 -1     23821    3    0    3
 -2      1648      1508      5349      1538
 -1     23822    3    0    3
 -2      1560      1562      5319      1561
 -1     23823    3    0    3
 -2      4789      4786      5888      6004
 -1     23824    3    0    3
 -2      2438      2541      2526      4779
 -1     23825    3    0    3
 -2      2523      4771      5953      2594
 -1     23826    3    0    3
 -2      3803      4744      4738      3750
 -1     23827    3    0    3
 -2      5927      5939      4802      5936
 -1     23828    3    0    3
 -2      2438      2168      4780      5954
 -1     23829    3    0    3
 -2      3701      5329      4766      3671
 -1     23830    3    0    3
 -2      4758      3619      4762      6089
 -1     23831    3    0    3
 -2      5960      1558      1507      6736
 -1     23832    3    0    3
 -2      6356      5352      5342      6359
 -1     23833    3    0    3
 -2      4776      3661      4774      5893
 -1     23834    3    0    3
 -2      1869      5909      2021      1925
 -1     23835    3    0    3
 -2      2281      2009      2010      5887
 -1     23836    3    0    3
 -2      4780      3508      3539      4779
 -1     23837    3    0    3
 -2      4779      4780      3508      5954
 -1     23838    3    0    3
 -2      2198      1967      5865      5973
 -1     23839    3    0    3
 -2      3625      4776      4786      5664
 -1     23840    3    0    3
 -2      3446      4797      4798      4490
 -1     23841    3    0    3
 -2      2966      2965      4382      4257
 -1     23842    3    0    3
 -2      2448      2217      4767      6219
 -1     23843    3    0    3
 -2      5817      3576      4983      4982
 -1     23844    3    0    3
 -2      2628      2543      2329      5920
 -1     23845    3    0    3
 -2      1558      1533      1402      6318
 -1     23846    3    0    3
 -2      4773      4767      3750      3695
 -1     23847    3    0    3
 -2      4776      3599      5339      3567
 -1     23848    3    0    3
 -2      4769      5706      4771      5950
 -1     23849    3    0    3
 -2      6658      3085      5370      3086
 -1     23850    3    0    3
 -2      5706      4769      4771      3606
 -1     23851    3    0    3
 -2      4776      2675      2623      2542
 -1     23852    3    0    3
 -2      3717      4773      3750      5336
 -1     23853    3    0    3
 -2      5372      4202      4809      4168
 -1     23854    3    0    3
 -2      4807      5971      5370      6658
 -1     23855    3    0    3
 -2      6036      1623      6365      1435
 -1     23856    3    0    3
 -2      5339      4776      3567      3625
 -1     23857    3    0    3
 -2      3034       680       230      5979
 -1     23858    3    0    3
 -2      4775      3625      4785      5664
 -1     23859    3    0    3
 -2      5708      4778      4772      3572
 -1     23860    3    0    3
 -2      3048      5962      3051      3075
 -1     23861    3    0    3
 -2      5142      5140      5721      6771
 -1     23862    3    0    3
 -2      3562      5350      4787      3619
 -1     23863    3    0    3
 -2      4188      6593      4611      4129
 -1     23864    3    0    3
 -2      3539      4779      4777      5970
 -1     23865    3    0    3
 -2       744       229       230      3067
 -1     23866    3    0    3
 -2      6522      1327      6178      5149
 -1     23867    3    0    3
 -2      1836      6101      1982      2078
 -1     23868    3    0    3
 -2      4806      5963      3041      6658
 -1     23869    3    0    3
 -2      5967      2218      2271      6804
 -1     23870    3    0    3
 -2      3051      3039      3091      5962
 -1     23871    3    0    3
 -2      4811      4087      4111      5374
 -1     23872    3    0    3
 -2      5707      1967      4784      5973
 -1     23873    3    0    3
 -2      1836      6101      2078      4807
 -1     23874    3    0    3
 -2      3539      4780      4779      5964
 -1     23875    3    0    3
 -2      2208      6792      1959      6668
 -1     23876    3    0    3
 -2      1282      6301      5955      5330
 -1     23877    3    0    3
 -2      6004      2459      2460      2461
 -1     23878    3    0    3
 -2      4778      2288      2198      2331
 -1     23879    3    0    3
 -2      5697      2524      4777      5970
 -1     23880    3    0    3
 -2      4777      2524      2523      2331
 -1     23881    3    0    3
 -2      6251      4772      5706      6258
 -1     23882    3    0    3
 -2      3048      5962      3075      4805
 -1     23883    3    0    3
 -2      5267      5270      3834      4382
 -1     23884    3    0    3
 -2      1713      4801      2045      5949
 -1     23885    3    0    3
 -2      2179      5828      2023      5935
 -1     23886    3    0    3
 -2      6004      2459      4786      5888
 -1     23887    3    0    3
 -2      5724      6443      1474      1280
 -1     23888    3    0    3
 -2      4087      4811      4136      5374
 -1     23889    3    0    3
 -2      1226      1284      5372      6022
 -1     23890    3    0    3
 -2      5707      2829      5940      5942
 -1     23891    3    0    3
 -2      6024      1326      1365      5331
 -1     23892    3    0    3
 -2      2676      4746      2622      6039
 -1     23893    3    0    3
 -2      4745      2473      2316      5882
 -1     23894    3    0    3
 -2      3040      3034      3067      5979
 -1     23895    3    0    3
 -2      5369      1012       680       885
 -1     23896    3    0    3
 -2      5370      4136      5380      4107
 -1     23897    3    0    3
 -2      4758      3686      4757      6374
 -1     23898    3    0    3
 -2      2860      5936      2861      2820
 -1     23899    3    0    3
 -2      2459      4786      2675      2705
 -1     23900    3    0    3
 -2      1141      5992      6007      5380
 -1     23901    3    0    3
 -2      4780      2168      2197      2028
 -1     23902    3    0    3
 -2      1141      5992      5380      1142
 -1     23903    3    0    3
 -2      2606      2605      2604      5972
 -1     23904    3    0    3
 -2      2646      2459      2460      5888
 -1     23905    3    0    3
 -2      3562      4793      4794      3531
 -1     23906    3    0    3
 -2      5977      5974      4202      5368
 -1     23907    3    0    3
 -2      5003      5002      4465      5986
 -1     23908    3    0    3
 -2      5990      4202      5368      5977
 -1     23909    3    0    3
 -2      5958      4774      2544      4777
 -1     23910    3    0    3
 -2      6348      1022      5968      5365
 -1     23911    3    0    3
 -2      3048      5962      4805      6270
 -1     23912    3    0    3
 -2      1552      6006      1551      6019
 -1     23913    3    0    3
 -2      5990      4202      5977      5372
 -1     23914    3    0    3
 -2      6121      4781      3298      5944
 -1     23915    3    0    3
 -2      5570      5572      4378      6637
 -1     23916    3    0    3
 -2      4792      2146      2363      5969
 -1     23917    3    0    3
 -2      6555      1327      1568      1564
 -1     23918    3    0    3
 -2      1220      1293      1226      6497
 -1     23919    3    0    3
 -2      3478      4791      4789      5969
 -1     23920    3    0    3
 -2      2802      4804      6333      5937
 -1     23921    3    0    3
 -2      2809      6777      5975      2860
 -1     23922    3    0    3
 -2      5158      3065      3089      5974
 -1     23923    3    0    3
 -2      3068      3053      3066      5368
 -1     23924    3    0    3
 -2      3074      5158      3089      6538
 -1     23925    3    0    3
 -2      5705      2664      5991      2595
 -1     23926    3    0    3
 -2      4202      4805      4809      4168
 -1     23927    3    0    3
 -2      3040      3067      3086      5979
 -1     23928    3    0    3
 -2      3075      3051      3091      5962
 -1     23929    3    0    3
 -2      2533      2664      4796      6373
 -1     23930    3    0    3
 -2      5794      4978      2229      5781
 -1     23931    3    0    3
 -2      4793      4762      2591      3588
 -1     23932    3    0    3
 -2      3625      4785      5348      3690
 -1     23933    3    0    3
 -2      1614      5659      1397      5395
 -1     23934    3    0    3
 -2      2801      5014      5755      2822
 -1     23935    3    0    3
 -2      2179      2023      2024      5935
 -1     23936    3    0    3
 -2      2358      5993      5002      5986
 -1     23937    3    0    3
 -2      3588      5358      4795      3531
 -1     23938    3    0    3
 -2      5992      6007      5381      1350
 -1     23939    3    0    3
 -2      4790      4497      3478      4792
 -1     23940    3    0    3
 -2      3054      6538      6490      3074
 -1     23941    3    0    3
 -2      2024      5755      5933      5935
 -1     23942    3    0    3
 -2      2148      4798      2149      2435
 -1     23943    3    0    3
 -2      6252      3447      4704      3915
 -1     23944    3    0    3
 -2      1863      4803      5928      5948
 -1     23945    3    0    3
 -2       997      5977       771      5158
 -1     23946    3    0    3
 -2      6777      4441      4803      5930
 -1     23947    3    0    3
 -2      3562      4788      4794      6370
 -1     23948    3    0    3
 -2       997      5977      5976       911
 -1     23949    3    0    3
 -2      5991      2595      2540      5993
 -1     23950    3    0    3
 -2      5991      4465      5002      5993
 -1     23951    3    0    3
 -2      5991      4465      5993      4799
 -1     23952    3    0    3
 -2      4168      4811      4111      5374
 -1     23953    3    0    3
 -2       681       682       912      5368
 -1     23954    3    0    3
 -2      3053      3036      6270      3052
 -1     23955    3    0    3
 -2      3036      3053      6270      5974
 -1     23956    3    0    3
 -2      4799      4520      4796      5991
 -1     23957    3    0    3
 -2      6380       487      3234       486
 -1     23958    3    0    3
 -2      4060      5376      5373      6006
 -1     23959    3    0    3
 -2      2358      2179      2357      5986
 -1     23960    3    0    3
 -2      5149      1327      5150      6133
 -1     23961    3    0    3
 -2      5350      3596      5351      3562
 -1     23962    3    0    3
 -2      4143      4202      4809      5372
 -1     23963    3    0    3
 -2      5373      4143      4111      5372
 -1     23964    3    0    3
 -2      1284      1082      1226      5372
 -1     23965    3    0    3
 -2      4795      6023      6025      2534
 -1     23966    3    0    3
 -2      1232      5449      5450      6300
 -1     23967    3    0    3
 -2      4143      5169      4202      5372
 -1     23968    3    0    3
 -2       912      1226      1082      5987
 -1     23969    3    0    3
 -2      4111      5372      4168      5374
 -1     23970    3    0    3
 -2      3504      5351      4788      3562
 -1     23971    3    0    3
 -2      4375      4352      5011      4403
 -1     23972    3    0    3
 -2      1142      5374      1389      5992
 -1     23973    3    0    3
 -2      3036      3089      3053      5974
 -1     23974    3    0    3
 -2      5402      3930      3955      4839
 -1     23975    3    0    3
 -2      2595      2616      5002      5705
 -1     23976    3    0    3
 -2      4999      3499      4520      4796
 -1     23977    3    0    3
 -2      4734      2561      6194      6131
 -1     23978    3    0    3
 -2      6323      6074      5388      5871
 -1     23979    3    0    3
 -2      3446      4798      5361      4490
 -1     23980    3    0    3
 -2      2540      4799      5981      5991
 -1     23981    3    0    3
 -2      5002      5705      4999      5991
 -1     23982    3    0    3
 -2      4799      2507      2540      5981
 -1     23983    3    0    3
 -2      2595      5991      5002      5993
 -1     23984    3    0    3
 -2      5995      3040      5963      5369
 -1     23985    3    0    3
 -2      5376      4093      5373      6493
 -1     23986    3    0    3
 -2       885      5979       680      5369
 -1     23987    3    0    3
 -2      6029      1626      5384      6033
 -1     23988    3    0    3
 -2      5374      5380      4087      5992
 -1     23989    3    0    3
 -2      3065      5158       771      6728
 -1     23990    3    0    3
 -2      4520      4999      4796      5991
 -1     23991    3    0    3
 -2      4785      2623      2705      2645
 -1     23992    3    0    3
 -2      5369      3040      5963      6658
 -1     23993    3    0    3
 -2      5705      2664      4999      5991
 -1     23994    3    0    3
 -2      1656      6006      1647      1551
 -1     23995    3    0    3
 -2      6370      3596      5996      4787
 -1     23996    3    0    3
 -2      4806      1815      3061      6657
 -1     23997    3    0    3
 -2      3035      3039      3068      5995
 -1     23998    3    0    3
 -2      2460      4789      5888      6004
 -1     23999    3    0    3
 -2      3034       230      3067      5979
 -1     24000    3    0    3
 -2      6370      3596      4787      3562
 -1     24001    3    0    3
 -2      3035      3068      5368      5995
 -1     24002    3    0    3
 -2      6573      6752      5784      4900
 -1     24003    3    0    3
 -2      5962      3068      3039      5995
 -1     24004    3    0    3
 -2      6603      4594      1936      6659
 -1     24005    3    0    3
 -2       147      5434       813      3547
 -1     24006    3    0    3
 -2      5374      5372      4168      5990
 -1     24007    3    0    3
 -2      5374      4168      5369      5990
 -1     24008    3    0    3
 -2       230       744      3067      5979
 -1     24009    3    0    3
 -2      5976      1226      5372      6497
 -1     24010    3    0    3
 -2      1226      5976      5372      5987
 -1     24011    3    0    3
 -2      6776      4299      5590      4349
 -1     24012    3    0    3
 -2       744       230       680      5979
 -1     24013    3    0    3
 -2      5369      3034      3040      5979
 -1     24014    3    0    3
 -2      4594      6603      1936      6116
 -1     24015    3    0    3
 -2      5748      1511      5379      6014
 -1     24016    3    0    3
 -2      4796      4799      5981      5982
 -1     24017    3    0    3
 -2      1453      1628      1539      6033
 -1     24018    3    0    3
 -2      5979       744      3067      6000
 -1     24019    3    0    3
 -2      3883      4852      3941      5415
 -1     24020    3    0    3
 -2      1539      1350      5381      1349
 -1     24021    3    0    3
 -2      3060       731      5370      6000
 -1     24022    3    0    3
 -2      5380      4087      4136      5374
 -1     24023    3    0    3
 -2      2188      2326      2431      6001
 -1     24024    3    0    3
 -2      1339      6408      1471      5552
 -1     24025    3    0    3
 -2      4136      5380      5374      6005
 -1     24026    3    0    3
 -2      1339      6408      5550      1324
 -1     24027    3    0    3
 -2      4111      4087      5375      5374
 -1     24028    3    0    3
 -2      4136      4168      5369      5374
 -1     24029    3    0    3
 -2      5990      1082      1012      6695
 -1     24030    3    0    3
 -2      4999      5566      4486      4520
 -1     24031    3    0    3
 -2      5380       886      1141      1142
 -1     24032    3    0    3
 -2      1449      6014      5377      5379
 -1     24033    3    0    3
 -2      2664      2563      4999      6373
 -1     24034    3    0    3
 -2      5370      3086      3060      6000
 -1     24035    3    0    3
 -2      3596      4788      4786      3534
 -1     24036    3    0    3
 -2      4791      2604      5972      6013
 -1     24037    3    0    3
 -2      4788      4794      3504      3562
 -1     24038    3    0    3
 -2      1142      5380       886      6005
 -1     24039    3    0    3
 -2      4822      3877      3911      5385
 -1     24040    3    0    3
 -2      2681      6045      4743      6132
 -1     24041    3    0    3
 -2      3972      5379      5378      5748
 -1     24042    3    0    3
 -2      1656      1551      1553      6006
 -1     24043    3    0    3
 -2      6356      5352      1535      6360
 -1     24044    3    0    3
 -2      2203      2326      4758      2327
 -1     24045    3    0    3
 -2      6380       487       486      6742
 -1     24046    3    0    3
 -2      2646      2675      2459      5888
 -1     24047    3    0    3
 -2      4786      2459      2675      5888
 -1     24048    3    0    3
 -2      3208      3161      4725      3237
 -1     24049    3    0    3
 -2      4774      5958      2544      5961
 -1     24050    3    0    3
 -2      5374      1012      6695      5990
 -1     24051    3    0    3
 -2      2705      2459      4786      2461
 -1     24052    3    0    3
 -2      2410      2146      4790      5969
 -1     24053    3    0    3
 -2      2410      2363      2146      5969
 -1     24054    3    0    3
 -2       912      1082      5990      5987
 -1     24055    3    0    3
 -2      2363      4791      5969      6013
 -1     24056    3    0    3
 -2      4736      5967      2271      6804
 -1     24057    3    0    3
 -2      4385       716      5247      3710
 -1     24058    3    0    3
 -2      4799      4796      5981      5991
 -1     24059    3    0    3
 -2      5374      1083      1142      1389
 -1     24060    3    0    3
 -2      2798      5366      5930      6333
 -1     24061    3    0    3
 -2      5378      4026      3972      5384
 -1     24062    3    0    3
 -2      5865      4783      1966      5945
 -1     24063    3    0    3
 -2      2097      1960      2148      5884
 -1     24064    3    0    3
 -2      3534      5972      3504      4788
 -1     24065    3    0    3
 -2      6266      1996      6438      2193
 -1     24066    3    0    3
 -2      2873      2802      2874      5937
 -1     24067    3    0    3
 -2      4406      4804      5367      5932
 -1     24068    3    0    3
 -2      3941      1356      5417      5415
 -1     24069    3    0    3
 -2      1610      1607      5437      6115
 -1     24070    3    0    3
 -2      4854      3911      5417      3941
 -1     24071    3    0    3
 -2      5003      4465      4800      5986
 -1     24072    3    0    3
 -2      2175      4800      2406      2176
 -1     24073    3    0    3
 -2      4486      5569      5002      4520
 -1     24074    3    0    3
 -2      5995      3040      3039      5963
 -1     24075    3    0    3
 -2      5569      4486      5566      4520
 -1     24076    3    0    3
 -2      4486      5002      4999      4520
 -1     24077    3    0    3
 -2      5174      1520      1422      1589
 -1     24078    3    0    3
 -2      4803      1863      1790      1960
 -1     24079    3    0    3
 -2      3849      3815      5424      5423
 -1     24080    3    0    3
 -2      4852      4854      3883      3941
 -1     24081    3    0    3
 -2      2204      6268      2287      2368
 -1     24082    3    0    3
 -2      1206      1390      5361      1301
 -1     24083    3    0    3
 -2      3504      5357      5351      3562
 -1     24084    3    0    3
 -2      3504      4794      5357      3562
 -1     24085    3    0    3
 -2       830       578       726      5494
 -1     24086    3    0    3
 -2      2281      2363      2364      4792
 -1     24087    3    0    3
 -2      2146      2363      2281      4792
 -1     24088    3    0    3
 -2      4821      3996      3937      5384
 -1     24089    3    0    3
 -2      5384      1627      5385      5748
 -1     24090    3    0    3
 -2      4804      2802      6333      5932
 -1     24091    3    0    3
 -2      1551      1582      1552      6019
 -1     24092    3    0    3
 -2      4490      4797      4798      6340
 -1     24093    3    0    3
 -2      5384      1666      1627      5748
 -1     24094    3    0    3
 -2      6046      3678      3592      1788
 -1     24095    3    0    3
 -2      3941      1356      5415      5377
 -1     24096    3    0    3
 -2      6006      5376      5373      6693
 -1     24097    3    0    3
 -2      3562      4794      5357      3531
 -1     24098    3    0    3
 -2      5417      5379      3911      6011
 -1     24099    3    0    3
 -2      5384      3937      3972      5385
 -1     24100    3    0    3
 -2      3972      3911      4816      5379
 -1     24101    3    0    3
 -2      3859      6062      5312      3801
 -1     24102    3    0    3
 -2      5423      5417      3911      6011
 -1     24103    3    0    3
 -2      1627      1628      5384      1626
 -1     24104    3    0    3
 -2      1512      1511      5379      5385
 -1     24105    3    0    3
 -2      1511      1512      1513      5385
 -1     24106    3    0    3
 -2      5377      5376      4001      6014
 -1     24107    3    0    3
 -2      5688      1639      1664      5397
 -1     24108    3    0    3
 -2      6015      4797      4799      6340
 -1     24109    3    0    3
 -2      6086      1248      1140      5424
 -1     24110    3    0    3
 -2      6145      2279      2299      6054
 -1     24111    3    0    3
 -2      1790      1789       368      6755
 -1     24112    3    0    3
 -2      1790       368      2853      6755
 -1     24113    3    0    3
 -2      3508      5885      5954      4780
 -1     24114    3    0    3
 -2      6006      5378      1647      6008
 -1     24115    3    0    3
 -2      3996      4026      5381      5384
 -1     24116    3    0    3
 -2      1512      1514      1513      5385
 -1     24117    3    0    3
 -2      3319      3341      5422      3438
 -1     24118    3    0    3
 -2      3966      4023      4832      5395
 -1     24119    3    0    3
 -2      1130      1022       879      6327
 -1     24120    3    0    3
 -2      5383      1510      1613      5386
 -1     24121    3    0    3
 -2      1221      5363      1300      1219
 -1     24122    3    0    3
 -2      1960      4803      1863      5948
 -1     24123    3    0    3
 -2      5379      3911      4816      3941
 -1     24124    3    0    3
 -2      4815      4812      4026      4060
 -1     24125    3    0    3
 -2      4813      4814      4032      4001
 -1     24126    3    0    3
 -2      6012      4816      4815      6669
 -1     24127    3    0    3
 -2      4814      2471      2470      6012
 -1     24128    3    0    3
 -2      4815      5378      3972      4001
 -1     24129    3    0    3
 -2      4815      3972      4816      4001
 -1     24130    3    0    3
 -2      5379      3972      5378      4001
 -1     24131    3    0    3
 -2      4816      3972      5379      4001
 -1     24132    3    0    3
 -2      4490      4799      4797      6340
 -1     24133    3    0    3
 -2      2009      1960      1863      5948
 -1     24134    3    0    3
 -2      4093      5376      5373      4060
 -1     24135    3    0    3
 -2      4810      4093      5373      4060
 -1     24136    3    0    3
 -2      4810      4813      4093      4060
 -1     24137    3    0    3
 -2      4813      5376      4093      4060
 -1     24138    3    0    3
 -2      3941      5417      3883      5415
 -1     24139    3    0    3
 -2      5417      5379      1512      1449
 -1     24140    3    0    3
 -2      5377      4814      3976      3941
 -1     24141    3    0    3
 -2      3976      4814      4852      3941
 -1     24142    3    0    3
 -2      3859      6062      4115      5312
 -1     24143    3    0    3
 -2      5748      1666      1511      6014
 -1     24144    3    0    3
 -2      3972      5378      5384      5748
 -1     24145    3    0    3
 -2      3941      5379      5417      1449
 -1     24146    3    0    3
 -2      4788      5351      3596      3562
 -1     24147    3    0    3
 -2      5170      4093      5173      6493
 -1     24148    3    0    3
 -2      4143      6493      5373      4093
 -1     24149    3    0    3
 -2      3035      5368      5998      5995
 -1     24150    3    0    3
 -2      6508      1407      6516      5148
 -1     24151    3    0    3
 -2      3499      6321      5359      6320
 -1     24152    3    0    3
 -2      4060      5378      5376      6006
 -1     24153    3    0    3
 -2      4060      5373      5375      6006
 -1     24154    3    0    3
 -2      5376      1656      1553      6006
 -1     24155    3    0    3
 -2      5354      5352      3534      6365
 -1     24156    3    0    3
 -2      3499      6321      4520      5359
 -1     24157    3    0    3
 -2      4797      2506      2605      2435
 -1     24158    3    0    3
 -2      5379      5417      1512      6011
 -1     24159    3    0    3
 -2      2606      2638      2605      5972
 -1     24160    3    0    3
 -2      3815      4858      3877      5423
 -1     24161    3    0    3
 -2      4408       167      3422       736
 -1     24162    3    0    3
 -2      4792      2363      2364      4791
 -1     24163    3    0    3
 -2      3911      4858      3849      5423
 -1     24164    3    0    3
 -2      5173      1422      1423      6312
 -1     24165    3    0    3
 -2      2363      2604      2364      4791
 -1     24166    3    0    3
 -2      5870      2439      4739      4733
 -1     24167    3    0    3
 -2      2604      2605      4791      5972
 -1     24168    3    0    3
 -2      4795      2582      4998      5820
 -1     24169    3    0    3
 -2      2605      2364      2604      4791
 -1     24170    3    0    3
 -2      4408       167       736       654
 -1     24171    3    0    3
 -2      3475      4794      4797      5982
 -1     24172    3    0    3
 -2      5379      5377      4001      6014
 -1     24173    3    0    3
 -2      1511      1666      1656      6014
 -1     24174    3    0    3
 -2      3504      4791      4797      5972
 -1     24175    3    0    3
 -2      3534      4786      4789      6004
 -1     24176    3    0    3
 -2      4794      4788      3504      5972
 -1     24177    3    0    3
 -2      3531      5356      5358      6376
 -1     24178    3    0    3
 -2      5378      5379      4001      6014
 -1     24179    3    0    3
 -2      6266      1996      4885      6438
 -1     24180    3    0    3
 -2      1656      1587      1511      6014
 -1     24181    3    0    3
 -2      6266      1996      2192      4885
 -1     24182    3    0    3
 -2      1656      5378      5376      6014
 -1     24183    3    0    3
 -2      3941      5377      5379      1449
 -1     24184    3    0    3
 -2      5001      4999      4486      5810
 -1     24185    3    0    3
 -2      5375      4111      5374      5988
 -1     24186    3    0    3
 -2      3562      4787      4793      3619
 -1     24187    3    0    3
 -2      4060      6008      6006      5375
 -1     24188    3    0    3
 -2      3534      4788      4786      6004
 -1     24189    3    0    3
 -2      1521      1573      1441      6376
 -1     24190    3    0    3
 -2      3596      4785      4786      5996
 -1     24191    3    0    3
 -2      3042      1755       408       409
 -1     24192    3    0    3
 -2      2860      5936      5927      5365
 -1     24193    3    0    3
 -2      3475      4796      4794      5982
 -1     24194    3    0    3
 -2      5379      1512      5385      6011
 -1     24195    3    0    3
 -2      5870      2439      2440      4739
 -1     24196    3    0    3
 -2      5748      5379      5378      6014
 -1     24197    3    0    3
 -2      1656      5376      1553      1588
 -1     24198    3    0    3
 -2      6212      1936      2167      2034
 -1     24199    3    0    3
 -2      5368      3035      5998       681
 -1     24200    3    0    3
 -2      6397      3278      3548      5315
 -1     24201    3    0    3
 -2      5373      1284      1552      1443
 -1     24202    3    0    3
 -2      2592      6370      4793      2610
 -1     24203    3    0    3
 -2      2610      2557      2558      6370
 -1     24204    3    0    3
 -2      2860      5936      5365      2861
 -1     24205    3    0    3
 -2      2664      2682      2533      4796
 -1     24206    3    0    3
 -2      2451      2327      4762      2592
 -1     24207    3    0    3
 -2      6397      3278      5315      3249
 -1     24208    3    0    3
 -2      4060      6008      4026      5378
 -1     24209    3    0    3
 -2      5350      1543      5321      5681
 -1     24210    3    0    3
 -2      5990      5977       912      5987
 -1     24211    3    0    3
 -2      4998      3559      3499      4795
 -1     24212    3    0    3
 -2      4794      3504      5357      3475
 -1     24213    3    0    3
 -2      6025      2639      5982      2682
 -1     24214    3    0    3
 -2      2534      2532      2610      6023
 -1     24215    3    0    3
 -2      5374      1012      1083      6695
 -1     24216    3    0    3
 -2      5372      1284      1082      6695
 -1     24217    3    0    3
 -2      1082       912      5990      1012
 -1     24218    3    0    3
 -2      1083      1142       885      6729
 -1     24219    3    0    3
 -2      4143      6493      6022      5373
 -1     24220    3    0    3
 -2      4136      5370      5380      6005
 -1     24221    3    0    3
 -2      1083      5374      1142      6729
 -1     24222    3    0    3
 -2      5369      4136      5374      6005
 -1     24223    3    0    3
 -2      3531      4794      5357      3475
 -1     24224    3    0    3
 -2      3531      5359      4796      3475
 -1     24225    3    0    3
 -2      6025      2639      2682      2532
 -1     24226    3    0    3
 -2      4378      5896      5015      4352
 -1     24227    3    0    3
 -2      3499      5566      4999      4520
 -1     24228    3    0    3
 -2      4796      2682      2533      6025
 -1     24229    3    0    3
 -2      3531      4796      4794      3475
 -1     24230    3    0    3
 -2      2616      5773      2358      5002
 -1     24231    3    0    3
 -2      2357      2540      2595      5993
 -1     24232    3    0    3
 -2      4378      5896      4352      5005
 -1     24233    3    0    3
 -2      5326      3652      4763      6385
 -1     24234    3    0    3
 -2      3172      1715      4759      6031
 -1     24235    3    0    3
 -2      4746      4775      3717      3690
 -1     24236    3    0    3
 -2      3891      4739      4740      5657
 -1     24237    3    0    3
 -2      4487      4751      4752      4116
 -1     24238    3    0    3
 -2      4761      4759      6031      4463
 -1     24239    3    0    3
 -2      4752      4487      3956      4757
 -1     24240    3    0    3
 -2      4793      3562      3619      5356
 -1     24241    3    0    3
 -2      3259      5317      5315       824
 -1     24242    3    0    3
 -2      6031      3222      3172      3171
 -1     24243    3    0    3
 -2      5992      1350      5381      6656
 -1     24244    3    0    3
 -2      5325      3619      3686      5321
 -1     24245    3    0    3
 -2      3680      5326      4763      6384
 -1     24246    3    0    3
 -2      5883       483       484      6028
 -1     24247    3    0    3
 -2      3171      3928      3222      3218
 -1     24248    3    0    3
 -2      3246      4760      3288      3189
 -1     24249    3    0    3
 -2      3592      3276      3678      3889
 -1     24250    3    0    3
 -2      4759      4760      4752      3187
 -1     24251    3    0    3
 -2      1161      5548      5559      6378
 -1     24252    3    0    3
 -2      1539      1510      1349      6029
 -1     24253    3    0    3
 -2      3680       484      3166      6028
 -1     24254    3    0    3
 -2       691       759       883      6027
 -1     24255    3    0    3
 -2      1886      2074      4751      2075
 -1     24256    3    0    3
 -2      4739      4740      2440      5870
 -1     24257    3    0    3
 -2       111       684       759      6371
 -1     24258    3    0    3
 -2      2074      3992      4751      2075
 -1     24259    3    0    3
 -2      4757      3992      2188      2075
 -1     24260    3    0    3
 -2      3258      4747      3168       298
 -1     24261    3    0    3
 -2      5931      3508      5343      6363
 -1     24262    3    0    3
 -2      6371      5326      5324      6382
 -1     24263    3    0    3
 -2      5324      5326      3725      3711
 -1     24264    3    0    3
 -2      1547      1305      1542      6377
 -1     24265    3    0    3
 -2      3800      4319      4753      5313
 -1     24266    3    0    3
 -2      6031      3222      3171      3928
 -1     24267    3    0    3
 -2      4685      1924      1768      2111
 -1     24268    3    0    3
 -2      1256      5342      5931      6363
 -1     24269    3    0    3
 -2      6380      3680      3233      6384
 -1     24270    3    0    3
 -2      1716      1715       293      6031
 -1     24271    3    0    3
 -2      3222      3928      3166      3218
 -1     24272    3    0    3
 -2      1716      1862      2099      6032
 -1     24273    3    0    3
 -2      5870      2508      2602      6131
 -1     24274    3    0    3
 -2      2047      4761      2088      6031
 -1     24275    3    0    3
 -2       293      1715      3172      6031
 -1     24276    3    0    3
 -2      1256      5340      1382      5931
 -1     24277    3    0    3
 -2      4759      1885      1715       294
 -1     24278    3    0    3
 -2      3956      4760      4759      4463
 -1     24279    3    0    3
 -2       483      3218       484      6028
 -1     24280    3    0    3
 -2      4763      2099      1862      6032
 -1     24281    3    0    3
 -2      3218      3171      3928      6032
 -1     24282    3    0    3
 -2      2214      4761      2047      6026
 -1     24283    3    0    3
 -2      3288      3172      4759      4463
 -1     24284    3    0    3
 -2      3172      3288      3222      4463
 -1     24285    3    0    3
 -2      1256      5340      5342      1559
 -1     24286    3    0    3
 -2      3171       293      3172      6031
 -1     24287    3    0    3
 -2      4685      1924      4684      1768
 -1     24288    3    0    3
 -2      4751      4750      4752      4116
 -1     24289    3    0    3
 -2       296      3188      4750      3167
 -1     24290    3    0    3
 -2      6041      4743      4737      6132
 -1     24291    3    0    3
 -2      2689      2623      4775      2622
 -1     24292    3    0    3
 -2      5351      4788      3596      3534
 -1     24293    3    0    3
 -2      3717      4775      5338      3690
 -1     24294    3    0    3
 -2      6397      3278      3205      3548
 -1     24295    3    0    3
 -2      4760      4759      3288      3187
 -1     24296    3    0    3
 -2      2124      4749      2074      6063
 -1     24297    3    0    3
 -2      4750      3188      3254      3167
 -1     24298    3    0    3
 -2      4749      4755      2074      6063
 -1     24299    3    0    3
 -2      6066      1513      1627      1625
 -1     24300    3    0    3
 -2      1739      3992      4749      3582
 -1     24301    3    0    3
 -2      3249      5315      3259      3253
 -1     24302    3    0    3
 -2      3288      4263      4463      4760
 -1     24303    3    0    3
 -2      3288      4760      3187      3189
 -1     24304    3    0    3
 -2      4803      4802      4467      5927
 -1     24305    3    0    3
 -2      1739      3992      2074      4749
 -1     24306    3    0    3
 -2      3502      4749      4081      4371
 -1     24307    3    0    3
 -2      4319      3279      3924      3253
 -1     24308    3    0    3
 -2      4461      3924      5315      3253
 -1     24309    3    0    3
 -2      4461      4319      3924      3253
 -1     24310    3    0    3
 -2      4803      4802      5927      5928
 -1     24311    3    0    3
 -2      5385      3937      3877      5387
 -1     24312    3    0    3
 -2      5435      1610      1646      1574
 -1     24313    3    0    3
 -2      2685      4837      2462      6080
 -1     24314    3    0    3
 -2      1453      5375      1582      6008
 -1     24315    3    0    3
 -2      3164      3886      3163      3204
 -1     24316    3    0    3
 -2      1647      1453      1582      6008
 -1     24317    3    0    3
 -2      3865      4740      4743      3827
 -1     24318    3    0    3
 -2      4487      4752      3956      4754
 -1     24319    3    0    3
 -2      4752      4760      3956      4754
 -1     24320    3    0    3
 -2      3956      4295      4757      4487
 -1     24321    3    0    3
 -2      3189      4760      3187      4754
 -1     24322    3    0    3
 -2      3187      4760      4752      4754
 -1     24323    3    0    3
 -2      5386      3966      5398      6061
 -1     24324    3    0    3
 -2      5371      5382      4107      6077
 -1     24325    3    0    3
 -2      3189      3187      3188      4116
 -1     24326    3    0    3
 -2      3187      4752      3188      4116
 -1     24327    3    0    3
 -2      3188      3254      3189      4116
 -1     24328    3    0    3
 -2      3188      4750      3254      4116
 -1     24329    3    0    3
 -2       460      4132      5815      6050
 -1     24330    3    0    3
 -2      4754      4760      3956      3738
 -1     24331    3    0    3
 -2      5327      1113      1305      5325
 -1     24332    3    0    3
 -2      4737      4743      3803      3865
 -1     24333    3    0    3
 -2      3582      4116      4751      4753
 -1     24334    3    0    3
 -2      2233      2067      4728      2013
 -1     24335    3    0    3
 -2      4751      4487      3992      4753
 -1     24336    3    0    3
 -2      5386      5384      3996      6029
 -1     24337    3    0    3
 -2      3801      4755      4749      6065
 -1     24338    3    0    3
 -2      2431      2171      4755      2315
 -1     24339    3    0    3
 -2      4749      2124      3502      5999
 -1     24340    3    0    3
 -2      4081      3889      4741      3678
 -1     24341    3    0    3
 -2      4116      4754      4487      4753
 -1     24342    3    0    3
 -2      4761      4757      3956      3738
 -1     24343    3    0    3
 -2      1332      1292      5319      1561
 -1     24344    3    0    3
 -2      5326       882       883      5994
 -1     24345    3    0    3
 -2      2235      6065      2316      4742
 -1     24346    3    0    3
 -2      3827      3865      4740      5303
 -1     24347    3    0    3
 -2      3992      3582      4751      4753
 -1     24348    3    0    3
 -2      4722       303      1893      1894
 -1     24349    3    0    3
 -2      3992      4755      4757      2188
 -1     24350    3    0    3
 -2      1994      5879      2295      2039
 -1     24351    3    0    3
 -2      4308      3788      5320      3773
 -1     24352    3    0    3
 -2      4754      4753      4319      4295
 -1     24353    3    0    3
 -2      3717      5309      4746      3690
 -1     24354    3    0    3
 -2      4776      4786      3567      3625
 -1     24355    3    0    3
 -2      1435      1536      1538      6036
 -1     24356    3    0    3
 -2      2597      4756      4785      2621
 -1     24357    3    0    3
 -2      2597      4785      2645      2621
 -1     24358    3    0    3
 -2      3502      4081      4748      4371
 -1     24359    3    0    3
 -2      4756      3656      4758      6038
 -1     24360    3    0    3
 -2      3738      4275      5324      3757
 -1     24361    3    0    3
 -2      2326      2188      2203      6001
 -1     24362    3    0    3
 -2      2596      4756      4758      6038
 -1     24363    3    0    3
 -2      4819      4056      4817      4107
 -1     24364    3    0    3
 -2      2235      6065      4742      5999
 -1     24365    3    0    3
 -2      3254      4750      3167      3502
 -1     24366    3    0    3
 -2      3045      3059      3031      5877
 -1     24367    3    0    3
 -2      4747      4081      3502      5999
 -1     24368    3    0    3
 -2      3167      3169      3254      3502
 -1     24369    3    0    3
 -2      4798      2149      5948      2148
 -1     24370    3    0    3
 -2      2188      4755      4757      6001
 -1     24371    3    0    3
 -2      5309      5308      6002      6190
 -1     24372    3    0    3
 -2      5381      4026      5375      6008
 -1     24373    3    0    3
 -2      4740      4739      3925      5870
 -1     24374    3    0    3
 -2      4744      2676      2665      6039
 -1     24375    3    0    3
 -2      4744      3803      4738      6041
 -1     24376    3    0    3
 -2      2440      2346      4740      5657
 -1     24377    3    0    3
 -2      3774      5309      3717      5307
 -1     24378    3    0    3
 -2      5317       733       881      1060
 -1     24379    3    0    3
 -2      6062      5318      1179      6400
 -1     24380    3    0    3
 -2      5313      5312      3788      3773
 -1     24381    3    0    3
 -2      3582      4750      3254      3502
 -1     24382    3    0    3
 -2      3801      4745      4755      6065
 -1     24383    3    0    3
 -2      5309      3717      4746      3774
 -1     24384    3    0    3
 -2      3690      3656      5348      5319
 -1     24385    3    0    3
 -2      6158       143      3324       142
 -1     24386    3    0    3
 -2      4744      4746      3717      3774
 -1     24387    3    0    3
 -2      3205      3548      3278      5310
 -1     24388    3    0    3
 -2      2689      6039      2665      2622
 -1     24389    3    0    3
 -2      5315       115       818      3249
 -1     24390    3    0    3
 -2      4755      5318      3744      3801
 -1     24391    3    0    3
 -2      5807      5901      2049      5896
 -1     24392    3    0    3
 -2      4746      2622      2677      2676
 -1     24393    3    0    3
 -2      3253      3548      5315      4461
 -1     24394    3    0    3
 -2      4837      2464      5844      2714
 -1     24395    3    0    3
 -2      2597      2326      4756      2431
 -1     24396    3    0    3
 -2      2689      6039      4775      4773
 -1     24397    3    0    3
 -2       969      3841      5631      4516
 -1     24398    3    0    3
 -2      1894      4722      4723      2058
 -1     24399    3    0    3
 -2      6587      3182      4348      3181
 -1     24400    3    0    3
 -2      1453      1350      5381      1539
 -1     24401    3    0    3
 -2      3718      6396      3886       740
 -1     24402    3    0    3
 -2      1125      6412      6177      6426
 -1     24403    3    0    3
 -2      4747      3502      4748      3285
 -1     24404    3    0    3
 -2      4761      4759      4463      3956
 -1     24405    3    0    3
 -2      4163      1787      6056      2067
 -1     24406    3    0    3
 -2      4738      5301      3803      3750
 -1     24407    3    0    3
 -2      1534      1354      1532      6043
 -1     24408    3    0    3
 -2      5381      1453      1539      6033
 -1     24409    3    0    3
 -2      6029      5381      1539      6033
 -1     24410    3    0    3
 -2      5307      3750      5301      6399
 -1     24411    3    0    3
 -2      6066      1513      1625      5387
 -1     24412    3    0    3
 -2      4749      2124      2074      1739
 -1     24413    3    0    3
 -2      4030      3784      3809      4644
 -1     24414    3    0    3
 -2      1349      5383      5381      6029
 -1     24415    3    0    3
 -2      3766      3256      4730      3982
 -1     24416    3    0    3
 -2      5657      4739      2220      6731
 -1     24417    3    0    3
 -2      3502      3169      4748      3285
 -1     24418    3    0    3
 -2      2124      3502      1826      1739
 -1     24419    3    0    3
 -2      3592      4163      3949      4741
 -1     24420    3    0    3
 -2      4741      3891      3949      5304
 -1     24421    3    0    3
 -2      4163      3949      4730      3592
 -1     24422    3    0    3
 -2      4730      3200      3201      3256
 -1     24423    3    0    3
 -2      3254      3502      3800      3582
 -1     24424    3    0    3
 -2      5311      3205       742       117
 -1     24425    3    0    3
 -2      3859      3891      4741      5304
 -1     24426    3    0    3
 -2      3859      4371      3548      5310
 -1     24427    3    0    3
 -2      3982      3201      4730      5292
 -1     24428    3    0    3
 -2      4371      3548      5312      3859
 -1     24429    3    0    3
 -2      6092      5440      6093       939
 -1     24430    3    0    3
 -2      4728      2233      2013      6098
 -1     24431    3    0    3
 -2      5380      5370      4107      6077
 -1     24432    3    0    3
 -2      5384      1627      1626      6066
 -1     24433    3    0    3
 -2      5828      5986      5003      5935
 -1     24434    3    0    3
 -2      5394      5388      4053      5700
 -1     24435    3    0    3
 -2      6044      4742      2235      6731
 -1     24436    3    0    3
 -2      5657      2235      4742      6731
 -1     24437    3    0    3
 -2       283      5718      1694       282
 -1     24438    3    0    3
 -2      5807      5901      5896      5016
 -1     24439    3    0    3
 -2      3200      3165      3766      6056
 -1     24440    3    0    3
 -2      4747      3258      3168      3285
 -1     24441    3    0    3
 -2      4755      4749      2074      3992
 -1     24442    3    0    3
 -2      4741      4081      3678      6044
 -1     24443    3    0    3
 -2      3993      4834      3934      5397
 -1     24444    3    0    3
 -2       969      3841      5563       895
 -1     24445    3    0    3
 -2      4163      6056      4728      2067
 -1     24446    3    0    3
 -2      6086      1248      5424      5423
 -1     24447    3    0    3
 -2      4747      4748      3678      3285
 -1     24448    3    0    3
 -2      3169      3282      4748      3285
 -1     24449    3    0    3
 -2      2074      1886      4751      1739
 -1     24450    3    0    3
 -2      4835      3934      4837      3872
 -1     24451    3    0    3
 -2      1393      6069      6075      5383
 -1     24452    3    0    3
 -2      1826       297      3168       298
 -1     24453    3    0    3
 -2      1222      1308      5417      6151
 -1     24454    3    0    3
 -2      5426      3764      4861      3815
 -1     24455    3    0    3
 -2      2316      6065      2172      2315
 -1     24456    3    0    3
 -2      3678      4081      4747      6044
 -1     24457    3    0    3
 -2      4020      5700      5389      3933
 -1     24458    3    0    3
 -2      3877      4824      3844      5387
 -1     24459    3    0    3
 -2      3258      4747      3678      3285
 -1     24460    3    0    3
 -2      3678      3276      3258      3285
 -1     24461    3    0    3
 -2      3163      5310      5311      3205
 -1     24462    3    0    3
 -2      2784      2757      2739      5389
 -1     24463    3    0    3
 -2      4741      3859      5304      3889
 -1     24464    3    0    3
 -2      3031       226       462      5874
 -1     24465    3    0    3
 -2      2131      6176      6127      2245
 -1     24466    3    0    3
 -2       948       740       949      6396
 -1     24467    3    0    3
 -2      6215      4056      4819      4023
 -1     24468    3    0    3
 -2       818      3249       116      6397
 -1     24469    3    0    3
 -2      6071      5397      1639      6309
 -1     24470    3    0    3
 -2      5310      4748      3282      3889
 -1     24471    3    0    3
 -2      4739      4163      4728      5872
 -1     24472    3    0    3
 -2      3375      4948      3390      3393
 -1     24473    3    0    3
 -2      4723      4724      3689      4361
 -1     24474    3    0    3
 -2      5290      3174      3812      3238
 -1     24475    3    0    3
 -2      4718      4099      4715      4298
 -1     24476    3    0    3
 -2      2623      5893      2689      4775
 -1     24477    3    0    3
 -2      3689      4246      4723      4726
 -1     24478    3    0    3
 -2      3162      3206      4721      3912
 -1     24479    3    0    3
 -2      3161      4361      4725      3237
 -1     24480    3    0    3
 -2      1065      1007      3579      5279
 -1     24481    3    0    3
 -2      6050      2720      5747      6216
 -1     24482    3    0    3
 -2      4020      5700      3933      5396
 -1     24483    3    0    3
 -2      1911      2062      6030      6149
 -1     24484    3    0    3
 -2      5291      4728      4040      3984
 -1     24485    3    0    3
 -2      4729      3200      4730      3766
 -1     24486    3    0    3
 -2      4754      3246      4760      5322
 -1     24487    3    0    3
 -2      6116      1988      6206      1937
 -1     24488    3    0    3
 -2       672      3060      3047       228
 -1     24489    3    0    3
 -2      5928      5939      4802      5927
 -1     24490    3    0    3
 -2      3165      3256      3200      3766
 -1     24491    3    0    3
 -2      4728      4163      3949      3766
 -1     24492    3    0    3
 -2       845       943      5289      5288
 -1     24493    3    0    3
 -2      3256      3255      3211      3982
 -1     24494    3    0    3
 -2      4725      4361      4722      3850
 -1     24495    3    0    3
 -2      4725      3495      4726      4073
 -1     24496    3    0    3
 -2       299      3258      1793      1788
 -1     24497    3    0    3
 -2      3689      4728      3766      6056
 -1     24498    3    0    3
 -2      5292      3211      3201      3212
 -1     24499    3    0    3
 -2      3766      3689      4727      3462
 -1     24500    3    0    3
 -2      3201      4730      3256      3982
 -1     24501    3    0    3
 -2      4119      3912      4715      4099
 -1     24502    3    0    3
 -2      4730      3949      3766      3982
 -1     24503    3    0    3
 -2      3889      3592      3276      4456
 -1     24504    3    0    3
 -2       760      1035      1034      5861
 -1     24505    3    0    3
 -2      3495      4726      4727      4361
 -1     24506    3    0    3
 -2      4212      5276      4712      4183
 -1     24507    3    0    3
 -2      3161      3235      4361      3237
 -1     24508    3    0    3
 -2      5877      3059       753      5966
 -1     24509    3    0    3
 -2      4727      3495      4361      3237
 -1     24510    3    0    3
 -2      3211      3201      3256      3982
 -1     24511    3    0    3
 -2      4726      3689      4246      3462
 -1     24512    3    0    3
 -2      3689      4728      4246      3462
 -1     24513    3    0    3
 -2      3221      4725      5284      5286
 -1     24514    3    0    3
 -2      3318      5429      3341      4272
 -1     24515    3    0    3
 -2       861      1117      1249      6049
 -1     24516    3    0    3
 -2       228       227      3047       672
 -1     24517    3    0    3
 -2      5877       753      5371      5966
 -1     24518    3    0    3
 -2      4121      6412      4075      5280
 -1     24519    3    0    3
 -2       125      6470      6051      3175
 -1     24520    3    0    3
 -2      3850      2234      4718      4246
 -1     24521    3    0    3
 -2      1117      1235      5382       916
 -1     24522    3    0    3
 -2      4080      4305      4612      4105
 -1     24523    3    0    3
 -2      4719      6123      2347      6146
 -1     24524    3    0    3
 -2      4361      3495      4726      4725
 -1     24525    3    0    3
 -2      1870      3182       306      6172
 -1     24526    3    0    3
 -2      5125      3761      3789      4563
 -1     24527    3    0    3
 -2      2058      1893      4722      2057
 -1     24528    3    0    3
 -2      4715      4152      4348      3912
 -1     24529    3    0    3
 -2      4033      4236      3761      4712
 -1     24530    3    0    3
 -2       125      6470       701      6051
 -1     24531    3    0    3
 -2       972      1074      1071      6153
 -1     24532    3    0    3
 -2      6757      2142      2395      5792
 -1     24533    3    0    3
 -2      2888      3485      4311      4508
 -1     24534    3    0    3
 -2      3996      5383      5386      6029
 -1     24535    3    0    3
 -2      6183      4731      4248      4014
 -1     24536    3    0    3
 -2      4715      4718      4298      6052
 -1     24537    3    0    3
 -2      3032      5875      5878      4132
 -1     24538    3    0    3
 -2      5287      4215      4040      3685
 -1     24539    3    0    3
 -2       297      3502      3167      1739
 -1     24540    3    0    3
 -2       122      5290      5288       845
 -1     24541    3    0    3
 -2      3647      5516      4951      5843
 -1     24542    3    0    3
 -2      4361      4724      3235      4722
 -1     24543    3    0    3
 -2      4361      4723      4724      4722
 -1     24544    3    0    3
 -2      3996      4056      4820      5383
 -1     24545    3    0    3
 -2      4725      4720      4722      3161
 -1     24546    3    0    3
 -2      3206      4721      3208      3162
 -1     24547    3    0    3
 -2       861       753       916      6067
 -1     24548    3    0    3
 -2      1184      4194      5202      3794
 -1     24549    3    0    3
 -2      4635      2022      4091      3511
 -1     24550    3    0    3
 -2       306      3182      3198      6172
 -1     24551    3    0    3
 -2      4667      4666      3485      4033
 -1     24552    3    0    3
 -2      5114      6435      5111      4158
 -1     24553    3    0    3
 -2      1603      6557      1410      5142
 -1     24554    3    0    3
 -2       788       120       121      3228
 -1     24555    3    0    3
 -2      4747      1951      1793      6044
 -1     24556    3    0    3
 -2      3235      4361      4722      3161
 -1     24557    3    0    3
 -2      5397      3993      5396      6010
 -1     24558    3    0    3
 -2      1397      1394      1614      6069
 -1     24559    3    0    3
 -2      4721      4720      3162      3912
 -1     24560    3    0    3
 -2      5522       654      4291       958
 -1     24561    3    0    3
 -2      6301      3831      5301      6295
 -1     24562    3    0    3
 -2      4053      5700      5881      6072
 -1     24563    3    0    3
 -2      3902      3836      4837      5400
 -1     24564    3    0    3
 -2      4716      6179      4713      4351
 -1     24565    3    0    3
 -2      4743      2599      6068      2624
 -1     24566    3    0    3
 -2      1483      1444      1550      5401
 -1     24567    3    0    3
 -2      2599      4743      6068      6041
 -1     24568    3    0    3
 -2      5412      1444      1483      5401
 -1     24569    3    0    3
 -2      3785      3836      5412      5401
 -1     24570    3    0    3
 -2      5287      3495      3812      5286
 -1     24571    3    0    3
 -2      3495      4725      3237      3221
 -1     24572    3    0    3
 -2      3212      4058      3211      3252
 -1     24573    3    0    3
 -2      6741      5326      5514       883
 -1     24574    3    0    3
 -2       298      4747      1826      1793
 -1     24575    3    0    3
 -2       298      3258      4747      1793
 -1     24576    3    0    3
 -2      4023      4820      4056      5383
 -1     24577    3    0    3
 -2      1664      1639      1638      5397
 -1     24578    3    0    3
 -2      3984      6732      4014      4733
 -1     24579    3    0    3
 -2      4747      3258      3678      1793
 -1     24580    3    0    3
 -2      4083      6067      5371      6074
 -1     24581    3    0    3
 -2      4083      6067      6074      6049
 -1     24582    3    0    3
 -2      3071      3046      3083      5875
 -1     24583    3    0    3
 -2      2234      2233      4719      6098
 -1     24584    3    0    3
 -2      3103      4571      4574      3525
 -1     24585    3    0    3
 -2       969      3841      4516      5563
 -1     24586    3    0    3
 -2      3258       298       299      1793
 -1     24587    3    0    3
 -2      5807      5901      5016      5850
 -1     24588    3    0    3
 -2      2680      6040      2379      2598
 -1     24589    3    0    3
 -2      1787      4729       300      1788
 -1     24590    3    0    3
 -2      4163      6056      3766      4728
 -1     24591    3    0    3
 -2      4739      2440      2220      2219
 -1     24592    3    0    3
 -2      3582      4751      4750      1739
 -1     24593    3    0    3
 -2      1034       773       760      5861
 -1     24594    3    0    3
 -2      2750      2756      2749      6216
 -1     24595    3    0    3
 -2      3773      4755      4749      3801
 -1     24596    3    0    3
 -2      1699      3162       305       304
 -1     24597    3    0    3
 -2      4722      4723      4724      1894
 -1     24598    3    0    3
 -2      5522       654      5521      4291
 -1     24599    3    0    3
 -2      2062      2027      1911      6030
 -1     24600    3    0    3
 -2      3161      4720      4722      1893
 -1     24601    3    0    3
 -2      1184      4194      5194      1028
 -1     24602    3    0    3
 -2      1963      1890      2114      6124
 -1     24603    3    0    3
 -2      2739      3521      5389      5861
 -1     24604    3    0    3
 -2      5277      4713      4212      4187
 -1     24605    3    0    3
 -2      3850      2234      4723      2058
 -1     24606    3    0    3
 -2      1893      3161      4720       304
 -1     24607    3    0    3
 -2      3161      3162      4720       304
 -1     24608    3    0    3
 -2       303      3161      1893       304
 -1     24609    3    0    3
 -2      2721      2722       461      5815
 -1     24610    3    0    3
 -2      1856       301      1787      6056
 -1     24611    3    0    3
 -2      5235       977       978       764
 -1     24612    3    0    3
 -2      5828      5986      5773      5003
 -1     24613    3    0    3
 -2      5872      2439      2233      6053
 -1     24614    3    0    3
 -2      4083      6067      6049      5382
 -1     24615    3    0    3
 -2      2245      4713      6150      6176
 -1     24616    3    0    3
 -2       299       300      3199      1788
 -1     24617    3    0    3
 -2      2234      2013      2233      6098
 -1     24618    3    0    3
 -2      4754      3279      3189      3246
 -1     24619    3    0    3
 -2      3766      4729      3200      6056
 -1     24620    3    0    3
 -2       297      3502      1739      1826
 -1     24621    3    0    3
 -2      4083      6067      5382      5371
 -1     24622    3    0    3
 -2       299      3199      3258      1788
 -1     24623    3    0    3
 -2       969      3841       895      5631
 -1     24624    3    0    3
 -2      1856      3165      4724       302
 -1     24625    3    0    3
 -2      4724      3165      3235       302
 -1     24626    3    0    3
 -2      4724      1894      1856       302
 -1     24627    3    0    3
 -2      4833      6234      5653      3959
 -1     24628    3    0    3
 -2      3521      2784      2739      5389
 -1     24629    3    0    3
 -2      5871      2721      5815      5895
 -1     24630    3    0    3
 -2       860       861      6049      6067
 -1     24631    3    0    3
 -2      1894      4724      3235       302
 -1     24632    3    0    3
 -2      1793      3258      3678      1788
 -1     24633    3    0    3
 -2      4163      6056      4729      3766
 -1     24634    3    0    3
 -2      5396      5700      5859      6073
 -1     24635    3    0    3
 -2      5396      3993      4053      5394
 -1     24636    3    0    3
 -2      1994      5879      2039      5822
 -1     24637    3    0    3
 -2      5552      1490      1338      5673
 -1     24638    3    0    3
 -2      6066      1513      5387      5385
 -1     24639    3    0    3
 -2       297      3167       296      1739
 -1     24640    3    0    3
 -2      3502      1826      4747      5999
 -1     24641    3    0    3
 -2      1951      1826      2124      5999
 -1     24642    3    0    3
 -2      2203      2188      4757      6001
 -1     24643    3    0    3
 -2      5653      2480      2707      5712
 -1     24644    3    0    3
 -2      4834      3934      4832      3993
 -1     24645    3    0    3
 -2      4023      3966      5383      5395
 -1     24646    3    0    3
 -2      4750       296      3167      1739
 -1     24647    3    0    3
 -2      3933      4242      5402      5858
 -1     24648    3    0    3
 -2      1349      1510      1393      5383
 -1     24649    3    0    3
 -2      1639      1637      1638      5397
 -1     24650    3    0    3
 -2      1618      1614      1613      6061
 -1     24651    3    0    3
 -2      5393      5390      2776      5392
 -1     24652    3    0    3
 -2      1905      2730      4843      2765
 -1     24653    3    0    3
 -2      3934      3966      4832      5395
 -1     24654    3    0    3
 -2      3188       296      4750      1886
 -1     24655    3    0    3
 -2      3188      4750      4752      1886
 -1     24656    3    0    3
 -2      4764      2399      2400      2280
 -1     24657    3    0    3
 -2      2602      4734      4733      5870
 -1     24658    3    0    3
 -2      2124      4749      3502      1739
 -1     24659    3    0    3
 -2      3729      3785      4879      5443
 -1     24660    3    0    3
 -2      3502      4750      3167      1739
 -1     24661    3    0    3
 -2      3445       344      3361      3334
 -1     24662    3    0    3
 -2      5387      5423      5385      1514
 -1     24663    3    0    3
 -2      3966      4820      4023      5383
 -1     24664    3    0    3
 -2      1886       296      4750      1739
 -1     24665    3    0    3
 -2      2124      2074      2171      6063
 -1     24666    3    0    3
 -2      4746      3744      4745      6085
 -1     24667    3    0    3
 -2      5414      5413      3779      4070
 -1     24668    3    0    3
 -2      3902      5411      5400      5688
 -1     24669    3    0    3
 -2      5400      3934      5397      6059
 -1     24670    3    0    3
 -2      1638      1657      1664      6059
 -1     24671    3    0    3
 -2      5146      1318      1185      6076
 -1     24672    3    0    3
 -2      3502      4749      3582      1739
 -1     24673    3    0    3
 -2      1617      1574      1575      5399
 -1     24674    3    0    3
 -2      1595      1509      1397      5659
 -1     24675    3    0    3
 -2      5398      5395      3934      6060
 -1     24676    3    0    3
 -2      3993      4832      4023      5395
 -1     24677    3    0    3
 -2      3993      3934      4832      5395
 -1     24678    3    0    3
 -2      3502      3582      4750      1739
 -1     24679    3    0    3
 -2      4749      3502      4081      5999
 -1     24680    3    0    3
 -2      2680      2598      2599      6041
 -1     24681    3    0    3
 -2      3902      4837      3934      5400
 -1     24682    3    0    3
 -2      4742      3827      4745      5882
 -1     24683    3    0    3
 -2      4743      4745      3827      5882
 -1     24684    3    0    3
 -2      4831      4053      4833      3993
 -1     24685    3    0    3
 -2      2316      4742      4745      5882
 -1     24686    3    0    3
 -2      3801      5308      5305      6062
 -1     24687    3    0    3
 -2      2473      2677      4746      2609
 -1     24688    3    0    3
 -2      2440      4739      2220      5657
 -1     24689    3    0    3
 -2      3925      4733      4734      5870
 -1     24690    3    0    3
 -2      4819      1982      4808      6101
 -1     24691    3    0    3
 -2      5387      5385      3937      6066
 -1     24692    3    0    3
 -2      2561      6191      4734      6735
 -1     24693    3    0    3
 -2      1514      1515      5387      5425
 -1     24694    3    0    3
 -2      1629      1617      1515      5387
 -1     24695    3    0    3
 -2      1618      1613      1616      5386
 -1     24696    3    0    3
 -2      4741      4739      3891      6731
 -1     24697    3    0    3
 -2      5657      3891      4739      6731
 -1     24698    3    0    3
 -2      3675      6222      4874      6084
 -1     24699    3    0    3
 -2      6077      6055      6034      5370
 -1     24700    3    0    3
 -2      4083      5394      4023      5382
 -1     24701    3    0    3
 -2      6077      6055      5370      4107
 -1     24702    3    0    3
 -2      6077      6055      5371      6034
 -1     24703    3    0    3
 -2      2124      2172      1951      5999
 -1     24704    3    0    3
 -2      5394      3993      4023      5395
 -1     24705    3    0    3
 -2      3718      5304      4456      3886
 -1     24706    3    0    3
 -2      5387      5423      1514      5425
 -1     24707    3    0    3
 -2      1318      5146      1185      1319
 -1     24708    3    0    3
 -2      2596      5996      2645      4785
 -1     24709    3    0    3
 -2      3656      4785      4756      3690
 -1     24710    3    0    3
 -2      2316      6065      2315      4745
 -1     24711    3    0    3
 -2      2561      6191      2376      2602
 -1     24712    3    0    3
 -2      5385      5384      3937      6066
 -1     24713    3    0    3
 -2      5329      6293      1088      6024
 -1     24714    3    0    3
 -2      5318      3773      5312      3801
 -1     24715    3    0    3
 -2      2596      5996      4787      2558
 -1     24716    3    0    3
 -2      2677      2473      4746      2676
 -1     24717    3    0    3
 -2      4746      4744      3717      6039
 -1     24718    3    0    3
 -2      5386      3907      3937      5387
 -1     24719    3    0    3
 -2      5383      3966      3996      5386
 -1     24720    3    0    3
 -2      5384      3996      3937      5386
 -1     24721    3    0    3
 -2      6086      1248      1309      1140
 -1     24722    3    0    3
 -2      5386      5383      1510      6029
 -1     24723    3    0    3
 -2      1616      1510      1626      5386
 -1     24724    3    0    3
 -2      3937      5384      5386      6066
 -1     24725    3    0    3
 -2      1625      1616      1626      5386
 -1     24726    3    0    3
 -2      1510      1539      1626      6029
 -1     24727    3    0    3
 -2       790      5871      5874      6074
 -1     24728    3    0    3
 -2      2596      4785      2645      2597
 -1     24729    3    0    3
 -2      3827      3859      5305      3891
 -1     24730    3    0    3
 -2       916       753      5371      6067
 -1     24731    3    0    3
 -2      1449      6014      5379      1511
 -1     24732    3    0    3
 -2      5482        63       571       531
 -1     24733    3    0    3
 -2      1349      1350      5381      6007
 -1     24734    3    0    3
 -2      4083      5388      5394      6049
 -1     24735    3    0    3
 -2      3253      4371      3548      3800
 -1     24736    3    0    3
 -2      6189      2322      5915      6194
 -1     24737    3    0    3
 -2      3744      4756      4755      6085
 -1     24738    3    0    3
 -2      1141      5380      1235       921
 -1     24739    3    0    3
 -2       886      5380      1141       921
 -1     24740    3    0    3
 -2       886      5370      5380       921
 -1     24741    3    0    3
 -2      4775      2622      4746      6039
 -1     24742    3    0    3
 -2      6406      3865      6035      5303
 -1     24743    3    0    3
 -2      5348      1562      1541      5319
 -1     24744    3    0    3
 -2      2622      2665      2676      6039
 -1     24745    3    0    3
 -2      4744      2676      4746      6068
 -1     24746    3    0    3
 -2      2609      4756      2597      2621
 -1     24747    3    0    3
 -2      1350      1349      1141      6007
 -1     24748    3    0    3
 -2      5381      4056      3996      5383
 -1     24749    3    0    3
 -2       251      2766      2739      5861
 -1     24750    3    0    3
 -2      5394      4831      4053      4083
 -1     24751    3    0    3
 -2      6044      1788      1793      3678
 -1     24752    3    0    3
 -2      5002      5773      5004      5704
 -1     24753    3    0    3
 -2      2609      2473      2315      6085
 -1     24754    3    0    3
 -2      2676      2473      4746      6068
 -1     24755    3    0    3
 -2      2434      6681      2258      6215
 -1     24756    3    0    3
 -2      6075      5395      6069      5808
 -1     24757    3    0    3
 -2      4734      4740      5870      6131
 -1     24758    3    0    3
 -2      4737      3831      3803      4738
 -1     24759    3    0    3
 -2       251       760       773      5861
 -1     24760    3    0    3
 -2      1394      1613      1614      6069
 -1     24761    3    0    3
 -2      5874      5877      6067      6074
 -1     24762    3    0    3
 -2      4744      4773      3717      6039
 -1     24763    3    0    3
 -2      5882      2473      2624      6068
 -1     24764    3    0    3
 -2      5769      2344      2432      2241
 -1     24765    3    0    3
 -2       861      1249       860      6049
 -1     24766    3    0    3
 -2      5999      4749      2124      6063
 -1     24767    3    0    3
 -2      4746      2609      4756      6085
 -1     24768    3    0    3
 -2      1141      1349      1235      6007
 -1     24769    3    0    3
 -2      5380      1141      1235      6007
 -1     24770    3    0    3
 -2      2609      4746      4756      2621
 -1     24771    3    0    3
 -2      2188      2171      4755      2431
 -1     24772    3    0    3
 -2      4755      2188      2431      6001
 -1     24773    3    0    3
 -2      1614      5659      6060      1595
 -1     24774    3    0    3
 -2      5395      3966      5383      6061
 -1     24775    3    0    3
 -2      5394      5382      6049      6075
 -1     24776    3    0    3
 -2      5403      5402      5789      5858
 -1     24777    3    0    3
 -2      3581      5440      4876      3641
 -1     24778    3    0    3
 -2      3825      2736      4827      4829
 -1     24779    3    0    3
 -2      5871       462      2721      5895
 -1     24780    3    0    3
 -2      1449      6014      1587      5377
 -1     24781    3    0    3
 -2      5395      1397      1614      6069
 -1     24782    3    0    3
 -2      2750      2749      2720      6216
 -1     24783    3    0    3
 -2      5747      1882      1732       458
 -1     24784    3    0    3
 -2      4083      4825      5814      6666
 -1     24785    3    0    3
 -2      6072      5880      4826      6751
 -1     24786    3    0    3
 -2       461      2721      5815      5871
 -1     24787    3    0    3
 -2      3680      5883      6028      4949
 -1     24788    3    0    3
 -2      4020      5700      6072      5389
 -1     24789    3    0    3
 -2      4837      2462      5696      6714
 -1     24790    3    0    3
 -2       252      5895      6057      2759
 -1     24791    3    0    3
 -2      1397      1509      1281      5808
 -1     24792    3    0    3
 -2      4971      3435      5535      4250
 -1     24793    3    0    3
 -2      6075      4056      4023      5382
 -1     24794    3    0    3
 -2      3993      4833      3959      5396
 -1     24795    3    0    3
 -2      3993      4053      4833      5396
 -1     24796    3    0    3
 -2      1500      6105      1369      1612
 -1     24797    3    0    3
 -2      4020      4833      4053      5396
 -1     24798    3    0    3
 -2      4020      3959      4833      5396
 -1     24799    3    0    3
 -2       774      2770      2776      5393
 -1     24800    3    0    3
 -2      5874       753       790      6067
 -1     24801    3    0    3
 -2      1438      1659      1015      5859
 -1     24802    3    0    3
 -2      5877      5874      5871      6074
 -1     24803    3    0    3
 -2      5389      2739      5861      6057
 -1     24804    3    0    3
 -2      4719      4718      4040      4075
 -1     24805    3    0    3
 -2      5877      3045      3059      5966
 -1     24806    3    0    3
 -2      4820      2434      2324      6215
 -1     24807    3    0    3
 -2      1744      6221      1791      6680
 -1     24808    3    0    3
 -2      2758      2725      5815      5880
 -1     24809    3    0    3
 -2       817       501      5611        48
 -1     24810    3    0    3
 -2      5773      5002      5004      4434
 -1     24811    3    0    3
 -2       860      1249      1281      6049
 -1     24812    3    0    3
 -2      1982      4819      2258      6101
 -1     24813    3    0    3
 -2      2258      2078      1982      6101
 -1     24814    3    0    3
 -2      5394      4023      4831      4083
 -1     24815    3    0    3
 -2      4831      4023      4819      4083
 -1     24816    3    0    3
 -2      5994      3652      3616      5326
 -1     24817    3    0    3
 -2      3996      5381      5383      6029
 -1     24818    3    0    3
 -2      5381      3996      5384      6029
 -1     24819    3    0    3
 -2        33      5643       546       593
 -1     24820    3    0    3
 -2      1627      5384      5385      6066
 -1     24821    3    0    3
 -2      1397      1281      1249      5808
 -1     24822    3    0    3
 -2      1249      1117      1394      6075
 -1     24823    3    0    3
 -2      1235      1393      1117      6075
 -1     24824    3    0    3
 -2       672       753      5371       916
 -1     24825    3    0    3
 -2       921      5380      1235      6077
 -1     24826    3    0    3
 -2      4785      4775      2623      2621
 -1     24827    3    0    3
 -2      2592      4758      4762      6089
 -1     24828    3    0    3
 -2      2645      4785      2623      2621
 -1     24829    3    0    3
 -2      4756      4758      2326      2596
 -1     24830    3    0    3
 -2      5382      4056      4819      4107
 -1     24831    3    0    3
 -2      5382      5380      4056      4107
 -1     24832    3    0    3
 -2      5827      2654      2653      2551
 -1     24833    3    0    3
 -2      4107      5382      5380      6077
 -1     24834    3    0    3
 -2      6057       252      2759      2739
 -1     24835    3    0    3
 -2      1744      6221      6680      4807
 -1     24836    3    0    3
 -2      1614      1618      1595      6060
 -1     24837    3    0    3
 -2      1618      1575      1657      5398
 -1     24838    3    0    3
 -2      1617      1616      1625      5386
 -1     24839    3    0    3
 -2      3844      4824      3907      5387
 -1     24840    3    0    3
 -2      3877      3937      4824      5387
 -1     24841    3    0    3
 -2      4722       303      3235      3161
 -1     24842    3    0    3
 -2      1513      1515      1625      5387
 -1     24843    3    0    3
 -2      2316      6065      4745      4742
 -1     24844    3    0    3
 -2      5386      1617      3907      5387
 -1     24845    3    0    3
 -2      1625      1617      5386      5387
 -1     24846    3    0    3
 -2      1625      1515      1617      5387
 -1     24847    3    0    3
 -2      1658      1445      1554      5833
 -1     24848    3    0    3
 -2      5399      1617      3907      5398
 -1     24849    3    0    3
 -2      5688      1639      5397      6309
 -1     24850    3    0    3
 -2      3825      2736      2733      4827
 -1     24851    3    0    3
 -2      3581      5440      4151      4876
 -1     24852    3    0    3
 -2      5659      3934      5395      6060
 -1     24853    3    0    3
 -2      1617      5386      3907      5398
 -1     24854    3    0    3
 -2      1814       564      5051      5050
 -1     24855    3    0    3
 -2      4836      4838      3810      3872
 -1     24856    3    0    3
 -2      1814       564        83      5051
 -1     24857    3    0    3
 -2      2685      2462      2647      6080
 -1     24858    3    0    3
 -2      2462      2464      2463      6714
 -1     24859    3    0    3
 -2      1575      1617      5399      5398
 -1     24860    3    0    3
 -2      1618      1617      1575      5398
 -1     24861    3    0    3
 -2      2609      2677      4746      2621
 -1     24862    3    0    3
 -2      3810      5401      5437      6081
 -1     24863    3    0    3
 -2      1581      1501      1483      6082
 -1     24864    3    0    3
 -2      1483      1550      1581      5401
 -1     24865    3    0    3
 -2      5401      1575      5399      5845
 -1     24866    3    0    3
 -2      5401      3785      3810      5437
 -1     24867    3    0    3
 -2      1574      5435      1610      6081
 -1     24868    3    0    3
 -2      5388      5815      6323      5871
 -1     24869    3    0    3
 -2      1550      1574      1581      5401
 -1     24870    3    0    3
 -2      3729      5438      5437      5670
 -1     24871    3    0    3
 -2      5443      3729      5437      5670
 -1     24872    3    0    3
 -2      5437      1607      1609      5670
 -1     24873    3    0    3
 -2      1607      1459      1609      5670
 -1     24874    3    0    3
 -2      5688      5411      5400      5833
 -1     24875    3    0    3
 -2      3836      5401      3872      5400
 -1     24876    3    0    3
 -2      2504      4823      2576      2575
 -1     24877    3    0    3
 -2      5789      5410      3920      3590
 -1     24878    3    0    3
 -2      5399      1575      5398      5845
 -1     24879    3    0    3
 -2      3872      5401      5399      5845
 -1     24880    3    0    3
 -2      5397      3902      5400      5688
 -1     24881    3    0    3
 -2      5688      1664      1554      6059
 -1     24882    3    0    3
 -2      6075      4056      6007      5383
 -1     24883    3    0    3
 -2      3934      3902      5400      5397
 -1     24884    3    0    3
 -2      3934      4834      3902      5397
 -1     24885    3    0    3
 -2      3675      6222      6084      4880
 -1     24886    3    0    3
 -2       555      5487      3700      4101
 -1     24887    3    0    3
 -2      1638      1509      1595      5659
 -1     24888    3    0    3
 -2      5394      5396      3993      6010
 -1     24889    3    0    3
 -2      1438      1637      6071      6073
 -1     24890    3    0    3
 -2      5700      5394      5388      6049
 -1     24891    3    0    3
 -2      2622      4775      4746      2621
 -1     24892    3    0    3
 -2      6248      3606      5332      6308
 -1     24893    3    0    3
 -2      4877      5441      3703      3675
 -1     24894    3    0    3
 -2      2622      2623      4775      2621
 -1     24895    3    0    3
 -2        82      1877      5054       558
 -1     24896    3    0    3
 -2        12      6334       291       254
 -1     24897    3    0    3
 -2      4878      4877      2384      6379
 -1     24898    3    0    3
 -2      3636      4883      4880      3675
 -1     24899    3    0    3
 -2      4877      3703      4874      3675
 -1     24900    3    0    3
 -2      2622      4746      2677      2621
 -1     24901    3    0    3
 -2      2473      4745      2316      2315
 -1     24902    3    0    3
 -2      4873      3758      3810      5437
 -1     24903    3    0    3
 -2      3810      3785      4873      5437
 -1     24904    3    0    3
 -2      2315      2473      4745      6085
 -1     24905    3    0    3
 -2      1885      4752      4759      2088
 -1     24906    3    0    3
 -2      3378       150       685      5452
 -1     24907    3    0    3
 -2      5821      4764      2280      6095
 -1     24908    3    0    3
 -2      1789      5755      2800      4804
 -1     24909    3    0    3
 -2      1251      1162      1085      6102
 -1     24910    3    0    3
 -2       353       483      1880        14
 -1     24911    3    0    3
 -2      5435      4871      3844      3790
 -1     24912    3    0    3
 -2      3758      4871      5435      3790
 -1     24913    3    0    3
 -2      4872      4871      3758      3790
 -1     24914    3    0    3
 -2      2858      6350      5956      2849
 -1     24915    3    0    3
 -2      6028      3928      4763      6032
 -1     24916    3    0    3
 -2      5447      3612      5441      6269
 -1     24917    3    0    3
 -2      2188      3992      2074      2075
 -1     24918    3    0    3
 -2      4752      3956      4759      2088
 -1     24919    3    0    3
 -2       960      5430       968       831
 -1     24920    3    0    3
 -2      2800      1789      4804      2873
 -1     24921    3    0    3
 -2      1140      5426      1250      6086
 -1     24922    3    0    3
 -2      1885      4759      1715      2088
 -1     24923    3    0    3
 -2       887      5424       968      1248
 -1     24924    3    0    3
 -2      5417      3911      3849      5423
 -1     24925    3    0    3
 -2      1308      5417      1512      1357
 -1     24926    3    0    3
 -2      5425      1514      1515      1484
 -1     24927    3    0    3
 -2      2800      1789      2873       369
 -1     24928    3    0    3
 -2      3032      5875      4132      3084
 -1     24929    3    0    3
 -2      5423      5417      1308      6151
 -1     24930    3    0    3
 -2      1140      5430      5424       968
 -1     24931    3    0    3
 -2      5956      2858      6316      5347
 -1     24932    3    0    3
 -2      5424      5426      1140      6086
 -1     24933    3    0    3
 -2      1256      5340      1559      1382
 -1     24934    3    0    3
 -2      4755      4756      3714      6001
 -1     24935    3    0    3
 -2      4867      3329      4288      3734
 -1     24936    3    0    3
 -2      4757      4761      3956      2088
 -1     24937    3    0    3
 -2      2088      2075      4757      2203
 -1     24938    3    0    3
 -2       960      5431       852      3716
 -1     24939    3    0    3
 -2       852      3328      5431       146
 -1     24940    3    0    3
 -2      3328      3318      5431       146
 -1     24941    3    0    3
 -2      1232      5449       947      1227
 -1     24942    3    0    3
 -2      4230      3401      3716      3547
 -1     24943    3    0    3
 -2      1715      3172      4759       294
 -1     24944    3    0    3
 -2      4288      3329      3716      3734
 -1     24945    3    0    3
 -2      4761      3928      4463      6031
 -1     24946    3    0    3
 -2      1885      3187       295       294
 -1     24947    3    0    3
 -2      1886      3188       296       295
 -1     24948    3    0    3
 -2      1885      4759      3187       294
 -1     24949    3    0    3
 -2      4759      3172      3187       294
 -1     24950    3    0    3
 -2      3341      4865      4288      5427
 -1     24951    3    0    3
 -2      4392      3764      3716      5432
 -1     24952    3    0    3
 -2      6130      2560      6131      6045
 -1     24953    3    0    3
 -2      4600      2652      4599      6748
 -1     24954    3    0    3
 -2      3734      4867      3401      4230
 -1     24955    3    0    3
 -2      3764      5428      3716      3734
 -1     24956    3    0    3
 -2      5428      4866      4288      3734
 -1     24957    3    0    3
 -2      4867      4288      4866      3734
 -1     24958    3    0    3
 -2      3764      4866      5428      3734
 -1     24959    3    0    3
 -2      3512      4866      3764      3734
 -1     24960    3    0    3
 -2      3512      4867      4866      3734
 -1     24961    3    0    3
 -2      1715      1716      2047      6031
 -1     24962    3    0    3
 -2       293      3171      1716      6031
 -1     24963    3    0    3
 -2      5870      2508      4740      2440
 -1     24964    3    0    3
 -2      5426      5425      3790      6109
 -1     24965    3    0    3
 -2      5870      2508      2440      2602
 -1     24966    3    0    3
 -2      4764      3588      3652      5327
 -1     24967    3    0    3
 -2      3738      4754      5322      5314
 -1     24968    3    0    3
 -2      5433      3417      4870      4230
 -1     24969    3    0    3
 -2      1025      1085       961      6137
 -1     24970    3    0    3
 -2      5425      5426      1250      6109
 -1     24971    3    0    3
 -2      4868      4426      3734      4230
 -1     24972    3    0    3
 -2      4868      3677      4426      4230
 -1     24973    3    0    3
 -2      4230      3677      4870      5433
 -1     24974    3    0    3
 -2      3677      4094      4459      5433
 -1     24975    3    0    3
 -2      3442      3401      3421      5433
 -1     24976    3    0    3
 -2      4230      4094      3677      5433
 -1     24977    3    0    3
 -2      3581      4347      4888      3799
 -1     24978    3    0    3
 -2      5433      4230      4094      3547
 -1     24979    3    0    3
 -2      3581      4347      4876      4151
 -1     24980    3    0    3
 -2      4459      3677      5433      3645
 -1     24981    3    0    3
 -2      3440      4459      3442      3645
 -1     24982    3    0    3
 -2      5433      3442      4459      3645
 -1     24983    3    0    3
 -2      3421      3442      5433      3645
 -1     24984    3    0    3
 -2      4151      3440      3441      3645
 -1     24985    3    0    3
 -2      4500      3677      4876      3645
 -1     24986    3    0    3
 -2      5441      3703      5439      3641
 -1     24987    3    0    3
 -2      4500      4876      4151      3645
 -1     24988    3    0    3
 -2      5441      4877      3703      3641
 -1     24989    3    0    3
 -2      5441      3612      4877      3641
 -1     24990    3    0    3
 -2      6091      5453      5442      6294
 -1     24991    3    0    3
 -2      2259      2452      2268      6088
 -1     24992    3    0    3
 -2      5543      4976      3715      3745
 -1     24993    3    0    3
 -2      2327      4758      4762      2592
 -1     24994    3    0    3
 -2      3377      4155      3379      3383
 -1     24995    3    0    3
 -2       150      3378      3377      5452
 -1     24996    3    0    3
 -2      4392      3733      5432      6102
 -1     24997    3    0    3
 -2      3619      4787      4793      6089
 -1     24998    3    0    3
 -2      3645      4307      5440      4151
 -1     24999    3    0    3
 -2      3712      2063      4889      4265
 -1     25000    3    0    3
 -2      4976      5543      3715      3749
 -1     25001    3    0    3
 -2      2878      5901      2826      2825
 -1     25002    3    0    3
 -2      4094      3677      4459      5440
 -1     25003    3    0    3
 -2      3645      4307      3440      4459
 -1     25004    3    0    3
 -2      3645      4459      3677      5440
 -1     25005    3    0    3
 -2      3716      3885      4392      5430
 -1     25006    3    0    3
 -2      4392      3733      3764      5432
 -1     25007    3    0    3
 -2      3581      4876      3799      4878
 -1     25008    3    0    3
 -2      3645      4876      4151      5440
 -1     25009    3    0    3
 -2      3716      3885      5430      4272
 -1     25010    3    0    3
 -2      5442      5441      1275      6092
 -1     25011    3    0    3
 -2      3975      1890      3244      3272
 -1     25012    3    0    3
 -2      3351      5460      3404      3411
 -1     25013    3    0    3
 -2      1255      1163      1287      6291
 -1     25014    3    0    3
 -2      2327      2596      4758      2592
 -1     25015    3    0    3
 -2      2596      4787      4758      2592
 -1     25016    3    0    3
 -2      2558      4787      2596      2592
 -1     25017    3    0    3
 -2      6218      1267      6091      1255
 -1     25018    3    0    3
 -2      3641      5439      6092      6093
 -1     25019    3    0    3
 -2      2592      4787      4758      6089
 -1     25020    3    0    3
 -2      2226      2047      2099      6026
 -1     25021    3    0    3
 -2      1483      5412      5401      5848
 -1     25022    3    0    3
 -2      4950      3559      4998      5820
 -1     25023    3    0    3
 -2      2191      6100      2403      2402
 -1     25024    3    0    3
 -2      1792      3445      4967      3334
 -1     25025    3    0    3
 -2      5433      3401      4230      3547
 -1     25026    3    0    3
 -2      3382      3400      3442      5434
 -1     25027    3    0    3
 -2      3442      4459      3382      5434
 -1     25028    3    0    3
 -2      2451      4762      2399      2591
 -1     25029    3    0    3
 -2      3619      4758      4787      6089
 -1     25030    3    0    3
 -2      3905      3858      6456      5192
 -1     25031    3    0    3
 -2      5434      4094      4459      6093
 -1     25032    3    0    3
 -2      5442      1275      1145      6092
 -1     25033    3    0    3
 -2      2591      4762      2399      3588
 -1     25034    3    0    3
 -2      3442      3400      3401      3547
 -1     25035    3    0    3
 -2      6059      5398      1657      5400
 -1     25036    3    0    3
 -2      2399      4762      4764      3588
 -1     25037    3    0    3
 -2      3941      1356      1449      5417
 -1     25038    3    0    3
 -2      3499      4998      4795      6373
 -1     25039    3    0    3
 -2      3547      3400      3401      3328
 -1     25040    3    0    3
 -2      2663      4998      2563      2582
 -1     25041    3    0    3
 -2      4094      5432      6102      6137
 -1     25042    3    0    3
 -2      1484      5425      1514      1309
 -1     25043    3    0    3
 -2      3905      3858      5191      6456
 -1     25044    3    0    3
 -2      3559      4950      4764      5820
 -1     25045    3    0    3
 -2      5934      5755      1789      4804
 -1     25046    3    0    3
 -2      2214      2047      2226      6026
 -1     25047    3    0    3
 -2      5317       114       824      3259
 -1     25048    3    0    3
 -2      6281      1234      6297      1352
 -1     25049    3    0    3
 -2      2400      2206      4950      5821
 -1     25050    3    0    3
 -2       292      3218       483      1862
 -1     25051    3    0    3
 -2      1799      6047      1972      4692
 -1     25052    3    0    3
 -2       456      4701      1897      2908
 -1     25053    3    0    3
 -2       881      4308      5320      3757
 -1     25054    3    0    3
 -2      4420      5420      5422      5427
 -1     25055    3    0    3
 -2      5428      5427      3885      4272
 -1     25056    3    0    3
 -2      5428      4288      5427      4272
 -1     25057    3    0    3
 -2       690      6009      3665      6532
 -1     25058    3    0    3
 -2      3328      3329      3401      5431
 -1     25059    3    0    3
 -2      3401      3329      3716      5431
 -1     25060    3    0    3
 -2      4764      4762      2226      6026
 -1     25061    3    0    3
 -2      3652      4762      4764      6026
 -1     25062    3    0    3
 -2      2226      4762      2214      6026
 -1     25063    3    0    3
 -2      3166       484      3218      6028
 -1     25064    3    0    3
 -2      3171      1716       292       293
 -1     25065    3    0    3
 -2      1715      2047      2088      6031
 -1     25066    3    0    3
 -2      6281      1234      1352      1233
 -1     25067    3    0    3
 -2       294      1715      3172       293
 -1     25068    3    0    3
 -2      1500      5436      1251      1369
 -1     25069    3    0    3
 -2      3734      4868      4230      5432
 -1     25070    3    0    3
 -2      3547      4230      4094      5432
 -1     25071    3    0    3
 -2      3716      3734      4230      5432
 -1     25072    3    0    3
 -2      3716      4230      3547      5432
 -1     25073    3    0    3
 -2       813      1025       961      6137
 -1     25074    3    0    3
 -2      4463      3172      4759      6031
 -1     25075    3    0    3
 -2       960      5431      3716      5430
 -1     25076    3    0    3
 -2      2272      4899      6577      6243
 -1     25077    3    0    3
 -2      2099      2007      4763      1862
 -1     25078    3    0    3
 -2      6273      3513      5943      6274
 -1     25079    3    0    3
 -2      6273      3513      6274      5345
 -1     25080    3    0    3
 -2       292      1862      1716      6032
 -1     25081    3    0    3
 -2      4234      3701      5332      3834
 -1     25082    3    0    3
 -2      2237      6127      6123      6180
 -1     25083    3    0    3
 -2      2067      1856      1787      6056
 -1     25084    3    0    3
 -2      1856      3165       301      6056
 -1     25085    3    0    3
 -2      4674      4156      3617      4671
 -1     25086    3    0    3
 -2      3815      3849      4858      5423
 -1     25087    3    0    3
 -2      4769      4771      3671      5950
 -1     25088    3    0    3
 -2      1500      5435      1646      1499
 -1     25089    3    0    3
 -2      5433      3417      3401      3421
 -1     25090    3    0    3
 -2       456      4701      2908      2935
 -1     25091    3    0    3
 -2      5428      3764      3716      4392
 -1     25092    3    0    3
 -2      2115      2063      3712      4891
 -1     25093    3    0    3
 -2      3716      3764      3734      5432
 -1     25094    3    0    3
 -2       960      4392      3716      6134
 -1     25095    3    0    3
 -2      5426      5425      1250      6086
 -1     25096    3    0    3
 -2      4094      4230      3677      5432
 -1     25097    3    0    3
 -2      3438      4857      3341      5420
 -1     25098    3    0    3
 -2      1227      6283      1228      6256
 -1     25099    3    0    3
 -2       961      1085      1162      6134
 -1     25100    3    0    3
 -2      6273      2824      6228      6274
 -1     25101    3    0    3
 -2      1031      1383      4154      1046
 -1     25102    3    0    3
 -2      3716      4392      5432      6134
 -1     25103    3    0    3
 -2       813      3547      5434      6137
 -1     25104    3    0    3
 -2      2967      2916       454      4697
 -1     25105    3    0    3
 -2      2052      4766      2276      6252
 -1     25106    3    0    3
 -2      4796      5982      2682      6025
 -1     25107    3    0    3
 -2      2872      1737      2863       359
 -1     25108    3    0    3
 -2      5661      4782      5892      5941
 -1     25109    3    0    3
 -2      1429      1530      1430      6107
 -1     25110    3    0    3
 -2      1275      1076      5442      1145
 -1     25111    3    0    3
 -2      2371      2163      2522      6253
 -1     25112    3    0    3
 -2      4782      5941      5943      6104
 -1     25113    3    0    3
 -2      2863      2872      5943      6104
 -1     25114    3    0    3
 -2      3301      3314      4781      3304
 -1     25115    3    0    3
 -2      5438      1500      6115      1611
 -1     25116    3    0    3
 -2      2448      4767      5920      6219
 -1     25117    3    0    3
 -2      5941       463      1740      6121
 -1     25118    3    0    3
 -2      1610      1611      1607      6115
 -1     25119    3    0    3
 -2      2872      1737       359      1738
 -1     25120    3    0    3
 -2      5435      3758      5436      6115
 -1     25121    3    0    3
 -2      1429      5438      1607      1611
 -1     25122    3    0    3
 -2      6418      3865      3896      5300
 -1     25123    3    0    3
 -2      1612      1313      1530      6105
 -1     25124    3    0    3
 -2      2789      1883      4784      1827
 -1     25125    3    0    3
 -2      1611      1429      5438      1612
 -1     25126    3    0    3
 -2      5447      1430      1524      6269
 -1     25127    3    0    3
 -2      1308      1309      1514      5423
 -1     25128    3    0    3
 -2      1499      1250      5425      1484
 -1     25129    3    0    3
 -2      4772      4771      3606      5706
 -1     25130    3    0    3
 -2      5425      1629      5435      1499
 -1     25131    3    0    3
 -2      5425      5435      3790      6109
 -1     25132    3    0    3
 -2      1629      1646      5435      1499
 -1     25133    3    0    3
 -2      2665      4773      2689      2585
 -1     25134    3    0    3
 -2       919      6352      5980       877
 -1     25135    3    0    3
 -2      4696       452       453      1842
 -1     25136    3    0    3
 -2      6099      4855      4042      6162
 -1     25137    3    0    3
 -2      4776      4775      3661      5893
 -1     25138    3    0    3
 -2      6293      5329      1088      5946
 -1     25139    3    0    3
 -2      5435      5425      1499      6109
 -1     25140    3    0    3
 -2      4736      2271      1973      6804
 -1     25141    3    0    3
 -2      1610      5435      1646      6115
 -1     25142    3    0    3
 -2      1610      1646      1611      6115
 -1     25143    3    0    3
 -2      5437      3758      5435      6115
 -1     25144    3    0    3
 -2      5437      1610      1581      1609
 -1     25145    3    0    3
 -2      5955      3780      6301      5328
 -1     25146    3    0    3
 -2      1841      4696      1842      2038
 -1     25147    3    0    3
 -2      5706      2453      5950      6251
 -1     25148    3    0    3
 -2      4736      1972      3620      1973
 -1     25149    3    0    3
 -2      1530      1313      5441      6105
 -1     25150    3    0    3
 -2       454      1698      4697      1841
 -1     25151    3    0    3
 -2      3896      6418      6197      6779
 -1     25152    3    0    3
 -2      6418      3865      5297      3896
 -1     25153    3    0    3
 -2      6418      3865      6035      5297
 -1     25154    3    0    3
 -2      5439      1084      1085      1369
 -1     25155    3    0    3
 -2      4889      2180      2064      2227
 -1     25156    3    0    3
 -2      5433      3417      3421      4870
 -1     25157    3    0    3
 -2      1084      5439      1313      1369
 -1     25158    3    0    3
 -2      5439      5441      3641      6092
 -1     25159    3    0    3
 -2      3982      3238      3255      3211
 -1     25160    3    0    3
 -2      6079      6449      5905      1091
 -1     25161    3    0    3
 -2      3703      5441      5439      6105
 -1     25162    3    0    3
 -2      1313      1145      1275      6092
 -1     25163    3    0    3
 -2       854      5434      4459      6093
 -1     25164    3    0    3
 -2      1084      5439      1085      1025
 -1     25165    3    0    3
 -2      5440       854      4459      6093
 -1     25166    3    0    3
 -2      3641      5441      5442      6092
 -1     25167    3    0    3
 -2       939       854      5440      6093
 -1     25168    3    0    3
 -2       685      4307      3378      5452
 -1     25169    3    0    3
 -2      2967      4503      2916      4697
 -1     25170    3    0    3
 -2      5452       151       150       768
 -1     25171    3    0    3
 -2      6281      1234      1233      5446
 -1     25172    3    0    3
 -2      1799      6047      4692      4689
 -1     25173    3    0    3
 -2      2935      2967       455      4700
 -1     25174    3    0    3
 -2      5260      3740      3782      5261
 -1     25175    3    0    3
 -2      4701      2908      4448      4704
 -1     25176    3    0    3
 -2      1227      6283       932      1228
 -1     25177    3    0    3
 -2      2013      4246      4723      3689
 -1     25178    3    0    3
 -2      4888      4347      3353      4887
 -1     25179    3    0    3
 -2      5436      5438      3703      6105
 -1     25180    3    0    3
 -2       521      4915      4445       520
 -1     25181    3    0    3
 -2      1897      4704      2052      2113
 -1     25182    3    0    3
 -2      2013      4246      2234      4723
 -1     25183    3    0    3
 -2      5430      4420       968      5429
 -1     25184    3    0    3
 -2      2113      2089      4705      6217
 -1     25185    3    0    3
 -2       149       854      3382       685
 -1     25186    3    0    3
 -2      1712      4015      2053      5944
 -1     25187    3    0    3
 -2       862      6416      6090      5198
 -1     25188    3    0    3
 -2      5430      4420      5424       968
 -1     25189    3    0    3
 -2      2935      1796       455       456
 -1     25190    3    0    3
 -2      4701      4703      3505      3915
 -1     25191    3    0    3
 -2      4738      4736      3780      5967
 -1     25192    3    0    3
 -2      3754      3563      4765      3782
 -1     25193    3    0    3
 -2      4191      2901      2912      2978
 -1     25194    3    0    3
 -2      1336      6301      1205      1291
 -1     25195    3    0    3
 -2      4439      4244      2981      2904
 -1     25196    3    0    3
 -2      4084      4448      4703      4701
 -1     25197    3    0    3
 -2      1883      4801      4784      5938
 -1     25198    3    0    3
 -2      4711      3306      4709      3968
 -1     25199    3    0    3
 -2      4701      4448      4703      3915
 -1     25200    3    0    3
 -2      4448      2910      2908      2935
 -1     25201    3    0    3
 -2      3092      6096      6649      4592
 -1     25202    3    0    3
 -2      5102       181       664       660
 -1     25203    3    0    3
 -2      6052      2234      2131      6127
 -1     25204    3    0    3
 -2      3305      3304      3291      5344
 -1     25205    3    0    3
 -2      2058      2131      2057      6052
 -1     25206    3    0    3
 -2      4013      2949      3014      2951
 -1     25207    3    0    3
 -2      1704       442       441      2892
 -1     25208    3    0    3
 -2      2237      6127      6180      2293
 -1     25209    3    0    3
 -2      2233      2348      2234      4719
 -1     25210    3    0    3
 -2      4052      4156      4416      5280
 -1     25211    3    0    3
 -2      1893      4720      4722      2057
 -1     25212    3    0    3
 -2      4156      4416      5236      4052
 -1     25213    3    0    3
 -2      4716      4075      4121      4718
 -1     25214    3    0    3
 -2      3551      4558      4556      4197
 -1     25215    3    0    3
 -2      4345      4680      4681      3797
 -1     25216    3    0    3
 -2      4075      6412      6743      5281
 -1     25217    3    0    3
 -2       442      1704      1719      4672
 -1     25218    3    0    3
 -2      4303      3778      4675      4678
 -1     25219    3    0    3
 -2      2615      2346      4740      2508
 -1     25220    3    0    3
 -2      1875      2886       438      1764
 -1     25221    3    0    3
 -2      4152      3206      3912      4119
 -1     25222    3    0    3
 -2      5426      1250      1251      1162
 -1     25223    3    0    3
 -2      3978      4033      4712      6583
 -1     25224    3    0    3
 -2      3829      4674      3617      4671
 -1     25225    3    0    3
 -2      6164      6426      6175      1124
 -1     25226    3    0    3
 -2      4360      2964      3005      3022
 -1     25227    3    0    3
 -2      4336      5195      3813      5196
 -1     25228    3    0    3
 -2      4559      4562      4036      3491
 -1     25229    3    0    3
 -2      4401      3506      3020      3533
 -1     25230    3    0    3
 -2      4670      3977      4402      4668
 -1     25231    3    0    3
 -2      2891      3683      3807      2939
 -1     25232    3    0    3
 -2      1853      1705       440      4668
 -1     25233    3    0    3
 -2       439      2914      2887      4665
 -1     25234    3    0    3
 -2      4628      3692      4095      6584
 -1     25235    3    0    3
 -2      4670      3893      4505      4668
 -1     25236    3    0    3
 -2       306      1911      1870      6172
 -1     25237    3    0    3
 -2      4915       104       551       520
 -1     25238    3    0    3
 -2      5124      5121      3813      4336
 -1     25239    3    0    3
 -2      6252      4701      4704      2052
 -1     25240    3    0    3
 -2      6079      6449      5195      5905
 -1     25241    3    0    3
 -2      4416      4126      4156      5236
 -1     25242    3    0    3
 -2      6173      6126      4712      6580
 -1     25243    3    0    3
 -2      5522       654       958       655
 -1     25244    3    0    3
 -2      3919      5420      5422      4420
 -1     25245    3    0    3
 -2      6273      3513      6255      5943
 -1     25246    3    0    3
 -2      6137      6134      5432      6102
 -1     25247    3    0    3
 -2      4681      6135      1924      4684
 -1     25248    3    0    3
 -2      1893      4722      1894      2058
 -1     25249    3    0    3
 -2      5522       654       655      5521
 -1     25250    3    0    3
 -2      2237      6127      2323      6123
 -1     25251    3    0    3
 -2      6030      2027      1911      6172
 -1     25252    3    0    3
 -2      4358      4073      4040      5287
 -1     25253    3    0    3
 -2      2234      4718      4719      6146
 -1     25254    3    0    3
 -2      6102      1085      5439      6137
 -1     25255    3    0    3
 -2      2234      2348      2347      4719
 -1     25256    3    0    3
 -2      6147      3917      5416      3883
 -1     25257    3    0    3
 -2      4420      5424       968       887
 -1     25258    3    0    3
 -2      6150      2129      2128      6173
 -1     25259    3    0    3
 -2      1699      1911       305      6149
 -1     25260    3    0    3
 -2      2943      2990      4296      2980
 -1     25261    3    0    3
 -2      4681      4683      4345      3797
 -1     25262    3    0    3
 -2      4731      4248      3797      5909
 -1     25263    3    0    3
 -2      4673      2903      3778      4676
 -1     25264    3    0    3
 -2      4200      3990      4731      4732
 -1     25265    3    0    3
 -2      4683      4018      5245      3473
 -1     25266    3    0    3
 -2      3865      4737      4743      6045
 -1     25267    3    0    3
 -2      4337      3792      3919      5418
 -1     25268    3    0    3
 -2      4200      4686      3990      3739
 -1     25269    3    0    3
 -2      3221      3812      3495      5286
 -1     25270    3    0    3
 -2      6054      2169      6186      2376
 -1     25271    3    0    3
 -2      4739      4733      3984      3925
 -1     25272    3    0    3
 -2      6040      2598      6041      6132
 -1     25273    3    0    3
 -2      4075      6412      5281      5280
 -1     25274    3    0    3
 -2      2598      2593      2599      6132
 -1     25275    3    0    3
 -2      6160      5419      4337      3820
 -1     25276    3    0    3
 -2      5307      3774      5309      6389
 -1     25277    3    0    3
 -2      3990      4200      3739      4732
 -1     25278    3    0    3
 -2      3891      5305      5303      6401
 -1     25279    3    0    3
 -2      4740      2615      2508      6130
 -1     25280    3    0    3
 -2      4713      2245      4716      6176
 -1     25281    3    0    3
 -2      2624      2615      4743      2681
 -1     25282    3    0    3
 -2      4680       445       446      1869
 -1     25283    3    0    3
 -2      4237      3535      5250      6003
 -1     25284    3    0    3
 -2      6041      2599      4743      6132
 -1     25285    3    0    3
 -2      2424      4738      2680      6042
 -1     25286    3    0    3
 -2      2593      2681      2599      6132
 -1     25287    3    0    3
 -2      4735      1977      2243      1978
 -1     25288    3    0    3
 -2      6045      4740      4734      6131
 -1     25289    3    0    3
 -2      5382       861      6067      6049
 -1     25290    3    0    3
 -2      1868      4680      4681      2932
 -1     25291    3    0    3
 -2      2990      4684      2932       447
 -1     25292    3    0    3
 -2      5241      4145      5243      3608
 -1     25293    3    0    3
 -2       816      6241       856      5505
 -1     25294    3    0    3
 -2       148      5434       854       813
 -1     25295    3    0    3
 -2      3669      2980      4488      4296
 -1     25296    3    0    3
 -2      5380      1235      5382      6007
 -1     25297    3    0    3
 -2      1799      2911      4689      4692
 -1     25298    3    0    3
 -2      4689      4688      4244      2944
 -1     25299    3    0    3
 -2      1025      4094      5439      6137
 -1     25300    3    0    3
 -2      3905      3858      5192      3936
 -1     25301    3    0    3
 -2       146       852      3328       147
 -1     25302    3    0    3
 -2      1868      4681      4684      2932
 -1     25303    3    0    3
 -2      3500      3721      4679      2946
 -1     25304    3    0    3
 -2      4013      3014      4385      2995
 -1     25305    3    0    3
 -2      3857      4677      4676      4396
 -1     25306    3    0    3
 -2       854      3382       148       149
 -1     25307    3    0    3
 -2      1875      2886      2887       438
 -1     25308    3    0    3
 -2      4684      1768      1868       447
 -1     25309    3    0    3
 -2      6053      2348      2439      2233
 -1     25310    3    0    3
 -2      2949      3608      5242      2931
 -1     25311    3    0    3
 -2      1251      5426      1162      6102
 -1     25312    3    0    3
 -2      3586      4451      3026      3010
 -1     25313    3    0    3
 -2      6402      1193      1258      6430
 -1     25314    3    0    3
 -2       960      5431       831       852
 -1     25315    3    0    3
 -2      4329      5261      4306      2936
 -1     25316    3    0    3
 -2      4692      2911      4689      3543
 -1     25317    3    0    3
 -2       450      2911      1799       451
 -1     25318    3    0    3
 -2      4689      4244      2911      2944
 -1     25319    3    0    3
 -2      3382      5434       854       148
 -1     25320    3    0    3
 -2      5434      3382      3400       148
 -1     25321    3    0    3
 -2      4407      3543      2904      2912
 -1     25322    3    0    3
 -2      3603      4688      4685      2943
 -1     25323    3    0    3
 -2      1869      4677       445      1852
 -1     25324    3    0    3
 -2      3437      3411      5460      5459
 -1     25325    3    0    3
 -2      4014      6164      5294      4514
 -1     25326    3    0    3
 -2      4688      4140      3687      4690
 -1     25327    3    0    3
 -2      4681      4200      3797      6145
 -1     25328    3    0    3
 -2      4680      3721      4345      2937
 -1     25329    3    0    3
 -2      4680      4345      4681      2932
 -1     25330    3    0    3
 -2      6053      2348      2233      4719
 -1     25331    3    0    3
 -2       960       961      1162      6134
 -1     25332    3    0    3
 -2      1799      6047      4689      1977
 -1     25333    3    0    3
 -2      1799      6047      1977      1972
 -1     25334    3    0    3
 -2      1025      5439      1085      6137
 -1     25335    3    0    3
 -2       813      5434      1025      6137
 -1     25336    3    0    3
 -2       852      3547       813      6137
 -1     25337    3    0    3
 -2       852       813       961      6137
 -1     25338    3    0    3
 -2      5426      1140      1250      1162
 -1     25339    3    0    3
 -2      5281      4717      4102      4078
 -1     25340    3    0    3
 -2      4680      1868       446      2932
 -1     25341    3    0    3
 -2      5382       861      6049      1117
 -1     25342    3    0    3
 -2      2926      3529      4678      4396
 -1     25343    3    0    3
 -2      3787      4036      3813      4632
 -1     25344    3    0    3
 -2      1719      2902      4672      4673
 -1     25345    3    0    3
 -2      2990      4684      4685      4296
 -1     25346    3    0    3
 -2      4684      3739      4200      6135
 -1     25347    3    0    3
 -2      4488      3025      2980      2996
 -1     25348    3    0    3
 -2      3294      4711      3295      3303
 -1     25349    3    0    3
 -2      4732      4200      3739      6135
 -1     25350    3    0    3
 -2      6143      3739      4685      6135
 -1     25351    3    0    3
 -2      1484      1250      5425      1309
 -1     25352    3    0    3
 -2      1499      5425      1629      1484
 -1     25353    3    0    3
 -2      5425      1515      1629      1484
 -1     25354    3    0    3
 -2      4466      5249      3931      5252
 -1     25355    3    0    3
 -2      4688      3687      4689      4244
 -1     25356    3    0    3
 -2      6196      3869      4735      3831
 -1     25357    3    0    3
 -2      1025      4094      5434      6093
 -1     25358    3    0    3
 -2      4276      2934      4448      4084
 -1     25359    3    0    3
 -2      5423      3815      5424      6086
 -1     25360    3    0    3
 -2      1357      1308      5417      1222
 -1     25361    3    0    3
 -2      4272      3885      5430      5429
 -1     25362    3    0    3
 -2      3877      5425      3815      5423
 -1     25363    3    0    3
 -2      4685      4688      1801      2943
 -1     25364    3    0    3
 -2      4694      4691      4407      3543
 -1     25365    3    0    3
 -2      4696       453      1841      1842
 -1     25366    3    0    3
 -2      3853      4710      3637      4469
 -1     25367    3    0    3
 -2      4774      3661      3599      5337
 -1     25368    3    0    3
 -2      4693      3620      1972      1973
 -1     25369    3    0    3
 -2      5281      4717      4078      4014
 -1     25370    3    0    3
 -2      6161      3820      6160      6162
 -1     25371    3    0    3
 -2      5421      6158      6140       803
 -1     25372    3    0    3
 -2      4312      4865      3792      5427
 -1     25373    3    0    3
 -2      2681      2615      4743      6130
 -1     25374    3    0    3
 -2      3235      4727      3237      3255
 -1     25375    3    0    3
 -2      2102      5716      5902      2186
 -1     25376    3    0    3
 -2      4677      3857      4679      4396
 -1     25377    3    0    3
 -2      4733      4739      3984      6053
 -1     25378    3    0    3
 -2      1146       888      1222      6147
 -1     25379    3    0    3
 -2      4719      4246      2234      6098
 -1     25380    3    0    3
 -2      5417      1357      1222      1146
 -1     25381    3    0    3
 -2      5421      4452      3919      6140
 -1     25382    3    0    3
 -2      4226      4382      5268      3708
 -1     25383    3    0    3
 -2      5294      6195      1183      6423
 -1     25384    3    0    3
 -2      4288      3329      3341      4272
 -1     25385    3    0    3
 -2      4591      4592      6113      6649
 -1     25386    3    0    3
 -2      3957      3739      4686      4687
 -1     25387    3    0    3
 -2       146      3318      5431       831
 -1     25388    3    0    3
 -2      2405      2593      2598      6040
 -1     25389    3    0    3
 -2      5107      2970      5110      3929
 -1     25390    3    0    3
 -2      3919      3792      5420      4420
 -1     25391    3    0    3
 -2      4732      3739      3957      4140
 -1     25392    3    0    3
 -2      3329      4288      3716      4272
 -1     25393    3    0    3
 -2      6273      3513      5345      6255
 -1     25394    3    0    3
 -2       144       730      5422      3319
 -1     25395    3    0    3
 -2      4739      3891      4740      3925
 -1     25396    3    0    3
 -2      4765      2218      5967      6804
 -1     25397    3    0    3
 -2      2038      4028      1973      6804
 -1     25398    3    0    3
 -2      1025      4094      6137      5434
 -1     25399    3    0    3
 -2      3883      5416      6147      6160
 -1     25400    3    0    3
 -2      6128      2437      4733      6732
 -1     25401    3    0    3
 -2      1275      5448      1524      6269
 -1     25402    3    0    3
 -2      5452       151       768       767
 -1     25403    3    0    3
 -2      6197      3896      5298      5300
 -1     25404    3    0    3
 -2       144       145       730      3319
 -1     25405    3    0    3
 -2      6252      4704      2113      2052
 -1     25406    3    0    3
 -2      4696      3483      4693      4028
 -1     25407    3    0    3
 -2      3341      5420      5422      3438
 -1     25408    3    0    3
 -2      1978      3687      4688      4140
 -1     25409    3    0    3
 -2      2243      2322      2405      5915
 -1     25410    3    0    3
 -2      2349      2190      2453      6251
 -1     25411    3    0    3
 -2      3900      4691      3687      4690
 -1     25412    3    0    3
 -2      6044      1788      1941      1793
 -1     25413    3    0    3
 -2      4099      4715      5279      4121
 -1     25414    3    0    3
 -2      2598      2379      2405      6040
 -1     25415    3    0    3
 -2      4511      3764      4866      4312
 -1     25416    3    0    3
 -2      6143      2169      2170      6189
 -1     25417    3    0    3
 -2      1972      4736      3620      6047
 -1     25418    3    0    3
 -2      1383      6308      6305      1493
 -1     25419    3    0    3
 -2      2424      2218      2271      5967
 -1     25420    3    0    3
 -2      5421      6158      4452      6140
 -1     25421    3    0    3
 -2      2436      4733      6054      6128
 -1     25422    3    0    3
 -2      3532      5272      3637      5269
 -1     25423    3    0    3
 -2      6054      2169      2376      2299
 -1     25424    3    0    3
 -2      4689      1978      1977      3687
 -1     25425    3    0    3
 -2      2599      2624      4743      2681
 -1     25426    3    0    3
 -2      2405      4737      2322      2593
 -1     25427    3    0    3
 -2      2301      1972      1977      6047
 -1     25428    3    0    3
 -2      4710      4394      4708      3853
 -1     25429    3    0    3
 -2      2473      2676      2624      6068
 -1     25430    3    0    3
 -2      2680      4744      2665      6042
 -1     25431    3    0    3
 -2       730       831      5429       145
 -1     25432    3    0    3
 -2      5338      3661      3717      5336
 -1     25433    3    0    3
 -2      2602      2436      4733      6191
 -1     25434    3    0    3
 -2      1173      6415      1080      6170
 -1     25435    3    0    3
 -2      2020      1852      1720      4676
 -1     25436    3    0    3
 -2      4040      4728      4246      4719
 -1     25437    3    0    3
 -2      4140      1978      4685      4688
 -1     25438    3    0    3
 -2      2237      6127      2293      2323
 -1     25439    3    0    3
 -2      3739      4200      4686      4684
 -1     25440    3    0    3
 -2      2301      2243      2405      5915
 -1     25441    3    0    3
 -2      4749      5312      3859      4371
 -1     25442    3    0    3
 -2      2437      2439      2436      4733
 -1     25443    3    0    3
 -2      2356      4852      4814      6697
 -1     25444    3    0    3
 -2      2346      2440      4740      2508
 -1     25445    3    0    3
 -2       831       146      3318       145
 -1     25446    3    0    3
 -2      5419      3323      5421      3438
 -1     25447    3    0    3
 -2      5429      3341      5422      3319
 -1     25448    3    0    3
 -2      2345      5736      5027      2249
 -1     25449    3    0    3
 -2      2436      2376      2299      6054
 -1     25450    3    0    3
 -2      2436      2279      2437      6128
 -1     25451    3    0    3
 -2      6054      4733      4731      6128
 -1     25452    3    0    3
 -2      1140       968      5424      1248
 -1     25453    3    0    3
 -2      1870      4714      2027      1965
 -1     25454    3    0    3
 -2      5303      1557      6016      6035
 -1     25455    3    0    3
 -2      6131      6045      2560      6194
 -1     25456    3    0    3
 -2      2061      4672      3918      4673
 -1     25457    3    0    3
 -2      3925      4740      4734      3865
 -1     25458    3    0    3
 -2      1275      5448      1266      1524
 -1     25459    3    0    3
 -2      4734      2602      4733      6191
 -1     25460    3    0    3
 -2      4511      3764      4312      4859
 -1     25461    3    0    3
 -2      2301      4735      6196      6047
 -1     25462    3    0    3
 -2      3787      4036      4631      3813
 -1     25463    3    0    3
 -2      3883      3849      4855      5418
 -1     25464    3    0    3
 -2      4099      4073      4725      3850
 -1     25465    3    0    3
 -2      2891      5232      3807      3683
 -1     25466    3    0    3
 -2      6140      5418       888      6147
 -1     25467    3    0    3
 -2      5282      4073      4040      4358
 -1     25468    3    0    3
 -2      4033      4402      4712      6169
 -1     25469    3    0    3
 -2      6127      4718      2234      6146
 -1     25470    3    0    3
 -2      2891      5232      3650      4210
 -1     25471    3    0    3
 -2      4726      4361      4725      3850
 -1     25472    3    0    3
 -2       899      6420      6003      5295
 -1     25473    3    0    3
 -2      3778      2903      2926      4396
 -1     25474    3    0    3
 -2       998       888      1146      6147
 -1     25475    3    0    3
 -2      4726      4073      4246      3850
 -1     25476    3    0    3
 -2      3324      4452      3327      3325
 -1     25477    3    0    3
 -2      3325       491      3856      6148
 -1     25478    3    0    3
 -2      6179      1704      2014      4669
 -1     25479    3    0    3
 -2      1894      4724      1856      2013
 -1     25480    3    0    3
 -2      4743      6045      4740      3865
 -1     25481    3    0    3
 -2      4723      1894      2058      2013
 -1     25482    3    0    3
 -2      2234      4723      2058      2013
 -1     25483    3    0    3
 -2      3918      4672      2060      6179
 -1     25484    3    0    3
 -2       437      2915       436      1707
 -1     25485    3    0    3
 -2      2954      5231      4482      2938
 -1     25486    3    0    3
 -2      6123      4719      2347      6183
 -1     25487    3    0    3
 -2      4720      1893      1699      2057
 -1     25488    3    0    3
 -2      4714      2027      6030      6172
 -1     25489    3    0    3
 -2      6126      2114      2157      1965
 -1     25490    3    0    3
 -2      4276      4503      4084      4702
 -1     25491    3    0    3
 -2      5114      6435      1030      5111
 -1     25492    3    0    3
 -2      6179      1704      4672      2060
 -1     25493    3    0    3
 -2      1699      2062      1911      6149
 -1     25494    3    0    3
 -2      4183      4714      4152      5278
 -1     25495    3    0    3
 -2      2244      2057      2131      6052
 -1     25496    3    0    3
 -2      6045      4743      4740      6130
 -1     25497    3    0    3
 -2      4452      5421      3919      5419
 -1     25498    3    0    3
 -2      3182       306       307      1870
 -1     25499    3    0    3
 -2      3485      2888      4311      3003
 -1     25500    3    0    3
 -2      4028      4765      4736      6804
 -1     25501    3    0    3
 -2      2062      1699      3912      6149
 -1     25502    3    0    3
 -2      2128      2027      2062      6030
 -1     25503    3    0    3
 -2      2303      4628      2173      2081
 -1     25504    3    0    3
 -2      4348      4714      6030      6172
 -1     25505    3    0    3
 -2      4525      2126      4097      4524
 -1     25506    3    0    3
 -2       306      6149      6172      3198
 -1     25507    3    0    3
 -2      3787      3839      5195      4631
 -1     25508    3    0    3
 -2      2954      5231       847      5230
 -1     25509    3    0    3
 -2      4033      4212      4236      4712
 -1     25510    3    0    3
 -2      4033      4667      4402      4665
 -1     25511    3    0    3
 -2      4152      6587      4714      4348
 -1     25512    3    0    3
 -2      6160      4337      5418      4855
 -1     25513    3    0    3
 -2      5231       194      2954       847
 -1     25514    3    0    3
 -2      4402      2041      4665      4668
 -1     25515    3    0    3
 -2      4666      4236      3761      4033
 -1     25516    3    0    3
 -2      4505      3977      4668      4669
 -1     25517    3    0    3
 -2      4212      3977      4670      4187
 -1     25518    3    0    3
 -2      4676       444      2903      2925
 -1     25519    3    0    3
 -2      3918      4303      4716      6180
 -1     25520    3    0    3
 -2       441      1704      2892      4669
 -1     25521    3    0    3
 -2      3650      2947      3617      4671
 -1     25522    3    0    3
 -2      4915       104       520      1904
 -1     25523    3    0    3
 -2      5276      5277      4212      4327
 -1     25524    3    0    3
 -2      6174      6125      2252      6580
 -1     25525    3    0    3
 -2      4857      3409      4337      3439
 -1     25526    3    0    3
 -2      6079       970      1091      1176
 -1     25527    3    0    3
 -2      1222      1248      1308      6151
 -1     25528    3    0    3
 -2      4679      4678      3529      4396
 -1     25529    3    0    3
 -2      4668      2913      4505      4669
 -1     25530    3    0    3
 -2      2902      2903      3778      4673
 -1     25531    3    0    3
 -2      1705      2913      4668      4669
 -1     25532    3    0    3
 -2      4673      4675      3918      4303
 -1     25533    3    0    3
 -2      2891      5232      4210      3807
 -1     25534    3    0    3
 -2      1875      2886      1764      4561
 -1     25535    3    0    3
 -2      2057      2244      4715      6052
 -1     25536    3    0    3
 -2      6180      1720      4673      4676
 -1     25537    3    0    3
 -2      3977      4156      4713      4351
 -1     25538    3    0    3
 -2      1309      5425      1514      5423
 -1     25539    3    0    3
 -2      2060      2293      2061      4716
 -1     25540    3    0    3
 -2      4677      3721      4680      2937
 -1     25541    3    0    3
 -2       443      1720      2903      4673
 -1     25542    3    0    3
 -2      4678      3857      4676      4396
 -1     25543    3    0    3
 -2       972       701       849      6416
 -1     25544    3    0    3
 -2      3485      4311      3709      3003
 -1     25545    3    0    3
 -2       977      5277      1173      6170
 -1     25546    3    0    3
 -2      4688       449      2943      2944
 -1     25547    3    0    3
 -2      3918      2060      2061      4716
 -1     25548    3    0    3
 -2      3778      4451      2902      4673
 -1     25549    3    0    3
 -2      1043      1154      1124      6164
 -1     25550    3    0    3
 -2      2159      6560      6568      2162
 -1     25551    3    0    3
 -2      2892      1704       442      4672
 -1     25552    3    0    3
 -2      4669      1704      2892      4672
 -1     25553    3    0    3
 -2       444      1720      2903       443
 -1     25554    3    0    3
 -2      4345      2992      2991      2932
 -1     25555    3    0    3
 -2      2886      2888      3005      4139
 -1     25556    3    0    3
 -2      4667      3485      3893      4665
 -1     25557    3    0    3
 -2      6583      6173      6580      2196
 -1     25558    3    0    3
 -2      2892      2902      3829      4672
 -1     25559    3    0    3
 -2       439      1875      1853      4665
 -1     25560    3    0    3
 -2      6155       696      1028      5203
 -1     25561    3    0    3
 -2      6150      2128      6030      6173
 -1     25562    3    0    3
 -2      1699      2057      2062      3912
 -1     25563    3    0    3
 -2      6160      4855      3883      6162
 -1     25564    3    0    3
 -2      4505      2947      3650      4671
 -1     25565    3    0    3
 -2      4671      3829      4674      4351
 -1     25566    3    0    3
 -2      2015      1853      1875      4665
 -1     25567    3    0    3
 -2      1356      6159      5377      1589
 -1     25568    3    0    3
 -2      4452      3324      3327      6158
 -1     25569    3    0    3
 -2       143      5421       799       803
 -1     25570    3    0    3
 -2      3485      4664      2887      4665
 -1     25571    3    0    3
 -2       491      3325      3327      6148
 -1     25572    3    0    3
 -2      3438      3919      5422      5421
 -1     25573    3    0    3
 -2      4713      5277      4156      4187
 -1     25574    3    0    3
 -2      4666      4664      3485      4033
 -1     25575    3    0    3
 -2      1357      5417      1356      1146
 -1     25576    3    0    3
 -2      4508      3978      4563      4561
 -1     25577    3    0    3
 -2      4664      2887      4508      3485
 -1     25578    3    0    3
 -2       966      1243      1246      6156
 -1     25579    3    0    3
 -2      4664      4033      3978      6583
 -1     25580    3    0    3
 -2      4348      4183      4152      4715
 -1     25581    3    0    3
 -2      4664      2015      4033      6583
 -1     25582    3    0    3
 -2      4666      3485      3709      4667
 -1     25583    3    0    3
 -2      4348      4183      6030      4714
 -1     25584    3    0    3
 -2      1719      2061      1720      4673
 -1     25585    3    0    3
 -2      4402      4667      3893      4665
 -1     25586    3    0    3
 -2      1875      2016      2015      4664
 -1     25587    3    0    3
 -2      3883      3917      4852      5415
 -1     25588    3    0    3
 -2      4736      4765      5967      6804
 -1     25589    3    0    3
 -2      3917      3976      4852      5415
 -1     25590    3    0    3
 -2      3856      4660      5224      6620
 -1     25591    3    0    3
 -2      6147      3917      3883      5415
 -1     25592    3    0    3
 -2      4337      3919      5420      5419
 -1     25593    3    0    3
 -2      3945      6608      6623      4660
 -1     25594    3    0    3
 -2       490      6161      3325      3856
 -1     25595    3    0    3
 -2      3820      3403      3325      3386
 -1     25596    3    0    3
 -2      1222      5417      1146      6147
 -1     25597    3    0    3
 -2       888      5418      1222      6147
 -1     25598    3    0    3
 -2      6030      4183      6150      6173
 -1     25599    3    0    3
 -2      4033      4666      4664      3978
 -1     25600    3    0    3
 -2       730      5429      5422      3319
 -1     25601    3    0    3
 -2      6314      3290       177      3311
 -1     25602    3    0    3
 -2       799       887       888      6140
 -1     25603    3    0    3
 -2      3327       492       491      6148
 -1     25604    3    0    3
 -2      4104      3887      4660      6620
 -1     25605    3    0    3
 -2      6126      2114      1965      4634
 -1     25606    3    0    3
 -2       732      6467       492      6157
 -1     25607    3    0    3
 -2      3327       833       492      6148
 -1     25608    3    0    3
 -2      6126      2114      4634      6125
 -1     25609    3    0    3
 -2       672      6077       921       916
 -1     25610    3    0    3
 -2      3815      4859      3849      5424
 -1     25611    3    0    3
 -2      3792      4420      4312      5427
 -1     25612    3    0    3
 -2      3764      5432      4868      3734
 -1     25613    3    0    3
 -2      6179      1704      4669      4672
 -1     25614    3    0    3
 -2      6148       491      3856      6467
 -1     25615    3    0    3
 -2      4337      6162      4042      4855
 -1     25616    3    0    3
 -2       141       732       821      6465
 -1     25617    3    0    3
 -2      6171      4629      4627      6590
 -1     25618    3    0    3
 -2      2887      3485      2914      3003
 -1     25619    3    0    3
 -2      6156      5223      1246      6468
 -1     25620    3    0    3
 -2      5415      5417      3883      6147
 -1     25621    3    0    3
 -2      5223      3976      5415      6159
 -1     25622    3    0    3
 -2      6734      1146      6147       998
 -1     25623    3    0    3
 -2      6734      1146       998      1243
 -1     25624    3    0    3
 -2      1356      1316      1243      5415
 -1     25625    3    0    3
 -2      3438      3919      5419      5420
 -1     25626    3    0    3
 -2      5415      3917      5223      6156
 -1     25627    3    0    3
 -2      4452      6148      3327      3325
 -1     25628    3    0    3
 -2      3976      3917      5223      5415
 -1     25629    3    0    3
 -2      3213      3856      6467      6620
 -1     25630    3    0    3
 -2      4855      3883      5418      6160
 -1     25631    3    0    3
 -2      3856      3917      4853      5416
 -1     25632    3    0    3
 -2      4853      3917      3883      5416
 -1     25633    3    0    3
 -2      5416       966       833      6157
 -1     25634    3    0    3
 -2      6160      3919      6140      5418
 -1     25635    3    0    3
 -2      2930      3006      4219      3819
 -1     25636    3    0    3
 -2      3709      5229      4482      5228
 -1     25637    3    0    3
 -2      4236      3709      4666      5228
 -1     25638    3    0    3
 -2      3893      2914      4668      4665
 -1     25639    3    0    3
 -2      1872      1781       322      6622
 -1     25640    3    0    3
 -2      5420      5419      3438      3439
 -1     25641    3    0    3
 -2      1781      3262       322      6622
 -1     25642    3    0    3
 -2      5231       194      2938      2954
 -1     25643    3    0    3
 -2      6147      3917      5415      6734
 -1     25644    3    0    3
 -2      6160      3883      4853      6162
 -1     25645    3    0    3
 -2      4042      4337      3409      3820
 -1     25646    3    0    3
 -2      4488      2991      3669      4521
 -1     25647    3    0    3
 -2      4191      2917      2978      3483
 -1     25648    3    0    3
 -2      5419      4337      3820      3439
 -1     25649    3    0    3
 -2      3323      5419      3386      3439
 -1     25650    3    0    3
 -2      3438      5419      3323      3439
 -1     25651    3    0    3
 -2       881      4308      1060      5320
 -1     25652    3    0    3
 -2      5432      3764      4868      3733
 -1     25653    3    0    3
 -2      6143      2169      6189      4732
 -1     25654    3    0    3
 -2      3644      4052      4187      5233
 -1     25655    3    0    3
 -2      4854      4852      3883      6720
 -1     25656    3    0    3
 -2      3485      3893      2914      3003
 -1     25657    3    0    3
 -2      4402      4033      4665      6169
 -1     25658    3    0    3
 -2      5416      3325      6161      3856
 -1     25659    3    0    3
 -2      4420      3792      4312      5424
 -1     25660    3    0    3
 -2      2307      5855      5023      5913
 -1     25661    3    0    3
 -2      4312      4420      5424      3885
 -1     25662    3    0    3
 -2      6130      2560      2508      6131
 -1     25663    3    0    3
 -2      5431      3318      3329      4272
 -1     25664    3    0    3
 -2      4288      4312      5428      5427
 -1     25665    3    0    3
 -2      4272      5427      3885      5429
 -1     25666    3    0    3
 -2      5428      3716      4288      4272
 -1     25667    3    0    3
 -2      3485      2887      4508      2888
 -1     25668    3    0    3
 -2      5427      4420      4312      3885
 -1     25669    3    0    3
 -2      6179      1704      2060      2014
 -1     25670    3    0    3
 -2      5982      2507      2639      6015
 -1     25671    3    0    3
 -2      1308      1514      1512      5423
 -1     25672    3    0    3
 -2      5385      1512      1514      5423
 -1     25673    3    0    3
 -2      5385      3877      3911      5423
 -1     25674    3    0    3
 -2      2561      6191      2602      4734
 -1     25675    3    0    3
 -2      5427      4312      5428      3885
 -1     25676    3    0    3
 -2      5424      4392      4312      3885
 -1     25677    3    0    3
 -2      4392      5428      4312      3885
 -1     25678    3    0    3
 -2      5424      5430      4392      3885
 -1     25679    3    0    3
 -2       456      4701      2935      1796
 -1     25680    3    0    3
 -2       968       831      5429       730
 -1     25681    3    0    3
 -2       831      5430       968      5429
 -1     25682    3    0    3
 -2      1712      4015      5944      6262
 -1     25683    3    0    3
 -2      5126      5123       709      2930
 -1     25684    3    0    3
 -2      5431      5430       831      5429
 -1     25685    3    0    3
 -2      3885      5427      4420      5429
 -1     25686    3    0    3
 -2      5422      4420      5427      5429
 -1     25687    3    0    3
 -2      4272      3341      5427      5429
 -1     25688    3    0    3
 -2      5427      3341      5422      5429
 -1     25689    3    0    3
 -2      2913      2914      3893      2940
 -1     25690    3    0    3
 -2      3026      3617      2950      2947
 -1     25691    3    0    3
 -2      4272      5431      3318      5429
 -1     25692    3    0    3
 -2       831      3318      5431      5429
 -1     25693    3    0    3
 -2       490      6161       489      3403
 -1     25694    3    0    3
 -2      5418       888      1222       887
 -1     25695    3    0    3
 -2      5424      4420      5418       887
 -1     25696    3    0    3
 -2      2939      4482      2938      2954
 -1     25697    3    0    3
 -2      5422       799       887       730
 -1     25698    3    0    3
 -2      4511      3764      3981      4866
 -1     25699    3    0    3
 -2      5424      5418      3849      6151
 -1     25700    3    0    3
 -2      5423      1308      1309      1248
 -1     25701    3    0    3
 -2      5424      3815      5426      6086
 -1     25702    3    0    3
 -2      4672      4351      4669      6179
 -1     25703    3    0    3
 -2      2937      3721      2992      2946
 -1     25704    3    0    3
 -2      2014      1704      1705      4669
 -1     25705    3    0    3
 -2      2915      2886      4139      4560
 -1     25706    3    0    3
 -2      4219      4311      3517      5125
 -1     25707    3    0    3
 -2       442      1719       443      2902
 -1     25708    3    0    3
 -2      6462      4076      4103      4619
 -1     25709    3    0    3
 -2      4451      4675      3918      4673
 -1     25710    3    0    3
 -2      3807      2938      5234      2890
 -1     25711    3    0    3
 -2      3977      4670      4505      4668
 -1     25712    3    0    3
 -2      4451      3586      4675      3010
 -1     25713    3    0    3
 -2      3560      4675      3586      3010
 -1     25714    3    0    3
 -2      3617      3586      4674      3026
 -1     25715    3    0    3
 -2      4451      4674      3586      3026
 -1     25716    3    0    3
 -2      5242      3608      4301      2931
 -1     25717    3    0    3
 -2      3829      4674      4451      3026
 -1     25718    3    0    3
 -2      3586      3617      2950      3026
 -1     25719    3    0    3
 -2      4674      3829      3617      3026
 -1     25720    3    0    3
 -2      2940      4505      2913      2947
 -1     25721    3    0    3
 -2      4451      2902      3829      3026
 -1     25722    3    0    3
 -2      2902      2892      3829      3026
 -1     25723    3    0    3
 -2      3003      3893      2914      2940
 -1     25724    3    0    3
 -2      4675      3778      3560      4678
 -1     25725    3    0    3
 -2      4674      4675      3918      4451
 -1     25726    3    0    3
 -2      3650      4505      4671      4670
 -1     25727    3    0    3
 -2      1852      4677       445      2925
 -1     25728    3    0    3
 -2      3778      4675      3560      3010
 -1     25729    3    0    3
 -2      2102      5716      5035      5902
 -1     25730    3    0    3
 -2      4669      2041      1705      2014
 -1     25731    3    0    3
 -2      3918      4156      4716      4126
 -1     25732    3    0    3
 -2      4219      4311      5125      4332
 -1     25733    3    0    3
 -2      5766      3510      3571      5557
 -1     25734    3    0    3
 -2      3721      4248      4677      4680
 -1     25735    3    0    3
 -2      5948      2281      2149      4792
 -1     25736    3    0    3
 -2      4674      3918      4156      4351
 -1     25737    3    0    3
 -2      4219      4311      4332      3004
 -1     25738    3    0    3
 -2      2060      2245      2293      4716
 -1     25739    3    0    3
 -2      4126      4674      4156      5236
 -1     25740    3    0    3
 -2      2926      3778      3560      3010
 -1     25741    3    0    3
 -2      4271      3207      4119      3579
 -1     25742    3    0    3
 -2      4679      4248      3721      4682
 -1     25743    3    0    3
 -2      2903      3778      2926      3010
 -1     25744    3    0    3
 -2      2946      3529      2951      2952
 -1     25745    3    0    3
 -2      4351      3977      4669      6179
 -1     25746    3    0    3
 -2      4451      3918      4672      4673
 -1     25747    3    0    3
 -2      2902       443      2903      4673
 -1     25748    3    0    3
 -2      4521      4683      5245      3473
 -1     25749    3    0    3
 -2      4396      4676      2903      2925
 -1     25750    3    0    3
 -2      3850      2234      6052      4718
 -1     25751    3    0    3
 -2      4257      2934      2910      4448
 -1     25752    3    0    3
 -2      3529      3560      2926      4678
 -1     25753    3    0    3
 -2      4676      3778      4303      4678
 -1     25754    3    0    3
 -2      3857      4676      4303      4678
 -1     25755    3    0    3
 -2      4671      4505      3829      4669
 -1     25756    3    0    3
 -2      2950      3586      3026      3010
 -1     25757    3    0    3
 -2      4505      2913      3893      2940
 -1     25758    3    0    3
 -2      1875      2886      4561      2887
 -1     25759    3    0    3
 -2      3026      3829      3617      2947
 -1     25760    3    0    3
 -2      3026      2892      3829      2947
 -1     25761    3    0    3
 -2      2902      4451      3829      4672
 -1     25762    3    0    3
 -2      3324       143      5421      3402
 -1     25763    3    0    3
 -2      4676      3857      4303      6180
 -1     25764    3    0    3
 -2      5382       861      1117       916
 -1     25765    3    0    3
 -2      3529      4679      4396      2946
 -1     25766    3    0    3
 -2       446      4680      2932      2937
 -1     25767    3    0    3
 -2      4451      4675      3778      3010
 -1     25768    3    0    3
 -2      2903      2902      3778      3010
 -1     25769    3    0    3
 -2      3026      4451      2902      3010
 -1     25770    3    0    3
 -2      4451      3778      2902      3010
 -1     25771    3    0    3
 -2      3323      3324      5421      3402
 -1     25772    3    0    3
 -2      5422       144      3319      3402
 -1     25773    3    0    3
 -2      1890      3244       308      1898
 -1     25774    3    0    3
 -2      1890      3244      3272       308
 -1     25775    3    0    3
 -2      3914      3586      2950      3011
 -1     25776    3    0    3
 -2      3807      5234      4210      2890
 -1     25777    3    0    3
 -2      2940      3003      3893      3683
 -1     25778    3    0    3
 -2      3503      5235      5238      2984
 -1     25779    3    0    3
 -2       443      1719      1720      4673
 -1     25780    3    0    3
 -2      2062      6150      2244      2128
 -1     25781    3    0    3
 -2      2062      6150      6030      4715
 -1     25782    3    0    3
 -2      2062      6150      2128      6030
 -1     25783    3    0    3
 -2      3325      4452      3820      3386
 -1     25784    3    0    3
 -2      3323      4452      3325      3386
 -1     25785    3    0    3
 -2      3820      4452      5419      3386
 -1     25786    3    0    3
 -2      5419      4452      3323      3386
 -1     25787    3    0    3
 -2      3820      3409      3386      3439
 -1     25788    3    0    3
 -2      5419      3820      3386      3439
 -1     25789    3    0    3
 -2      4671      4156      3977      4351
 -1     25790    3    0    3
 -2      2947      2940      4505      3650
 -1     25791    3    0    3
 -2      3503      2950      3617      2889
 -1     25792    3    0    3
 -2      5231      2938      5234      3807
 -1     25793    3    0    3
 -2      2947      3617      2950      2889
 -1     25794    3    0    3
 -2      2940      3683      3650      2891
 -1     25795    3    0    3
 -2      5233      4210      3503      2889
 -1     25796    3    0    3
 -2      3438      3323      5421      3402
 -1     25797    3    0    3
 -2      5421      5422      3438      3402
 -1     25798    3    0    3
 -2      5422      3319      3438      3402
 -1     25799    3    0    3
 -2       144      5422       799      3402
 -1     25800    3    0    3
 -2      5422      5421       799      3402
 -1     25801    3    0    3
 -2      5121      3843      4336      3961
 -1     25802    3    0    3
 -2      3658      5126      4219      5124
 -1     25803    3    0    3
 -2      3807      4482      2938      2939
 -1     25804    3    0    3
 -2      5239      3914      5238      2983
 -1     25805    3    0    3
 -2      4562      5124      4332      4360
 -1     25806    3    0    3
 -2      4401      3506      4543      3730
 -1     25807    3    0    3
 -2      3956      4295      4487      4754
 -1     25808    3    0    3
 -2      4236      5229      4212      4667
 -1     25809    3    0    3
 -2       442      2902      2892      4672
 -1     25810    3    0    3
 -2      6143      6135      4685      2111
 -1     25811    3    0    3
 -2      3683      3893      4670      4667
 -1     25812    3    0    3
 -2      3807      2891      2938      2890
 -1     25813    3    0    3
 -2      3683      3485      3003      3893
 -1     25814    3    0    3
 -2      4667      4236      4666      4033
 -1     25815    3    0    3
 -2      4402      3893      4670      4668
 -1     25816    3    0    3
 -2      4212      5277      4187      3644
 -1     25817    3    0    3
 -2      3650      2891      4210      2889
 -1     25818    3    0    3
 -2      4152      6587      4348      3181
 -1     25819    3    0    3
 -2      4152      6587      3702      4714
 -1     25820    3    0    3
 -2      5234      3644      5232      4210
 -1     25821    3    0    3
 -2      1699      4720      2057      3912
 -1     25822    3    0    3
 -2      4236      3709      5229      4667
 -1     25823    3    0    3
 -2      4156      3977      4713      4187
 -1     25824    3    0    3
 -2      3683      5229      3709      4667
 -1     25825    3    0    3
 -2      5276      4212      4712      4236
 -1     25826    3    0    3
 -2      2196      2015      2016      6583
 -1     25827    3    0    3
 -2      2913       440      1705      4668
 -1     25828    3    0    3
 -2      4664      1875      2887      4665
 -1     25829    3    0    3
 -2      4033      3761      3978      4712
 -1     25830    3    0    3
 -2      2014      2130      2245      4713
 -1     25831    3    0    3
 -2      2041      2130      2014      4713
 -1     25832    3    0    3
 -2       971      1071      5278       972
 -1     25833    3    0    3
 -2      3978      3761      4666      4563
 -1     25834    3    0    3
 -2      5196      3658      3761      3789
 -1     25835    3    0    3
 -2      6008      1453      1628      1647
 -1     25836    3    0    3
 -2      2913      2914       440      4668
 -1     25837    3    0    3
 -2      6173      2027      4714      2158
 -1     25838    3    0    3
 -2      6127      6052      4718      6176
 -1     25839    3    0    3
 -2      3485      2887      2914      4665
 -1     25840    3    0    3
 -2      2914      2913      3893      4668
 -1     25841    3    0    3
 -2      4670      4505      4671      3977
 -1     25842    3    0    3
 -2      2913      4505      3893      4668
 -1     25843    3    0    3
 -2      2129      2041      2015      6169
 -1     25844    3    0    3
 -2      2913      1705       441      4669
 -1     25845    3    0    3
 -2      2902       442      1719      4672
 -1     25846    3    0    3
 -2      2129      2128      2130      6150
 -1     25847    3    0    3
 -2      2057      4715      3912      4298
 -1     25848    3    0    3
 -2      3761      4666      4033      3978
 -1     25849    3    0    3
 -2      4666      4508      4664      3978
 -1     25850    3    0    3
 -2      4666      4311      4508      4563
 -1     25851    3    0    3
 -2      4671      4674      4156      4351
 -1     25852    3    0    3
 -2      4667      4212      4033      4402
 -1     25853    3    0    3
 -2      4670      4212      4667      4402
 -1     25854    3    0    3
 -2      2015      1875      4664      4665
 -1     25855    3    0    3
 -2      4667      3893      4670      4402
 -1     25856    3    0    3
 -2      6173      2027      2158      2128
 -1     25857    3    0    3
 -2      1453      6008      1628      6033
 -1     25858    3    0    3
 -2      4688       449      2944      1867
 -1     25859    3    0    3
 -2       441      1705      1704      4669
 -1     25860    3    0    3
 -2      2913       441      2892      4669
 -1     25861    3    0    3
 -2      6155       696      5203      5208
 -1     25862    3    0    3
 -2      4668      4402      3893      4665
 -1     25863    3    0    3
 -2      1705      1853      2041      4668
 -1     25864    3    0    3
 -2       439      2887      1875      4665
 -1     25865    3    0    3
 -2      2015      4664      4033      4665
 -1     25866    3    0    3
 -2      4033      2015      4665      6169
 -1     25867    3    0    3
 -2      2041      1853      2015      4665
 -1     25868    3    0    3
 -2      4668      1853      2041      4665
 -1     25869    3    0    3
 -2      2015      2041      4665      6169
 -1     25870    3    0    3
 -2      3912      4721      4720      4298
 -1     25871    3    0    3
 -2      4402      3977      4212      4713
 -1     25872    3    0    3
 -2      4052      5235      3503      5233
 -1     25873    3    0    3
 -2      4634      5198      3702      3731
 -1     25874    3    0    3
 -2      4348      3198      3182      6172
 -1     25875    3    0    3
 -2      3162      1699       305      6149
 -1     25876    3    0    3
 -2      6079      1091      1191      1176
 -1     25877    3    0    3
 -2      6045      3896      3865      4737
 -1     25878    3    0    3
 -2      4718      4716      4075      6127
 -1     25879    3    0    3
 -2      2128      2244      2130      6150
 -1     25880    3    0    3
 -2      4715      2062      2057      3912
 -1     25881    3    0    3
 -2      3912      4720      2057      4298
 -1     25882    3    0    3
 -2      4720      4725      4722      4298
 -1     25883    3    0    3
 -2      3912      3206      4721      4119
 -1     25884    3    0    3
 -2      4152      4714      3702      5278
 -1     25885    3    0    3
 -2      2158      1965      2027      4714
 -1     25886    3    0    3
 -2      6091      3518      5461      6218
 -1     25887    3    0    3
 -2      1965      4634      2114      1898
 -1     25888    3    0    3
 -2      4634      4714      3702      6587
 -1     25889    3    0    3
 -2      4402      4212      4033      4712
 -1     25890    3    0    3
 -2      5235       977      5234      3644
 -1     25891    3    0    3
 -2      4714      4712      4183      6173
 -1     25892    3    0    3
 -2      4212      4402      4713      4712
 -1     25893    3    0    3
 -2      4183      4715      6030      6150
 -1     25894    3    0    3
 -2      4713      5277      4212      4183
 -1     25895    3    0    3
 -2      4713      4212      4712      4183
 -1     25896    3    0    3
 -2      5282      5279      4099      3988
 -1     25897    3    0    3
 -2      4067      3359      3553      3383
 -1     25898    3    0    3
 -2      5114      6435      4158      6453
 -1     25899    3    0    3
 -2      4712      4714      4183      3731
 -1     25900    3    0    3
 -2      1079      1075       985      6414
 -1     25901    3    0    3
 -2      5554      1480      5553      5818
 -1     25902    3    0    3
 -2      1072      5278       971      1071
 -1     25903    3    0    3
 -2      4671      3650      4670      4187
 -1     25904    3    0    3
 -2      5232      4187      3650      5233
 -1     25905    3    0    3
 -2      4671      4670      3977      4187
 -1     25906    3    0    3
 -2      4156      4671      3977      4187
 -1     25907    3    0    3
 -2      4119      4152      3206      3207
 -1     25908    3    0    3
 -2      3994      3553      3383      4067
 -1     25909    3    0    3
 -2      3994      3553      4067      5453
 -1     25910    3    0    3
 -2      5813      1953      4902      6564
 -1     25911    3    0    3
 -2      4257      2934      4448      4276
 -1     25912    3    0    3
 -2      2219      2439      2233      5872
 -1     25913    3    0    3
 -2      5565      1521      1523      1522
 -1     25914    3    0    3
 -2      4183      5277      4212      5276
 -1     25915    3    0    3
 -2      2593      6194      4737      2322
 -1     25916    3    0    3
 -2      4271      3207      3270      3225
 -1     25917    3    0    3
 -2      4215      3812      5289      5287
 -1     25918    3    0    3
 -2      3495      3812      4215      5287
 -1     25919    3    0    3
 -2      2323      2347      6123      6146
 -1     25920    3    0    3
 -2      4721      3912      4119      4099
 -1     25921    3    0    3
 -2      4298      2057      4715      6052
 -1     25922    3    0    3
 -2      2347      2323      2234      6146
 -1     25923    3    0    3
 -2      6143      5915      4735      6189
 -1     25924    3    0    3
 -2      1432      1260      1380      6407
 -1     25925    3    0    3
 -2      1259      1260      5296      6423
 -1     25926    3    0    3
 -2      4497      5364      5365      5936
 -1     25927    3    0    3
 -2      3379      5451      3354      3383
 -1     25928    3    0    3
 -2      5297      1432      1380      6407
 -1     25929    3    0    3
 -2      3812      4358      5289      5287
 -1     25930    3    0    3
 -2      4073      4726      4246      4040
 -1     25931    3    0    3
 -2      4246      4726      3462      4040
 -1     25932    3    0    3
 -2      4351      3918      4716      6179
 -1     25933    3    0    3
 -2      4073      4725      3495      5286
 -1     25934    3    0    3
 -2      1007      5282       943      5288
 -1     25935    3    0    3
 -2      4073      4099      4725      5286
 -1     25936    3    0    3
 -2      4183      4715      4713      4121
 -1     25937    3    0    3
 -2      3221      3495      4725      5286
 -1     25938    3    0    3
 -2      4183      4713      5277      4121
 -1     25939    3    0    3
 -2      1276      1259      1258      6430
 -1     25940    3    0    3
 -2      3586      3617      4674      5236
 -1     25941    3    0    3
 -2      5239       910      4416      6177
 -1     25942    3    0    3
 -2      3305      3795      3293      4781
 -1     25943    3    0    3
 -2      4718      4246      4073      3850
 -1     25944    3    0    3
 -2      3305      3795      3578      3295
 -1     25945    3    0    3
 -2      2347      2234      4719      6146
 -1     25946    3    0    3
 -2      1883      4801      5938      2046
 -1     25947    3    0    3
 -2      4726      4246      4723      3850
 -1     25948    3    0    3
 -2      2057      4720      4722      4298
 -1     25949    3    0    3
 -2      4726      4725      4073      3850
 -1     25950    3    0    3
 -2      6290      1287      1232      6291
 -1     25951    3    0    3
 -2      4726      4723      4361      3850
 -1     25952    3    0    3
 -2      4099      4715      4121      4718
 -1     25953    3    0    3
 -2      5364      4497      5365      5968
 -1     25954    3    0    3
 -2      5289      6431      4215      3685
 -1     25955    3    0    3
 -2      4246      4073      4040      4718
 -1     25956    3    0    3
 -2      4099      4718      3850      4298
 -1     25957    3    0    3
 -2      4099      4721      3912      4298
 -1     25958    3    0    3
 -2      4721      4725      4720      4298
 -1     25959    3    0    3
 -2      4099      4725      4721      4298
 -1     25960    3    0    3
 -2      3305      3795      4781      3578
 -1     25961    3    0    3
 -2      2211      4615      6594      6165
 -1     25962    3    0    3
 -2      2058      4722      4723      3850
 -1     25963    3    0    3
 -2      2946      2926      3529      2952
 -1     25964    3    0    3
 -2       663       506       507        60
 -1     25965    3    0    3
 -2      4248      4680      3797      5909
 -1     25966    3    0    3
 -2      1870      4714      1965      6587
 -1     25967    3    0    3
 -2      5456      4365      3994      3426
 -1     25968    3    0    3
 -2      1852      1869      4677      2021
 -1     25969    3    0    3
 -2      4722      4725      3850      4298
 -1     25970    3    0    3
 -2      4725      4099      3850      4298
 -1     25971    3    0    3
 -2      6127      4718      4716      6176
 -1     25972    3    0    3
 -2      4121      4716      4718      6176
 -1     25973    3    0    3
 -2      1072      5278      6415      6419
 -1     25974    3    0    3
 -2      4156      3918      4716      4351
 -1     25975    3    0    3
 -2      4716      4713      4156      4351
 -1     25976    3    0    3
 -2      2060      1719      1704      4672
 -1     25977    3    0    3
 -2      5009      5008      2655      5911
 -1     25978    3    0    3
 -2      4676      2903      3778      4396
 -1     25979    3    0    3
 -2      3778      4673      4676      4303
 -1     25980    3    0    3
 -2      4675      4451      3778      4673
 -1     25981    3    0    3
 -2      4669      3977      2014      6179
 -1     25982    3    0    3
 -2      3977      4671      4351      4669
 -1     25983    3    0    3
 -2      4351      4671      3829      4669
 -1     25984    3    0    3
 -2      3829      4351      4669      4672
 -1     25985    3    0    3
 -2      4674      3829      4451      4672
 -1     25986    3    0    3
 -2      3918      4674      4451      4672
 -1     25987    3    0    3
 -2      4351      3829      4674      4672
 -1     25988    3    0    3
 -2      4351      4674      3918      4672
 -1     25989    3    0    3
 -2      4673      1720      2903      4676
 -1     25990    3    0    3
 -2      4675      3586      4126      5237
 -1     25991    3    0    3
 -2      3529      4078      5241      5240
 -1     25992    3    0    3
 -2      4675      4303      4678      4102
 -1     25993    3    0    3
 -2      4682      3721      4345      4680
 -1     25994    3    0    3
 -2      2347      2237      2323      6123
 -1     25995    3    0    3
 -2      4102      3857      4678      4078
 -1     25996    3    0    3
 -2      4303      4673      4676      6180
 -1     25997    3    0    3
 -2      2234      3850      6052      2058
 -1     25998    3    0    3
 -2      3778      4675      4673      4303
 -1     25999    3    0    3
 -2      4303      3918      4716      4102
 -1     26000    3    0    3
 -2      1024      4416      5280      6413
 -1     26001    3    0    3
 -2      3787      4036      4632      6083
 -1     26002    3    0    3
 -2      4102      4675      3918      4126
 -1     26003    3    0    3
 -2      4675      4674      3918      4126
 -1     26004    3    0    3
 -2      4303      4675      3918      4102
 -1     26005    3    0    3
 -2      1870      4714      6587      6172
 -1     26006    3    0    3
 -2      4075      4716      4717      6123
 -1     26007    3    0    3
 -2      3918      4673      4303      6180
 -1     26008    3    0    3
 -2      4678      3529      3560      5240
 -1     26009    3    0    3
 -2      5304      3859      5305      4115
 -1     26010    3    0    3
 -2      4013      5243      2949      3608
 -1     26011    3    0    3
 -2      4078      4514      4046      5241
 -1     26012    3    0    3
 -2      3931      4735      4732      4140
 -1     26013    3    0    3
 -2      5242      4301      3743      5239
 -1     26014    3    0    3
 -2      4303      3857      4678      4102
 -1     26015    3    0    3
 -2      4717      3857      4303      4102
 -1     26016    3    0    3
 -2      4219      4311      3004      3517
 -1     26017    3    0    3
 -2      5282       943      1120      1007
 -1     26018    3    0    3
 -2      2952      3011      4301      2931
 -1     26019    3    0    3
 -2      3869      5299      5298      3831
 -1     26020    3    0    3
 -2      4684      1868      2932       447
 -1     26021    3    0    3
 -2      3990      4686      4683      4521
 -1     26022    3    0    3
 -2      4684      4685      3739      6135
 -1     26023    3    0    3
 -2      3797      4200      4731      6145
 -1     26024    3    0    3
 -2      3603      4685      4687      4296
 -1     26025    3    0    3
 -2      4685      3739      4687      4296
 -1     26026    3    0    3
 -2      6532      5868      6009      3665
 -1     26027    3    0    3
 -2       445      4677      2937      2925
 -1     26028    3    0    3
 -2      3857      4248      4677      4679
 -1     26029    3    0    3
 -2      4248      3721      4677      4679
 -1     26030    3    0    3
 -2      4679      3721      4677      4396
 -1     26031    3    0    3
 -2      3500      2992      3721      2946
 -1     26032    3    0    3
 -2      4682      4018      4683      3473
 -1     26033    3    0    3
 -2      1125       910       909      6177
 -1     26034    3    0    3
 -2      4686      4684      3669      4296
 -1     26035    3    0    3
 -2      4680      1925      1868      4681
 -1     26036    3    0    3
 -2      4733      4731      3953      6054
 -1     26037    3    0    3
 -2      2926      4396      2925      2946
 -1     26038    3    0    3
 -2      4683      5245      3990      4521
 -1     26039    3    0    3
 -2      4521      4686      4683      3669
 -1     26040    3    0    3
 -2      4684      4681      4200      3669
 -1     26041    3    0    3
 -2      2437      6128      6183      6732
 -1     26042    3    0    3
 -2      4345      4682      4680      3797
 -1     26043    3    0    3
 -2      2437      2347      2348      6732
 -1     26044    3    0    3
 -2      3990      4018      4683      4200
 -1     26045    3    0    3
 -2      3990      4731      4018      4200
 -1     26046    3    0    3
 -2      3925      4739      4733      5870
 -1     26047    3    0    3
 -2      4681      1925      1924      6145
 -1     26048    3    0    3
 -2      6016      3865      6035      5306
 -1     26049    3    0    3
 -2      1801       448      1768      4685
 -1     26050    3    0    3
 -2      6016      3865      3827      5303
 -1     26051    3    0    3
 -2      1801      1768      2111      4685
 -1     26052    3    0    3
 -2      4679      3857      4678      4396
 -1     26053    3    0    3
 -2      5382       861       916      6067
 -1     26054    3    0    3
 -2      1356      6159      5415      5377
 -1     26055    3    0    3
 -2      1868       446      1869      4680
 -1     26056    3    0    3
 -2      6016      3865      5303      6035
 -1     26057    3    0    3
 -2      4685      4684      3739      4296
 -1     26058    3    0    3
 -2      1925      1924      1868      4681
 -1     26059    3    0    3
 -2      5250       203      2924       202
 -1     26060    3    0    3
 -2      5716      2102      5035      6330
 -1     26061    3    0    3
 -2      4683      4682      4345      3797
 -1     26062    3    0    3
 -2      4680      4682      4248      3797
 -1     26063    3    0    3
 -2      6160      5419      3919      4337
 -1     26064    3    0    3
 -2      1924      2299      6135      6145
 -1     26065    3    0    3
 -2      1275      5448      6269      5442
 -1     26066    3    0    3
 -2      4681      1924      1868      4684
 -1     26067    3    0    3
 -2      1768      1868      1924      4684
 -1     26068    3    0    3
 -2      4014      4731      4733      6128
 -1     26069    3    0    3
 -2      4018      4682      4683      3797
 -1     26070    3    0    3
 -2      4200      4731      4018      3797
 -1     26071    3    0    3
 -2      4200      4018      4683      3797
 -1     26072    3    0    3
 -2      4682      4018      4248      3797
 -1     26073    3    0    3
 -2      4248      4018      4731      3797
 -1     26074    3    0    3
 -2      4731      6183      2279      6128
 -1     26075    3    0    3
 -2      5302      3891      5303      6401
 -1     26076    3    0    3
 -2      5107      2970      3929      2957
 -1     26077    3    0    3
 -2      1925      2021      2279      5909
 -1     26078    3    0    3
 -2      5734      5783      5594      5765
 -1     26079    3    0    3
 -2      5289      6431      1241       942
 -1     26080    3    0    3
 -2      5289      6431       942      4215
 -1     26081    3    0    3
 -2      3335      4493      3427      4390
 -1     26082    3    0    3
 -2      4735      1977      2301      2243
 -1     26083    3    0    3
 -2      3739      3990      4732      3957
 -1     26084    3    0    3
 -2      4479      5249      4466      5252
 -1     26085    3    0    3
 -2      3896      4735      4737      5915
 -1     26086    3    0    3
 -2      6131      2560      2561      6194
 -1     26087    3    0    3
 -2      4732      4734      6186      6189
 -1     26088    3    0    3
 -2      2376      2447      2169      6186
 -1     26089    3    0    3
 -2      1595      6059      5659      6060
 -1     26090    3    0    3
 -2      4731      4732      3953      6054
 -1     26091    3    0    3
 -2      4740      3925      4734      5870
 -1     26092    3    0    3
 -2      3953      4733      4734      3925
 -1     26093    3    0    3
 -2      1415      1323      1345      6016
 -1     26094    3    0    3
 -2      5309      5319      1469      6002
 -1     26095    3    0    3
 -2      5250       203       202       717
 -1     26096    3    0    3
 -2      4371      3254      3253      3169
 -1     26097    3    0    3
 -2      3953      5294      4014      5296
 -1     26098    3    0    3
 -2      6183      4719      2347      6732
 -1     26099    3    0    3
 -2       663       506       798      5489
 -1     26100    3    0    3
 -2      2347      2278      6123      6183
 -1     26101    3    0    3
 -2      6196      3869      4089      4735
 -1     26102    3    0    3
 -2      3957      4686      3990      5248
 -1     26103    3    0    3
 -2      3953      4734      4732      3896
 -1     26104    3    0    3
 -2      4737      3896      3865      5300
 -1     26105    3    0    3
 -2      4678      4679      3529      4078
 -1     26106    3    0    3
 -2      3633      6043      6318      5331
 -1     26107    3    0    3
 -2      6040      2424      5967      4738
 -1     26108    3    0    3
 -2      3803      4737      3865      5300
 -1     26109    3    0    3
 -2       742      1016       818      6397
 -1     26110    3    0    3
 -2      5126       192      2929      2930
 -1     26111    3    0    3
 -2      2447      2376      2561      6735
 -1     26112    3    0    3
 -2      2689      6039      4773      2665
 -1     26113    3    0    3
 -2      2235      4742      2346      5657
 -1     26114    3    0    3
 -2      5305      1345      1323      6016
 -1     26115    3    0    3
 -2      4743      3865      3827      5306
 -1     26116    3    0    3
 -2      2681      2508      2615      6130
 -1     26117    3    0    3
 -2      1347      1047      5952      6277
 -1     26118    3    0    3
 -2      6324       856      5506       855
 -1     26119    3    0    3
 -2      3605      5264      5261      4306
 -1     26120    3    0    3
 -2      4733      2436      6054      6191
 -1     26121    3    0    3
 -2      5304      3891      3949      5302
 -1     26122    3    0    3
 -2      1526      1432      1380      5297
 -1     26123    3    0    3
 -2      4140      4735      4732      6143
 -1     26124    3    0    3
 -2      5300      6197      6425      5298
 -1     26125    3    0    3
 -2      3831      4735      4737      3896
 -1     26126    3    0    3
 -2      4695      4355      4380      5257
 -1     26127    3    0    3
 -2      3687      4688      4690      4244
 -1     26128    3    0    3
 -2      3891      4742      4740      3827
 -1     26129    3    0    3
 -2      4744      3803      3774      5307
 -1     26130    3    0    3
 -2      1358      1400      1526      6418
 -1     26131    3    0    3
 -2      5301      3803      3831      4738
 -1     26132    3    0    3
 -2      4689      1978      3687      4688
 -1     26133    3    0    3
 -2      6792      2208      1959      2084
 -1     26134    3    0    3
 -2      2331      5964      2198      4778
 -1     26135    3    0    3
 -2      4769      4770      3853      3637
 -1     26136    3    0    3
 -2      3957      4140      4687      3931
 -1     26137    3    0    3
 -2      3900      3687      4140      4690
 -1     26138    3    0    3
 -2      3378       149      3382       685
 -1     26139    3    0    3
 -2      3620      4693      1972      4692
 -1     26140    3    0    3
 -2      3620      4736      3832      4089
 -1     26141    3    0    3
 -2      4735      4089      3687      3900
 -1     26142    3    0    3
 -2       451      1799      1780      4692
 -1     26143    3    0    3
 -2      1972      3620      4692      6047
 -1     26144    3    0    3
 -2      4689      4692      4089      6047
 -1     26145    3    0    3
 -2      4691      4089      3687      4689
 -1     26146    3    0    3
 -2      6143      4685      4140      1978
 -1     26147    3    0    3
 -2      1867      4688      4689      2944
 -1     26148    3    0    3
 -2      4693      1780      1972      4692
 -1     26149    3    0    3
 -2      4689      3687      1977      6047
 -1     26150    3    0    3
 -2      5276      5196      6414      4063
 -1     26151    3    0    3
 -2      1867      1801      1978      4688
 -1     26152    3    0    3
 -2      3957      4732      4140      3931
 -1     26153    3    0    3
 -2      5250       203       717      5251
 -1     26154    3    0    3
 -2      3900      4089      4691      3869
 -1     26155    3    0    3
 -2      4089      4691      3687      3900
 -1     26156    3    0    3
 -2      4116      3800      3582      3254
 -1     26157    3    0    3
 -2      5249      3957      4687      3931
 -1     26158    3    0    3
 -2      3831      5300      6295      6425
 -1     26159    3    0    3
 -2      3687      4140      4735      3900
 -1     26160    3    0    3
 -2      5700       860      1057      1281
 -1     26161    3    0    3
 -2      2996      4488      2991      2980
 -1     26162    3    0    3
 -2      2301      2405      2379      6040
 -1     26163    3    0    3
 -2      4466      4109      4488      5249
 -1     26164    3    0    3
 -2      4089      3620      4736      6047
 -1     26165    3    0    3
 -2      3335      4493      4390      1888
 -1     26166    3    0    3
 -2      2665      2424      2680      6042
 -1     26167    3    0    3
 -2       716      3710       202      5250
 -1     26168    3    0    3
 -2      5298      4735      3931      3900
 -1     26169    3    0    3
 -2      2916      4696      4697      4133
 -1     26170    3    0    3
 -2      3869      4089      4691      4694
 -1     26171    3    0    3
 -2      6143      4685      1978      2111
 -1     26172    3    0    3
 -2      4244      4691      4689      3543
 -1     26173    3    0    3
 -2      1025      4094      6093      5439
 -1     26174    3    0    3
 -2      2944      4688      3603      2943
 -1     26175    3    0    3
 -2      1978      2111      2170      6143
 -1     26176    3    0    3
 -2      4688      1801      1978      4685
 -1     26177    3    0    3
 -2      1978      1801      2111      4685
 -1     26178    3    0    3
 -2      4689      2911       450      2944
 -1     26179    3    0    3
 -2      3640      3869      3900      5253
 -1     26180    3    0    3
 -2      3687      4691      4689      4244
 -1     26181    3    0    3
 -2      4691      3869      4694      4407
 -1     26182    3    0    3
 -2      4735      5298      3931      3896
 -1     26183    3    0    3
 -2      1799      1867      1977      4689
 -1     26184    3    0    3
 -2      3603      2944      2943      2981
 -1     26185    3    0    3
 -2      2911       450      1799      4689
 -1     26186    3    0    3
 -2      1867      1799       450      4689
 -1     26187    3    0    3
 -2      4694      4089      4691      3543
 -1     26188    3    0    3
 -2      5234       983      5231      4327
 -1     26189    3    0    3
 -2      4686      3739      4684      4296
 -1     26190    3    0    3
 -2      3669      4488      4686      4296
 -1     26191    3    0    3
 -2      3669      4684      2990      4296
 -1     26192    3    0    3
 -2      4685      4140      3603      4687
 -1     26193    3    0    3
 -2      3739      4140      4685      4687
 -1     26194    3    0    3
 -2      3669      2980      2991      4488
 -1     26195    3    0    3
 -2      5299      4048      3832      3869
 -1     26196    3    0    3
 -2      4692       451      2911      2901
 -1     26197    3    0    3
 -2      4687      4140      3603      4690
 -1     26198    3    0    3
 -2      3944      4479      5249      5251
 -1     26199    3    0    3
 -2      4694      4380      4407      5256
 -1     26200    3    0    3
 -2      4244      4689      2911      3543
 -1     26201    3    0    3
 -2      4692      4693      1780      2901
 -1     26202    3    0    3
 -2      2979      4466      4439      5252
 -1     26203    3    0    3
 -2      2911      4692      2901      3543
 -1     26204    3    0    3
 -2      5257      3832      4048      5256
 -1     26205    3    0    3
 -2      3808      4355      4695      5257
 -1     26206    3    0    3
 -2      4690      4687      4140      3931
 -1     26207    3    0    3
 -2      4140      3900      4690      3931
 -1     26208    3    0    3
 -2      4690      3900      4691      4439
 -1     26209    3    0    3
 -2      4690      4691      3687      4244
 -1     26210    3    0    3
 -2      4466      4109      5249      4479
 -1     26211    3    0    3
 -2      4466      4109      4479      3025
 -1     26212    3    0    3
 -2      5332      5333      3637      3532
 -1     26213    3    0    3
 -2      4089      4736      3832      3869
 -1     26214    3    0    3
 -2      5333      5332      3637      3606
 -1     26215    3    0    3
 -2      6196      3869      4736      4089
 -1     26216    3    0    3
 -2      1071      6414      1075      1079
 -1     26217    3    0    3
 -2      3957      5249      4687      4488
 -1     26218    3    0    3
 -2      4466      4687      5249      4488
 -1     26219    3    0    3
 -2      3931      3900      4690      5252
 -1     26220    3    0    3
 -2      4407      4691      3869      5253
 -1     26221    3    0    3
 -2      3832      4089      3869      4694
 -1     26222    3    0    3
 -2      3832      3620      4089      4694
 -1     26223    3    0    3
 -2      4089      3620      4692      4694
 -1     26224    3    0    3
 -2      4689      4691      4089      3543
 -1     26225    3    0    3
 -2      1780       451      4692      2901
 -1     26226    3    0    3
 -2      2997      4276      2934      2971
 -1     26227    3    0    3
 -2      5375      1283      1582      6019
 -1     26228    3    0    3
 -2      2901      4692      4693      4191
 -1     26229    3    0    3
 -2      4694      3620      4692      4191
 -1     26230    3    0    3
 -2      3483      2978      2986      2917
 -1     26231    3    0    3
 -2      3832      4380      4694      5256
 -1     26232    3    0    3
 -2      5257      4411      3910      5259
 -1     26233    3    0    3
 -2      5254       204      3009       735
 -1     26234    3    0    3
 -2      3603      4687      4690      4466
 -1     26235    3    0    3
 -2      4687      5249      3931      4466
 -1     26236    3    0    3
 -2      3931      4690      4687      4466
 -1     26237    3    0    3
 -2      3501      5257      4048      5256
 -1     26238    3    0    3
 -2      4439      4690      3900      5252
 -1     26239    3    0    3
 -2      2911      4244      3543      2904
 -1     26240    3    0    3
 -2      4683      4200      4681      3669
 -1     26241    3    0    3
 -2      4687      4686      4488      4296
 -1     26242    3    0    3
 -2      4687      3739      4686      4296
 -1     26243    3    0    3
 -2      1260      1258      1259      5296
 -1     26244    3    0    3
 -2      3535      4109      5249      5248
 -1     26245    3    0    3
 -2      4684      4200      4686      3669
 -1     26246    3    0    3
 -2      2932      4345      2992      2937
 -1     26247    3    0    3
 -2      4396      4677      4676      2925
 -1     26248    3    0    3
 -2      4226      4382      2965      4257
 -1     26249    3    0    3
 -2      4226      4382      3708      2965
 -1     26250    3    0    3
 -2      3500      4679      3529      2946
 -1     26251    3    0    3
 -2      4013      5246      4514      5244
 -1     26252    3    0    3
 -2      3011      3560      3010      2952
 -1     26253    3    0    3
 -2      4679      3500      3529      5241
 -1     26254    3    0    3
 -2      4678      4676      3778      4396
 -1     26255    3    0    3
 -2       820      2762      5409       819
 -1     26256    3    0    3
 -2      2932      4680      4345      2937
 -1     26257    3    0    3
 -2      3349      3398      3350      3927
 -1     26258    3    0    3
 -2      4678      3778      2926      4396
 -1     26259    3    0    3
 -2      4345      3721      2992      2937
 -1     26260    3    0    3
 -2      4396      2903      2926      2925
 -1     26261    3    0    3
 -2      2925      4396      3721      2946
 -1     26262    3    0    3
 -2      2937      4677      3721      2925
 -1     26263    3    0    3
 -2      4396      3721      4677      2925
 -1     26264    3    0    3
 -2      5246      4514      3840      6164
 -1     26265    3    0    3
 -2      5241      5243      4013      3608
 -1     26266    3    0    3
 -2      2995      4013      3014      2951
 -1     26267    3    0    3
 -2       154      3407      3404      5460
 -1     26268    3    0    3
 -2      5281      4717      4075      4102
 -1     26269    3    0    3
 -2      4155      5452      3377      3379
 -1     26270    3    0    3
 -2      2991      4345      2932      3669
 -1     26271    3    0    3
 -2      2932      4345      4681      3669
 -1     26272    3    0    3
 -2      2932      2990      2991      3669
 -1     26273    3    0    3
 -2      4684      2990      2932      3669
 -1     26274    3    0    3
 -2      2932      4681      4684      3669
 -1     26275    3    0    3
 -2      5234       195      2890      2938
 -1     26276    3    0    3
 -2      1019      6288      1165      1018
 -1     26277    3    0    3
 -2      4521      3990      4686      5248
 -1     26278    3    0    3
 -2      2943      4296      3603      2980
 -1     26279    3    0    3
 -2      4296      3603      4685      2943
 -1     26280    3    0    3
 -2      4685      2990      4296      2943
 -1     26281    3    0    3
 -2      4685      1801       448      2943
 -1     26282    3    0    3
 -2      3805      4479      5252      5254
 -1     26283    3    0    3
 -2      4691      4690      4439      4244
 -1     26284    3    0    3
 -2      4692      4089      4694      3543
 -1     26285    3    0    3
 -2      4191      4694      4380      2912
 -1     26286    3    0    3
 -2      3944      5249      3535      5251
 -1     26287    3    0    3
 -2      6314      3290       657       177
 -1     26288    3    0    3
 -2      3543      4694      4191      2912
 -1     26289    3    0    3
 -2      4208      3805      5253      5255
 -1     26290    3    0    3
 -2      4698      3483      4696      4028
 -1     26291    3    0    3
 -2      3754      4699      4702      3973
 -1     26292    3    0    3
 -2      4692      3620      4693      4191
 -1     26293    3    0    3
 -2      4694      4692      3543      4191
 -1     26294    3    0    3
 -2      3543      4692      2901      4191
 -1     26295    3    0    3
 -2      2895       207      2896      5259
 -1     26296    3    0    3
 -2      3740      3782      3808      5260
 -1     26297    3    0    3
 -2       450       449      1867      2944
 -1     26298    3    0    3
 -2      4244      4688      3603      2944
 -1     26299    3    0    3
 -2       449       448      1801      2943
 -1     26300    3    0    3
 -2      1287      6290      1232      1361
 -1     26301    3    0    3
 -2      3543      4244      4691      2904
 -1     26302    3    0    3
 -2      2901      3543      4191      2912
 -1     26303    3    0    3
 -2      2901      2911      3543      2912
 -1     26304    3    0    3
 -2      3543      2911      2904      2912
 -1     26305    3    0    3
 -2      4889      2180      3799      2064
 -1     26306    3    0    3
 -2      2901      1780       451       452
 -1     26307    3    0    3
 -2      4191      2917      2901      2978
 -1     26308    3    0    3
 -2      5196      5276      6414      6153
 -1     26309    3    0    3
 -2      4396      4679      3721      2946
 -1     26310    3    0    3
 -2      2062      6150      4715      2244
 -1     26311    3    0    3
 -2      3560      3529      2926      2952
 -1     26312    3    0    3
 -2      6218      1267      1254      5461
 -1     26313    3    0    3
 -2      5430      4420      5429      3885
 -1     26314    3    0    3
 -2      3586      3560      3010      3011
 -1     26315    3    0    3
 -2      3603      4690      4244      2981
 -1     26316    3    0    3
 -2      2980      4466      3603      2981
 -1     26317    3    0    3
 -2      4690      3603      4466      2981
 -1     26318    3    0    3
 -2      3603      4244      2944      2981
 -1     26319    3    0    3
 -2      3608      2952      4301      2931
 -1     26320    3    0    3
 -2      1145      1076      5442       940
 -1     26321    3    0    3
 -2       685       939      5440       940
 -1     26322    3    0    3
 -2      2191      6100      6110      2403
 -1     26323    3    0    3
 -2      4439      4690      4466      2981
 -1     26324    3    0    3
 -2      4244      4690      4439      2981
 -1     26325    3    0    3
 -2      4407      4380      2912      2881
 -1     26326    3    0    3
 -2      2981      4244      2944      2904
 -1     26327    3    0    3
 -2      2944      4244      2911      2904
 -1     26328    3    0    3
 -2      4380      4694      4407      2912
 -1     26329    3    0    3
 -2      4737      4738      6196      3831
 -1     26330    3    0    3
 -2      3805      2882      3012      5255
 -1     26331    3    0    3
 -2      5259      3501      4048      5258
 -1     26332    3    0    3
 -2      4695      3620      4693      4028
 -1     26333    3    0    3
 -2      3620      4736      1973      4028
 -1     26334    3    0    3
 -2      2882      4208      5258      5255
 -1     26335    3    0    3
 -2      4439      4407      2904      2883
 -1     26336    3    0    3
 -2      4329      4355      2986      4698
 -1     26337    3    0    3
 -2      1076      1275      5442      1266
 -1     26338    3    0    3
 -2      4694      3832      3620      4695
 -1     26339    3    0    3
 -2      4380      4191      2912      2978
 -1     26340    3    0    3
 -2      2953      3013      2998      4382
 -1     26341    3    0    3
 -2      3411      3437      5460      3407
 -1     26342    3    0    3
 -2      4355      2986      2948      4329
 -1     26343    3    0    3
 -2      4695      4380      3832      5257
 -1     26344    3    0    3
 -2      1051      5255      4324      5254
 -1     26345    3    0    3
 -2      1051      5255       743       952
 -1     26346    3    0    3
 -2      1721      4708       468      4705
 -1     26347    3    0    3
 -2      4899      4504      5463      3456
 -1     26348    3    0    3
 -2      4380      3832      4694      4695
 -1     26349    3    0    3
 -2      4703      3505      3701      3726
 -1     26350    3    0    3
 -2      4133      4699      4698      3563
 -1     26351    3    0    3
 -2      4191      4694      3620      4695
 -1     26352    3    0    3
 -2      3424       153       712      5458
 -1     26353    3    0    3
 -2      4133      4306      4699      4503
 -1     26354    3    0    3
 -2      4736      3620      3832      3808
 -1     26355    3    0    3
 -2      4355      4695      4698      3808
 -1     26356    3    0    3
 -2      1026       940       768      5452
 -1     26357    3    0    3
 -2      3661      4773      3717      5336
 -1     26358    3    0    3
 -2      5457      4365      5456      5458
 -1     26359    3    0    3
 -2      1973      4693      3620      4028
 -1     26360    3    0    3
 -2      5261      4329      4297      2936
 -1     26361    3    0    3
 -2      3351      4455      3414      3349
 -1     26362    3    0    3
 -2      4466      3931      4690      5252
 -1     26363    3    0    3
 -2      4048      5299      3832      3808
 -1     26364    3    0    3
 -2      2916      2997      2986      4133
 -1     26365    3    0    3
 -2      4701      2935      1796      4700
 -1     26366    3    0    3
 -2      4276      4448      4257      4703
 -1     26367    3    0    3
 -2      2986      4329      4698      4133
 -1     26368    3    0    3
 -2      3505      4702      4703      4084
 -1     26369    3    0    3
 -2      2346      4742      4740      5657
 -1     26370    3    0    3
 -2      3762      4159      4475      5464
 -1     26371    3    0    3
 -2      3968      6263       468      3306
 -1     26372    3    0    3
 -2      4944      2159      2030      1915
 -1     26373    3    0    3
 -2      3447      3853      4707      3673
 -1     26374    3    0    3
 -2      5936      5949      4802      4497
 -1     26375    3    0    3
 -2      5460      6289      3351      3404
 -1     26376    3    0    3
 -2      4742      2346      4740      6394
 -1     26377    3    0    3
 -2      5460       794       946       688
 -1     26378    3    0    3
 -2      4008      4257      4276      2966
 -1     26379    3    0    3
 -2      2909      2923      2910      4024
 -1     26380    3    0    3
 -2      4965      3443      3344      3342
 -1     26381    3    0    3
 -2      4706      4024      4226      4707
 -1     26382    3    0    3
 -2      4707      4024      4394      4705
 -1     26383    3    0    3
 -2      4394      4710      4207      4707
 -1     26384    3    0    3
 -2      5500      3916      4938      4449
 -1     26385    3    0    3
 -2      4704      4705      4024      3447
 -1     26386    3    0    3
 -2       468      3968      4394      4708
 -1     26387    3    0    3
 -2      2923      4207      4226      4707
 -1     26388    3    0    3
 -2      3968      4207      4173       469
 -1     26389    3    0    3
 -2      4329      4699      4698      4133
 -1     26390    3    0    3
 -2      5264      3754      5261      4306
 -1     26391    3    0    3
 -2      2986      4698      3483      4133
 -1     26392    3    0    3
 -2      4039      4365      4067      5454
 -1     26393    3    0    3
 -2      2131      6176      2245      2244
 -1     26394    3    0    3
 -2      5465      5467      6740      6325
 -1     26395    3    0    3
 -2      4257      2966      2965      2910
 -1     26396    3    0    3
 -2      2923      4226      2965      4024
 -1     26397    3    0    3
 -2      4257      4226      5268      4706
 -1     26398    3    0    3
 -2      5505      3452      4159      6241
 -1     26399    3    0    3
 -2      3351      5460      3411      5459
 -1     26400    3    0    3
 -2       688       155       689      6289
 -1     26401    3    0    3
 -2      3795      4711      4469      3609
 -1     26402    3    0    3
 -2      4257      5268      3701      4706
 -1     26403    3    0    3
 -2      3307      3968      4711      4173
 -1     26404    3    0    3
 -2       865       950      5466       646
 -1     26405    3    0    3
 -2       471      4207       470      4173
 -1     26406    3    0    3
 -2      4419      4942      4395      5504
 -1     26407    3    0    3
 -2      4834      2714      4837      5844
 -1     26408    3    0    3
 -2      2910      2908      2909      4024
 -1     26409    3    0    3
 -2      3518      4884      4897      6268
 -1     26410    3    0    3
 -2      5329      3726      4142      4509
 -1     26411    3    0    3
 -2      4503      2934      4084      2967
 -1     26412    3    0    3
 -2      3968      6263      3306      4709
 -1     26413    3    0    3
 -2      3407       154       794      5460
 -1     26414    3    0    3
 -2      2953      2971      4008      2927
 -1     26415    3    0    3
 -2      3362      5534      3672      3371
 -1     26416    3    0    3
 -2      4469      4770      3795      3609
 -1     26417    3    0    3
 -2      3968      4207       469      4394
 -1     26418    3    0    3
 -2       469      4207       470      2923
 -1     26419    3    0    3
 -2      2967      2934      4084      2935
 -1     26420    3    0    3
 -2      3585      4938      4941      4449
 -1     26421    3    0    3
 -2       470       469      3307      4173
 -1     26422    3    0    3
 -2      4448      4024      4706      4704
 -1     26423    3    0    3
 -2      6289       154      5460       688
 -1     26424    3    0    3
 -2      3490      3459      4491      5462
 -1     26425    3    0    3
 -2      4044      1722      4708      4709
 -1     26426    3    0    3
 -2      4207       471       470      3001
 -1     26427    3    0    3
 -2      2923      4207       470      3001
 -1     26428    3    0    3
 -2       768       940       685      5452
 -1     26429    3    0    3
 -2      5440      4151      4307      3755
 -1     26430    3    0    3
 -2      5268      5270      4234      3708
 -1     26431    3    0    3
 -2      4207      2923      4226      3001
 -1     26432    3    0    3
 -2      4503      2997      2967      2916
 -1     26433    3    0    3
 -2      2013      4246      6098      2234
 -1     26434    3    0    3
 -2      3968      4207      4394      4710
 -1     26435    3    0    3
 -2      3515      5460       946       688
 -1     26436    3    0    3
 -2      4476      6298      3296       472
 -1     26437    3    0    3
 -2      4476      6298      5274      5275
 -1     26438    3    0    3
 -2      5460      6289      3515      3351
 -1     26439    3    0    3
 -2      4707      4394      4710      3853
 -1     26440    3    0    3
 -2      3447      4769      3853      3673
 -1     26441    3    0    3
 -2      2874      6333      2798      5930
 -1     26442    3    0    3
 -2      3968      6263      4709      4708
 -1     26443    3    0    3
 -2      4700      2052      3505      2080
 -1     26444    3    0    3
 -2      6305      5335      6310      6304
 -1     26445    3    0    3
 -2      3447      4706      3701      3673
 -1     26446    3    0    3
 -2      2923       469      4207      4394
 -1     26447    3    0    3
 -2      4024      2909      2923      4394
 -1     26448    3    0    3
 -2      2923      2909       469      4394
 -1     26449    3    0    3
 -2      3424      5458      3437      3407
 -1     26450    3    0    3
 -2      6525      3030      3090      6599
 -1     26451    3    0    3
 -2      4703      4702      4276      4084
 -1     26452    3    0    3
 -2      3701      4257      4706      4703
 -1     26453    3    0    3
 -2      3701      4703      3726      5265
 -1     26454    3    0    3
 -2      4024      4226      2965      4706
 -1     26455    3    0    3
 -2      2965      4226      4257      4706
 -1     26456    3    0    3
 -2      5950      6217      6251      2190
 -1     26457    3    0    3
 -2      5950      6217      2190      6252
 -1     26458    3    0    3
 -2      4394      4024      2909      4705
 -1     26459    3    0    3
 -2      4067      3994      3426      3383
 -1     26460    3    0    3
 -2      4207      2923      4394      4707
 -1     26461    3    0    3
 -2      2923      4024      4394      4707
 -1     26462    3    0    3
 -2       689      3398       646      6207
 -1     26463    3    0    3
 -2      5332      4769      3637      3606
 -1     26464    3    0    3
 -2      4769      5332      3637      3673
 -1     26465    3    0    3
 -2      4084      4503      2967      4700
 -1     26466    3    0    3
 -2      1796      2935       455      4700
 -1     26467    3    0    3
 -2      6252      6217      2190      2113
 -1     26468    3    0    3
 -2      3599      3661      5339      5337
 -1     26469    3    0    3
 -2      3808      4695      4698      4028
 -1     26470    3    0    3
 -2      4765      4028      2038      6804
 -1     26471    3    0    3
 -2      2218      2038      1973      6804
 -1     26472    3    0    3
 -2      4355      4380      2978      4695
 -1     26473    3    0    3
 -2      2978      4380      4191      4695
 -1     26474    3    0    3
 -2      4133      4696      4697      3563
 -1     26475    3    0    3
 -2      4191      2978      4695      3483
 -1     26476    3    0    3
 -2      4191      2917      4693      2901
 -1     26477    3    0    3
 -2      2978      4355      4695      3483
 -1     26478    3    0    3
 -2      4695      4355      4698      3483
 -1     26479    3    0    3
 -2      4698      4355      2986      3483
 -1     26480    3    0    3
 -2      4355      2978      2986      3483
 -1     26481    3    0    3
 -2      2038      4765      2217      2106
 -1     26482    3    0    3
 -2      3927      5466      3398      6207
 -1     26483    3    0    3
 -2       455      1698      1796      4700
 -1     26484    3    0    3
 -2      4297      4329      2948      2936
 -1     26485    3    0    3
 -2      6197      3896      6779      5295
 -1     26486    3    0    3
 -2      4276      4448      4703      4084
 -1     26487    3    0    3
 -2      4944      2159      6485      2030
 -1     26488    3    0    3
 -2      4276      4702      3726      5264
 -1     26489    3    0    3
 -2      2934      2910      4448      2935
 -1     26490    3    0    3
 -2      2935      4448      4084      4701
 -1     26491    3    0    3
 -2      4084      3505      4702      4700
 -1     26492    3    0    3
 -2      5462      4507      3818      4218
 -1     26493    3    0    3
 -2      4365      3994      4067      5454
 -1     26494    3    0    3
 -2      2934      4448      4084      2935
 -1     26495    3    0    3
 -2      4897      4898      3712      3490
 -1     26496    3    0    3
 -2      4902      4455      4424      5466
 -1     26497    3    0    3
 -2      4329      2986      2948      2936
 -1     26498    3    0    3
 -2      5261      4699      4329      4306
 -1     26499    3    0    3
 -2      4276      2966      2934      2971
 -1     26500    3    0    3
 -2      2901      4693      1780       452
 -1     26501    3    0    3
 -2      3832      4048      3808      5257
 -1     26502    3    0    3
 -2      6252      6217      2113      4704
 -1     26503    3    0    3
 -2      3483      4696      4693      2917
 -1     26504    3    0    3
 -2      1051      5255       952      4324
 -1     26505    3    0    3
 -2       469      3968      4394       468
 -1     26506    3    0    3
 -2      4394      2909       469       468
 -1     26507    3    0    3
 -2      4469      3637      4770      3609
 -1     26508    3    0    3
 -2      4769      5706      5950      6251
 -1     26509    3    0    3
 -2      4394      3968      4710      4708
 -1     26510    3    0    3
 -2      3451      6453       923      5114
 -1     26511    3    0    3
 -2      3973      4700      3505      2080
 -1     26512    3    0    3
 -2      4765      2217      2218      2038
 -1     26513    3    0    3
 -2      2275      2217      6219      6220
 -1     26514    3    0    3
 -2       191      5123      2930       709
 -1     26515    3    0    3
 -2      1722       468        16      1721
 -1     26516    3    0    3
 -2       156      3398       157       646
 -1     26517    3    0    3
 -2      1549      6320      1448      6321
 -1     26518    3    0    3
 -2      1897       457      2908      1721
 -1     26519    3    0    3
 -2      2908       457      2909      1721
 -1     26520    3    0    3
 -2      4039      4067      4893      5454
 -1     26521    3    0    3
 -2      4700      2052      2080      1796
 -1     26522    3    0    3
 -2      2349      2453      2422      6251
 -1     26523    3    0    3
 -2      1989      1722      4044      1800
 -1     26524    3    0    3
 -2      2908      4448      2935      4701
 -1     26525    3    0    3
 -2      3092      6096      4592      3049
 -1     26526    3    0    3
 -2      3092      6096      3057      6649
 -1     26527    3    0    3
 -2       468      4394      2909      4705
 -1     26528    3    0    3
 -2      2908      4024      4448      4704
 -1     26529    3    0    3
 -2      1721       468      2909      4705
 -1     26530    3    0    3
 -2      4448      4701      4704      3915
 -1     26531    3    0    3
 -2      2349      2422      5924      6251
 -1     26532    3    0    3
 -2        16       468       457      1721
 -1     26533    3    0    3
 -2      4711      4710      3968      4469
 -1     26534    3    0    3
 -2      3313      3795      4709      4015
 -1     26535    3    0    3
 -2      3092      6096      3049      3057
 -1     26536    3    0    3
 -2      4770      5333      3578      3609
 -1     26537    3    0    3
 -2      5924      2121      2349      4044
 -1     26538    3    0    3
 -2      1978      3687      4140      4735
 -1     26539    3    0    3
 -2      3505      4703      3701      3915
 -1     26540    3    0    3
 -2      2543      2544      5958      5961
 -1     26541    3    0    3
 -2      4706      4448      4704      3915
 -1     26542    3    0    3
 -2      2544      2543      5958      2643
 -1     26543    3    0    3
 -2      2523      2331      2371      5953
 -1     26544    3    0    3
 -2      4700      1698      1796      2080
 -1     26545    3    0    3
 -2      4705       468      4394      4708
 -1     26546    3    0    3
 -2      5460      6289       688      3515
 -1     26547    3    0    3
 -2      4394      4707      4705      3853
 -1     26548    3    0    3
 -2      2052      3505      4766      6252
 -1     26549    3    0    3
 -2      4084      2935      4701      4700
 -1     26550    3    0    3
 -2      3424      5456      3425      3426
 -1     26551    3    0    3
 -2      4084      2967      2935      4700
 -1     26552    3    0    3
 -2      4133      4697      4699      3563
 -1     26553    3    0    3
 -2      5461      3490      5462      3458
 -1     26554    3    0    3
 -2      1051      5255      5254       743
 -1     26555    3    0    3
 -2      2916      4503      2997      4133
 -1     26556    3    0    3
 -2      4697      4503      2916      4133
 -1     26557    3    0    3
 -2      4702      3505      4703      3726
 -1     26558    3    0    3
 -2      6239      1139      1138      6803
 -1     26559    3    0    3
 -2      1058       929      1153      6037
 -1     26560    3    0    3
 -2      3563      4765      3808      4028
 -1     26561    3    0    3
 -2      5133      6111      6112       661
 -1     26562    3    0    3
 -2      3620      4695      3808      4028
 -1     26563    3    0    3
 -2      4696      2916      2917      4133
 -1     26564    3    0    3
 -2      2917      3483      4696      4133
 -1     26565    3    0    3
 -2      2986      3483      2917      4133
 -1     26566    3    0    3
 -2      2916      2986      2917      4133
 -1     26567    3    0    3
 -2      6239      1138      6740      6803
 -1     26568    3    0    3
 -2       639       640      5267       904
 -1     26569    3    0    3
 -2      6046      4741      4739      4163
 -1     26570    3    0    3
 -2      5955      3780      5328      3723
 -1     26571    3    0    3
 -2      3758      3675      3729      4874
 -1     26572    3    0    3
 -2      4307       940      3755      5452
 -1     26573    3    0    3
 -2      5454      4365      3994      5457
 -1     26574    3    0    3
 -2      5465      4507      5462      4218
 -1     26575    3    0    3
 -2      3563      4698      4696      4028
 -1     26576    3    0    3
 -2      5965      2585      4773      6230
 -1     26577    3    0    3
 -2      5955      3780      3723      5330
 -1     26578    3    0    3
 -2      1842      4693      1780      1973
 -1     26579    3    0    3
 -2      1780      4693      1972      1973
 -1     26580    3    0    3
 -2      5453      6091      5442      3550
 -1     26581    3    0    3
 -2      2275      2106      2217      6220
 -1     26582    3    0    3
 -2      3755      5452       940      6294
 -1     26583    3    0    3
 -2      4899      4886      3484      3518
 -1     26584    3    0    3
 -2      3426      4365      4039      3437
 -1     26585    3    0    3
 -2      5688      1639      6309      1555
 -1     26586    3    0    3
 -2      1019      6288      1018      5457
 -1     26587    3    0    3
 -2      4394      4705      4708      3853
 -1     26588    3    0    3
 -2      4703      3701      4257      5265
 -1     26589    3    0    3
 -2      1721      2089      4705      2113
 -1     26590    3    0    3
 -2      3313      3795      3312      3294
 -1     26591    3    0    3
 -2      3968      6263      4708       468
 -1     26592    3    0    3
 -2      3313      3795      3294      4709
 -1     26593    3    0    3
 -2      3571      5769      4990      3510
 -1     26594    3    0    3
 -2      4882      2193      2134      6245
 -1     26595    3    0    3
 -2      4151      3755      3581      5451
 -1     26596    3    0    3
 -2      3581      3755      3553      5451
 -1     26597    3    0    3
 -2       940      5442      5440      3755
 -1     26598    3    0    3
 -2      5453      3755      5442      6294
 -1     26599    3    0    3
 -2      3438      4857      3439      3408
 -1     26600    3    0    3
 -2      3755       940      5442      6294
 -1     26601    3    0    3
 -2       940      1076      5442      6294
 -1     26602    3    0    3
 -2      3780      4738      4767      3750
 -1     26603    3    0    3
 -2      4331      3490      3712      4898
 -1     26604    3    0    3
 -2      1361      6256      1376      5447
 -1     26605    3    0    3
 -2      5920      2628      2543      5961
 -1     26606    3    0    3
 -2      5133      6527      6563      6638
 -1     26607    3    0    3
 -2      4039      3389      3426      3437
 -1     26608    3    0    3
 -2      4478      4424      5465      5467
 -1     26609    3    0    3
 -2      3425       152       767      5456
 -1     26610    3    0    3
 -2       767       152       712      5456
 -1     26611    3    0    3
 -2      5456       152       712      3424
 -1     26612    3    0    3
 -2       152       153       712      3424
 -1     26613    3    0    3
 -2      4709      4044      1722      1800
 -1     26614    3    0    3
 -2      1883      4801      2046      1895
 -1     26615    3    0    3
 -2      5458      5457      3818      1019
 -1     26616    3    0    3
 -2       712      5456      3424      5458
 -1     26617    3    0    3
 -2      1076       940      1026      6294
 -1     26618    3    0    3
 -2      5400      6675      1658      5833
 -1     26619    3    0    3
 -2      3553      4155      3755      5453
 -1     26620    3    0    3
 -2      3755      4151      4307      5451
 -1     26621    3    0    3
 -2      4067      3553      4889      5453
 -1     26622    3    0    3
 -2      4507      4481      4896      5459
 -1     26623    3    0    3
 -2      5133      6527      6112      6111
 -1     26624    3    0    3
 -2      3994      4365      4067      3426
 -1     26625    3    0    3
 -2      4365      4039      4067      3426
 -1     26626    3    0    3
 -2      4039      3359      4067      3426
 -1     26627    3    0    3
 -2      5133      6527      6638      6112
 -1     26628    3    0    3
 -2      3350       156       155       689
 -1     26629    3    0    3
 -2      3459      4039      4893      5454
 -1     26630    3    0    3
 -2      1254      5461      1267      1165
 -1     26631    3    0    3
 -2      6650      3044      3042      6649
 -1     26632    3    0    3
 -2      3637      3943      5272      3532
 -1     26633    3    0    3
 -2      5455      4039      3459      5454
 -1     26634    3    0    3
 -2      3321       654      4291      5521
 -1     26635    3    0    3
 -2      5455      4894      4507      3459
 -1     26636    3    0    3
 -2      5455      4365      4039      5454
 -1     26637    3    0    3
 -2      5471      4906      4909      2737
 -1     26638    3    0    3
 -2      5471      4906      2737      5469
 -1     26639    3    0    3
 -2      1168      5842      5414      5851
 -1     26640    3    0    3
 -2      5453      4889      3490      3550
 -1     26641    3    0    3
 -2      3755      3553      5453      3581
 -1     26642    3    0    3
 -2      4770      6217      4044      6251
 -1     26643    3    0    3
 -2      6305      5335      6304      6308
 -1     26644    3    0    3
 -2      4889      5453      3490      4067
 -1     26645    3    0    3
 -2      4889      3553      3799      3581
 -1     26646    3    0    3
 -2      4044      4709      4015      1800
 -1     26647    3    0    3
 -2      4738      4744      2680      6042
 -1     26648    3    0    3
 -2      4307      5452      3755      5451
 -1     26649    3    0    3
 -2      5452      4155      3755      5451
 -1     26650    3    0    3
 -2      3553      3359      3360      3383
 -1     26651    3    0    3
 -2      2331      2288      2371      5953
 -1     26652    3    0    3
 -2      3377      3425      4155      3383
 -1     26653    3    0    3
 -2      2402      2594      2453      5706
 -1     26654    3    0    3
 -2      4689      1978      4688      1867
 -1     26655    3    0    3
 -2      2121      1989      4044      1800
 -1     26656    3    0    3
 -2      2089      4044      2349      1989
 -1     26657    3    0    3
 -2      4015      2121      4044      1800
 -1     26658    3    0    3
 -2      4015      1711      2121      1800
 -1     26659    3    0    3
 -2      4766      3701      4769      3915
 -1     26660    3    0    3
 -2      4768      3671      6100      6110
 -1     26661    3    0    3
 -2      5452      4307      3378      3379
 -1     26662    3    0    3
 -2      3378      4307      3440      3379
 -1     26663    3    0    3
 -2      5451      4151      4307      3379
 -1     26664    3    0    3
 -2      4151      3440      4307      3379
 -1     26665    3    0    3
 -2      5451      3354      4151      3379
 -1     26666    3    0    3
 -2      3354      3440      4151      3379
 -1     26667    3    0    3
 -2      4155      5451      3379      3383
 -1     26668    3    0    3
 -2      5451      4155      3553      3383
 -1     26669    3    0    3
 -2      4709      1722       354      1800
 -1     26670    3    0    3
 -2      3994      5456      3426      3383
 -1     26671    3    0    3
 -2      3426      5456      3425      3383
 -1     26672    3    0    3
 -2      1722      4709       354      6263
 -1     26673    3    0    3
 -2      2080      4766      2276      2052
 -1     26674    3    0    3
 -2      4801      1883      4784      5959
 -1     26675    3    0    3
 -2      6217      3447      4769      3853
 -1     26676    3    0    3
 -2      4700      2052      1796      4701
 -1     26677    3    0    3
 -2       689      3398      3350       156
 -1     26678    3    0    3
 -2      5458      3407       794      5460
 -1     26679    3    0    3
 -2      6143      3739      6135      4732
 -1     26680    3    0    3
 -2      3505      4766      3973      2080
 -1     26681    3    0    3
 -2      6217      3447      3853      4705
 -1     26682    3    0    3
 -2      3563      4696      4697      2038
 -1     26683    3    0    3
 -2      6217      3447      4705      4704
 -1     26684    3    0    3
 -2      1841      4697      2038      2106
 -1     26685    3    0    3
 -2      2331      4778      2288      5953
 -1     26686    3    0    3
 -2      2218      4765      2038      6804
 -1     26687    3    0    3
 -2      2544      2545      4774      5961
 -1     26688    3    0    3
 -2      5920      4768      4767      5965
 -1     26689    3    0    3
 -2      4133      4698      4696      3563
 -1     26690    3    0    3
 -2      2217      2423      2448      4767
 -1     26691    3    0    3
 -2      5173      6466      1423      1424
 -1     26692    3    0    3
 -2      2438      4780      2197      5964
 -1     26693    3    0    3
 -2      2329      6100      4768      2543
 -1     26694    3    0    3
 -2       791       259      2842      6226
 -1     26695    3    0    3
 -2      6043      1502      1532      6318
 -1     26696    3    0    3
 -2      4767      4765      3780      3723
 -1     26697    3    0    3
 -2      1282      6399      1615      1291
 -1     26698    3    0    3
 -2      2329      6100      2543      2403
 -1     26699    3    0    3
 -2      6658      6005      5370      4136
 -1     26700    3    0    3
 -2      3349      5466      3398      3927
 -1     26701    3    0    3
 -2      2543      2628      2545      5961
 -1     26702    3    0    3
 -2      5283      1259      1276      6430
 -1     26703    3    0    3
 -2      2585      2448      2423      6230
 -1     26704    3    0    3
 -2      2544      2543      2545      5961
 -1     26705    3    0    3
 -2      3424      4365      3426      3437
 -1     26706    3    0    3
 -2      1177      6292      5465      6325
 -1     26707    3    0    3
 -2      5264      4509      3726      5265
 -1     26708    3    0    3
 -2      4155       151      5452       767
 -1     26709    3    0    3
 -2      4735      3831      4737      6196
 -1     26710    3    0    3
 -2      4700      3505      4702      3973
 -1     26711    3    0    3
 -2      4765      3780      4736      5967
 -1     26712    3    0    3
 -2      1978      3687      4735      1977
 -1     26713    3    0    3
 -2      5340      5334      3633      5864
 -1     26714    3    0    3
 -2      4705      4707      4024      3447
 -1     26715    3    0    3
 -2      5958      4774      4768      5961
 -1     26716    3    0    3
 -2      2424      2665      2423      6042
 -1     26717    3    0    3
 -2       794      6236      5458      5460
 -1     26718    3    0    3
 -2      6522      1327      1398      6178
 -1     26719    3    0    3
 -2      1282      6399      5330      1534
 -1     26720    3    0    3
 -2      2619      5907      2667      2618
 -1     26721    3    0    3
 -2      5457      4491      5454      3818
 -1     26722    3    0    3
 -2      4741      6046      4739      6731
 -1     26723    3    0    3
 -2      4770      6217      6251      4769
 -1     26724    3    0    3
 -2      4773      4744      3717      3750
 -1     26725    3    0    3
 -2      5771       645      3423      5787
 -1     26726    3    0    3
 -2      4424      4370      4902      5466
 -1     26727    3    0    3
 -2      1296      5546      5557      5766
 -1     26728    3    0    3
 -2      5958      4768      2543      5961
 -1     26729    3    0    3
 -2      3750      3695      5330      5336
 -1     26730    3    0    3
 -2      4699      4697      4503      3973
 -1     26731    3    0    3
 -2      4697      4696      1841      2038
 -1     26732    3    0    3
 -2      3362      5534      3371      3384
 -1     26733    3    0    3
 -2      3362      5534      3384      4224
 -1     26734    3    0    3
 -2      3723      6110      3671      4768
 -1     26735    3    0    3
 -2      5260      3782      4329      5261
 -1     26736    3    0    3
 -2      3723      4767      3695      5330
 -1     26737    3    0    3
 -2      4028      3563      4765      2038
 -1     26738    3    0    3
 -2      5458      5459      3437      5460
 -1     26739    3    0    3
 -2      3411      3437      3389      5459
 -1     26740    3    0    3
 -2      1549      6320      1522      1448
 -1     26741    3    0    3
 -2      4894      4896      3389      5459
 -1     26742    3    0    3
 -2      4896      4894      4507      5459
 -1     26743    3    0    3
 -2       646       950      5466      5787
 -1     26744    3    0    3
 -2      5541      3777      4974      4399
 -1     26745    3    0    3
 -2      3355      4974      3777      4399
 -1     26746    3    0    3
 -2      3357      3355      3356      4399
 -1     26747    3    0    3
 -2      5464       955      3762      6241
 -1     26748    3    0    3
 -2      5761      1073      1090      6239
 -1     26749    3    0    3
 -2      1137      1136      1138      6740
 -1     26750    3    0    3
 -2       728      5509      5506       855
 -1     26751    3    0    3
 -2      4702      4503      4700      3973
 -1     26752    3    0    3
 -2      4455      3349      5466      4399
 -1     26753    3    0    3
 -2      5466      4902      4455      4399
 -1     26754    3    0    3
 -2      5452       767      1026      4155
 -1     26755    3    0    3
 -2      5955      3780      5330      6301
 -1     26756    3    0    3
 -2      3346      5813      6232      6564
 -1     26757    3    0    3
 -2      4291      3321      3433      4408
 -1     26758    3    0    3
 -2      5459      4894      4507      5455
 -1     26759    3    0    3
 -2      3389      4894      5459      5455
 -1     26760    3    0    3
 -2      4894      3389      4039      5455
 -1     26761    3    0    3
 -2      5459      3437      3389      5455
 -1     26762    3    0    3
 -2      3437      4039      3389      5455
 -1     26763    3    0    3
 -2      3437      4365      4039      5455
 -1     26764    3    0    3
 -2      3407       794       153      5458
 -1     26765    3    0    3
 -2      5455      5459      3437      5458
 -1     26766    3    0    3
 -2      1429      1612      1530      6107
 -1     26767    3    0    3
 -2      6272      5344      3311      3292
 -1     26768    3    0    3
 -2      4142      3726      3754      5264
 -1     26769    3    0    3
 -2      4411      5260      5257      3910
 -1     26770    3    0    3
 -2      3581      4878      4889      3550
 -1     26771    3    0    3
 -2       955      1126      5464      1099
 -1     26772    3    0    3
 -2       654      3321      4291      4408
 -1     26773    3    0    3
 -2      4898      3459      3490      5462
 -1     26774    3    0    3
 -2      3459      5454      4491      3818
 -1     26775    3    0    3
 -2      3459      5455      5454      3818
 -1     26776    3    0    3
 -2      4481      4455      3351      3515
 -1     26777    3    0    3
 -2      5462      3459      4491      3818
 -1     26778    3    0    3
 -2      3458      4897      4899      3518
 -1     26779    3    0    3
 -2      3637      3943      3609      5272
 -1     26780    3    0    3
 -2      4897      2227      6579      6247
 -1     26781    3    0    3
 -2      4151      3553      3354      5451
 -1     26782    3    0    3
 -2      3712      4067      4889      3490
 -1     26783    3    0    3
 -2      4878      3581      4889      3799
 -1     26784    3    0    3
 -2      5454      4067      4893      3490
 -1     26785    3    0    3
 -2      3712      4893      4067      3490
 -1     26786    3    0    3
 -2      4893      3459      5454      3490
 -1     26787    3    0    3
 -2      3637      3943      3532      5333
 -1     26788    3    0    3
 -2      3780      5301      4738      3750
 -1     26789    3    0    3
 -2      4133      4306      4329      4699
 -1     26790    3    0    3
 -2      3780      4767      3723      5330
 -1     26791    3    0    3
 -2      4507      3459      5462      3818
 -1     26792    3    0    3
 -2      4507      5455      3459      3818
 -1     26793    3    0    3
 -2      4897      3490      5461      3458
 -1     26794    3    0    3
 -2      3458      4900      4478      5464
 -1     26795    3    0    3
 -2      3544      4886      4885      3577
 -1     26796    3    0    3
 -2      5453       767      1026      1018
 -1     26797    3    0    3
 -2      4507      5459      5455      4218
 -1     26798    3    0    3
 -2      5457      5454      4365      3818
 -1     26799    3    0    3
 -2      5454      5455      4365      3818
 -1     26800    3    0    3
 -2      3726      3754      5329      4142
 -1     26801    3    0    3
 -2      4902      4901      4424      4455
 -1     26802    3    0    3
 -2      6037      5328      1153      6301
 -1     26803    3    0    3
 -2      5261      3754      4699      4306
 -1     26804    3    0    3
 -2      6218      5463      5461      6235
 -1     26805    3    0    3
 -2      5459      4507      4481      4218
 -1     26806    3    0    3
 -2      4700      2052      4701      3505
 -1     26807    3    0    3
 -2      3818      5455      4365      5458
 -1     26808    3    0    3
 -2       946      3515      5465      6236
 -1     26809    3    0    3
 -2      4365      5457      3818      5458
 -1     26810    3    0    3
 -2      3350      3351      3349      3927
 -1     26811    3    0    3
 -2      5458      5455      5459      4218
 -1     26812    3    0    3
 -2      5467      4395      5468      3860
 -1     26813    3    0    3
 -2      5465      4481      4507      4218
 -1     26814    3    0    3
 -2      3515      4218      5465      6236
 -1     26815    3    0    3
 -2      5458      3818      5455      4218
 -1     26816    3    0    3
 -2       794       712      5458      1019
 -1     26817    3    0    3
 -2      5458       712      5457      1019
 -1     26818    3    0    3
 -2      3782      4329      4698      5260
 -1     26819    3    0    3
 -2      5462      4478      5465      6292
 -1     26820    3    0    3
 -2      3437      3407      5458      5460
 -1     26821    3    0    3
 -2      5459      5458      4218      5460
 -1     26822    3    0    3
 -2      5456      4155      3383      3994
 -1     26823    3    0    3
 -2       794      6236      5460       946
 -1     26824    3    0    3
 -2      4771      3606      4769      3671
 -1     26825    3    0    3
 -2      4449      5467      3452      4419
 -1     26826    3    0    3
 -2      4155      5456      3383      3425
 -1     26827    3    0    3
 -2       191      5123       709       804
 -1     26828    3    0    3
 -2      3411      3404      3407      5460
 -1     26829    3    0    3
 -2      1208      1019       946      6236
 -1     26830    3    0    3
 -2      5465      4455      4481      3515
 -1     26831    3    0    3
 -2      5459      4481      3351      3515
 -1     26832    3    0    3
 -2      4481      5459      4218      3515
 -1     26833    3    0    3
 -2      4218      5459      5460      3515
 -1     26834    3    0    3
 -2       946      1177      1208      6236
 -1     26835    3    0    3
 -2      6325      6207      1136      6740
 -1     26836    3    0    3
 -2       946      5465      1177      6236
 -1     26837    3    0    3
 -2      5462      1019      1208      6236
 -1     26838    3    0    3
 -2       689      3398       156       646
 -1     26839    3    0    3
 -2      3689      3766      3165      6056
 -1     26840    3    0    3
 -2      5462      5465      4218      6236
 -1     26841    3    0    3
 -2      4218      5465      4481      3515
 -1     26842    3    0    3
 -2      3515      4455      3351      3927
 -1     26843    3    0    3
 -2       191      5123      2885      2930
 -1     26844    3    0    3
 -2       191      5123       804      2885
 -1     26845    3    0    3
 -2      3754      3563      3782      4699
 -1     26846    3    0    3
 -2      3563      3808      4698      4028
 -1     26847    3    0    3
 -2      1578      1577      6399      6237
 -1     26848    3    0    3
 -2      3633      5960      5337      3599
 -1     26849    3    0    3
 -2      1906      6703      4500      1857
 -1     26850    3    0    3
 -2      3443      4965      3344      4966
 -1     26851    3    0    3
 -2      1469      1414      1540      6190
 -1     26852    3    0    3
 -2      5466      1138      6239       950
 -1     26853    3    0    3
 -2      1538      5348      5349      6036
 -1     26854    3    0    3
 -2      3740       929      5328      1061
 -1     26855    3    0    3
 -2      2402      4771      5950      6100
 -1     26856    3    0    3
 -2      5051      5801      4981      3759
 -1     26857    3    0    3
 -2      4424      4904      4370      5468
 -1     26858    3    0    3
 -2      5761      5541      5543      6239
 -1     26859    3    0    3
 -2      1090      1073      1138      6239
 -1     26860    3    0    3
 -2      3777      5787      5541      3913
 -1     26861    3    0    3
 -2      3777      5787      4399      5541
 -1     26862    3    0    3
 -2      4367      4395      4945      5507
 -1     26863    3    0    3
 -2      6282       757       872       957
 -1     26864    3    0    3
 -2      6242      5468      6324      6740
 -1     26865    3    0    3
 -2      5502      5505      4159      6241
 -1     26866    3    0    3
 -2      2628      2329      2448      5920
 -1     26867    3    0    3
 -2      6317      5360      6328      1301
 -1     26868    3    0    3
 -2      3740       929      1061      5263
 -1     26869    3    0    3
 -2      1139       858       857      6242
 -1     26870    3    0    3
 -2      2543      4768      2329      5920
 -1     26871    3    0    3
 -2      4768      4767      3695      3723
 -1     26872    3    0    3
 -2      4000      3452      5503      5505
 -1     26873    3    0    3
 -2      4370      5541      5466      6239
 -1     26874    3    0    3
 -2       547      5509      5506       728
 -1     26875    3    0    3
 -2      2079      4556      3629      4557
 -1     26876    3    0    3
 -2      4771      2643      2402      2594
 -1     26877    3    0    3
 -2      4768      3695      3633      5331
 -1     26878    3    0    3
 -2      4941      4942      4227      4419
 -1     26879    3    0    3
 -2      4449      4941      4227      4419
 -1     26880    3    0    3
 -2      4419      3452      5503      5504
 -1     26881    3    0    3
 -2      4449      4159      5500      5503
 -1     26882    3    0    3
 -2      5328      3754      3782      4142
 -1     26883    3    0    3
 -2       155      3350       689      6289
 -1     26884    3    0    3
 -2      5980      5341      1239      5957
 -1     26885    3    0    3
 -2      5502      4159      3762      6241
 -1     26886    3    0    3
 -2      4029       634       523       524
 -1     26887    3    0    3
 -2      4769      5332      3701      3671
 -1     26888    3    0    3
 -2      5502      3762       955      6241
 -1     26889    3    0    3
 -2      4342      5543      3745      4976
 -1     26890    3    0    3
 -2      4411      5262      5260      3910
 -1     26891    3    0    3
 -2      5505      5502      4159      3589
 -1     26892    3    0    3
 -2       628      5505      4000      3589
 -1     26893    3    0    3
 -2      5955      1202      1354      6024
 -1     26894    3    0    3
 -2      3808      4695      3832      5257
 -1     26895    3    0    3
 -2       211      5267      2953      2998
 -1     26896    3    0    3
 -2      3754      4766      3505      3726
 -1     26897    3    0    3
 -2      3762      5500      4281      5499
 -1     26898    3    0    3
 -2      3486      5498      4066      5497
 -1     26899    3    0    3
 -2      4766      3701      3505      3726
 -1     26900    3    0    3
 -2      5461      3458      5463      3518
 -1     26901    3    0    3
 -2      3484      4066      3456      5463
 -1     26902    3    0    3
 -2      5784      2223      2441      6752
 -1     26903    3    0    3
 -2      4281       624      3894      5499
 -1     26904    3    0    3
 -2      3894      5498       516      5501
 -1     26905    3    0    3
 -2       516      5498       710      5501
 -1     26906    3    0    3
 -2      3785      3872      3810      4838
 -1     26907    3    0    3
 -2      3894      5496       517      3486
 -1     26908    3    0    3
 -2      3456      4899      3484      5463
 -1     26909    3    0    3
 -2      3894       517       624       516
 -1     26910    3    0    3
 -2      5502      5501       618       711
 -1     26911    3    0    3
 -2      3662      5497      4066      6302
 -1     26912    3    0    3
 -2      3577      3544      4886      5450
 -1     26913    3    0    3
 -2      4899      4504      4900      3458
 -1     26914    3    0    3
 -2      2841      5941      2863      5943
 -1     26915    3    0    3
 -2      3671      3606      4769      5332
 -1     26916    3    0    3
 -2      4934      4330      4933      3456
 -1     26917    3    0    3
 -2      3793      5493       578      5494
 -1     26918    3    0    3
 -2      4066      3456      4504      5496
 -1     26919    3    0    3
 -2      4066      5496      3486      5495
 -1     26920    3    0    3
 -2      4029      4933      3484      5495
 -1     26921    3    0    3
 -2      5498      4066      4435      5496
 -1     26922    3    0    3
 -2      3558       947      5490      3967
 -1     26923    3    0    3
 -2      4504      4435      4066      5496
 -1     26924    3    0    3
 -2      4435      4504      4066      5463
 -1     26925    3    0    3
 -2      4475      4435      5464      4504
 -1     26926    3    0    3
 -2      4475      4435      5499      3762
 -1     26927    3    0    3
 -2      3726      5329      3834      4509
 -1     26928    3    0    3
 -2      3456      4066      4504      5463
 -1     26929    3    0    3
 -2      3754      4766      5329      3723
 -1     26930    3    0    3
 -2      4766      3754      5329      3726
 -1     26931    3    0    3
 -2      5493       507       578       726
 -1     26932    3    0    3
 -2       517       608       598      3974
 -1     26933    3    0    3
 -2      4066      3484      3456      5495
 -1     26934    3    0    3
 -2      5496      3894       517      3974
 -1     26935    3    0    3
 -2      1037      6762       836      5582
 -1     26936    3    0    3
 -2      4898      6573      2223      5741
 -1     26937    3    0    3
 -2      5949      5985      5936      5939
 -1     26938    3    0    3
 -2      3629      2079      4036      4631
 -1     26939    3    0    3
 -2      5949      5985      5939      1713
 -1     26940    3    0    3
 -2      3968      4207      4710      4173
 -1     26941    3    0    3
 -2      5328      3723      3754      5329
 -1     26942    3    0    3
 -2      1842      4028      2038      4696
 -1     26943    3    0    3
 -2      3701      3673      4234      5332
 -1     26944    3    0    3
 -2      4902      4901      3591      5816
 -1     26945    3    0    3
 -2       611      4281      5500      3942
 -1     26946    3    0    3
 -2      4903      5467      4449      4419
 -1     26947    3    0    3
 -2      4159      5467      3452      4449
 -1     26948    3    0    3
 -2      5467      4478      4903      4449
 -1     26949    3    0    3
 -2      4900      4475      3585      4449
 -1     26950    3    0    3
 -2      6225      4903      4901      6573
 -1     26951    3    0    3
 -2      4767      6219      4768      5920
 -1     26952    3    0    3
 -2      6219      4767      4768      3723
 -1     26953    3    0    3
 -2      5464      4159      4475      4449
 -1     26954    3    0    3
 -2      6236      5462      5465      6292
 -1     26955    3    0    3
 -2      4941      3884      4942      4419
 -1     26956    3    0    3
 -2      5509       547      5506      4372
 -1     26957    3    0    3
 -2      3452      3860      5506      5504
 -1     26958    3    0    3
 -2      4698      4699      3782      3563
 -1     26959    3    0    3
 -2      3754      3563      4699      3973
 -1     26960    3    0    3
 -2      5510       858      6240      6242
 -1     26961    3    0    3
 -2      5533       755       981       763
 -1     26962    3    0    3
 -2      4252      4395      3860      5468
 -1     26963    3    0    3
 -2      4392      3733      5426      3764
 -1     26964    3    0    3
 -2      4392      3733      6102      5426
 -1     26965    3    0    3
 -2       515      3894      5498       516
 -1     26966    3    0    3
 -2       618      5502       628      3589
 -1     26967    3    0    3
 -2      5503      3452      4159      5505
 -1     26968    3    0    3
 -2      5262      3740      4411      5260
 -1     26969    3    0    3
 -2      4419      4941      3884      5503
 -1     26970    3    0    3
 -2      4419      4449      4941      5503
 -1     26971    3    0    3
 -2      4449      3916      4941      5503
 -1     26972    3    0    3
 -2      3884      4941      3916      5503
 -1     26973    3    0    3
 -2      4699      4329      4698      3782
 -1     26974    3    0    3
 -2      1016      6062      5729      1245
 -1     26975    3    0    3
 -2      4419      3884      4942      5504
 -1     26976    3    0    3
 -2      4395      3860      3452      5504
 -1     26977    3    0    3
 -2      3854      4395      4942      5504
 -1     26978    3    0    3
 -2      3884      3854      4942      5504
 -1     26979    3    0    3
 -2      3860      5509      5506      4372
 -1     26980    3    0    3
 -2      5509      3860      4252      5507
 -1     26981    3    0    3
 -2      4946      4342      4367      5508
 -1     26982    3    0    3
 -2      4342      4946      3796      5508
 -1     26983    3    0    3
 -2      3796      5605      4342      5508
 -1     26984    3    0    3
 -2      4342      5605      3556      5508
 -1     26985    3    0    3
 -2      4367      3821      4946      5508
 -1     26986    3    0    3
 -2      4946      3821      3796      5508
 -1     26987    3    0    3
 -2      5504      3854      4395      5507
 -1     26988    3    0    3
 -2      5504      4395      3860      5507
 -1     26989    3    0    3
 -2      1016      6062      1179      6400
 -1     26990    3    0    3
 -2      6282       757      5482      5485
 -1     26991    3    0    3
 -2      5506      3452      5504      4000
 -1     26992    3    0    3
 -2      3973      4699      4697      3563
 -1     26993    3    0    3
 -2      6282       757       957      5482
 -1     26994    3    0    3
 -2       568      4372       547       570
 -1     26995    3    0    3
 -2      2222      6243      5784      2441
 -1     26996    3    0    3
 -2      3821      5508      5507      3698
 -1     26997    3    0    3
 -2      3723      6110      4766      3671
 -1     26998    3    0    3
 -2       547      4372      3698       622
 -1     26999    3    0    3
 -2      5735      5736      5027      2345
 -1     27000    3    0    3
 -2      3698      4098      5510       601
 -1     27001    3    0    3
 -2      4098      5508      3698      5510
 -1     27002    3    0    3
 -2      3556      4252      5508      5510
 -1     27003    3    0    3
 -2      3808      4765      4736      4028
 -1     27004    3    0    3
 -2      3808      4736      3620      4028
 -1     27005    3    0    3
 -2      5494       625      5497       830
 -1     27006    3    0    3
 -2      3782      3808      4698      3563
 -1     27007    3    0    3
 -2      4765      3808      3782      3563
 -1     27008    3    0    3
 -2      1016      6062      6400      5729
 -1     27009    3    0    3
 -2      1016      6062      1245      1179
 -1     27010    3    0    3
 -2      4000       568       569       570
 -1     27011    3    0    3
 -2      4372      5504      3854       570
 -1     27012    3    0    3
 -2      4504      4937      4475      5499
 -1     27013    3    0    3
 -2      3373      3737      5534      3371
 -1     27014    3    0    3
 -2      5533       755      3737       981
 -1     27015    3    0    3
 -2      4695      4693      3483      4028
 -1     27016    3    0    3
 -2      5496      4435      3894      5499
 -1     27017    3    0    3
 -2      4698      4695      3483      4028
 -1     27018    3    0    3
 -2      4696      3563      4028      2038
 -1     27019    3    0    3
 -2      4466      4109      3025      4488
 -1     27020    3    0    3
 -2       858      1139      6240      6242
 -1     27021    3    0    3
 -2       568        52       825        53
 -1     27022    3    0    3
 -2      3754      3563      3973      4765
 -1     27023    3    0    3
 -2      4766      2276      2275      2080
 -1     27024    3    0    3
 -2      6218      5448      5450      6291
 -1     27025    3    0    3
 -2      3973      4766      4765      6220
 -1     27026    3    0    3
 -2      2275      2080      2106      6220
 -1     27027    3    0    3
 -2      2275      4766      2080      6220
 -1     27028    3    0    3
 -2      2106      2080      3973      6220
 -1     27029    3    0    3
 -2      4331      3490      4893      3712
 -1     27030    3    0    3
 -2      1796      1897      4701      2052
 -1     27031    3    0    3
 -2      4704      4701      1897      2052
 -1     27032    3    0    3
 -2      5708      4772      6253      6258
 -1     27033    3    0    3
 -2      1989      4044      2349      2121
 -1     27034    3    0    3
 -2      5944      4781      3297      6262
 -1     27035    3    0    3
 -2      3701      4766      3505      3915
 -1     27036    3    0    3
 -2      1912       478      6646      6645
 -1     27037    3    0    3
 -2      2643      4771      2402      6100
 -1     27038    3    0    3
 -2      5505      5506       825       568
 -1     27039    3    0    3
 -2      5505      4000      5506       568
 -1     27040    3    0    3
 -2      4372      5506      4000       568
 -1     27041    3    0    3
 -2      4372       547      5506       568
 -1     27042    3    0    3
 -2      6241      5506      3452      5467
 -1     27043    3    0    3
 -2      3307       469      3968      4173
 -1     27044    3    0    3
 -2      4106      5272      3532      5269
 -1     27045    3    0    3
 -2      4706      4226      5268      3673
 -1     27046    3    0    3
 -2      4234      1038      5271      5270
 -1     27047    3    0    3
 -2      6237      6307      1578      1649
 -1     27048    3    0    3
 -2       601       602       832        50
 -1     27049    3    0    3
 -2      6237      6307      5338      5336
 -1     27050    3    0    3
 -2      5607       602       832       601
 -1     27051    3    0    3
 -2      5503      4159      5500      3589
 -1     27052    3    0    3
 -2       825      5505       568        53
 -1     27053    3    0    3
 -2       628       568      5505        53
 -1     27054    3    0    3
 -2      5464      4900      4449      4475
 -1     27055    3    0    3
 -2      3701      4766      4769      3671
 -1     27056    3    0    3
 -2       628      5502      5505      3589
 -1     27057    3    0    3
 -2       543      3854      3884       570
 -1     27058    3    0    3
 -2      1403      1494      1404      6231
 -1     27059    3    0    3
 -2      6260      6262      3795      4781
 -1     27060    3    0    3
 -2      4711      3968      4709      4469
 -1     27061    3    0    3
 -2      2113      2190      2089      6217
 -1     27062    3    0    3
 -2      2349      2089      2190      6217
 -1     27063    3    0    3
 -2      2874      6333      5930      5937
 -1     27064    3    0    3
 -2      3915      4766      3505      6252
 -1     27065    3    0    3
 -2      4707      4706      4024      3447
 -1     27066    3    0    3
 -2      1283      5375      1582      1389
 -1     27067    3    0    3
 -2      3853      4707      4705      3447
 -1     27068    3    0    3
 -2       621       572      3796       623
 -1     27069    3    0    3
 -2       563       543      3884       570
 -1     27070    3    0    3
 -2       569       563      3884       570
 -1     27071    3    0    3
 -2      4098      3987       602       623
 -1     27072    3    0    3
 -2      3987       500       602       623
 -1     27073    3    0    3
 -2       622      3698       601       623
 -1     27074    3    0    3
 -2      5700       860      6049      5388
 -1     27075    3    0    3
 -2       601      3698      4098       623
 -1     27076    3    0    3
 -2       601      4098       602       623
 -1     27077    3    0    3
 -2       759      6742      6380      6027
 -1     27078    3    0    3
 -2      3915      4706      3701      3447
 -1     27079    3    0    3
 -2      3915      3701      4769      3447
 -1     27080    3    0    3
 -2      4706      5268      3701      3673
 -1     27081    3    0    3
 -2      3447      4707      4706      3673
 -1     27082    3    0    3
 -2      2402      4771      2594      5706
 -1     27083    3    0    3
 -2      3673      3853      4707      3637
 -1     27084    3    0    3
 -2      3673      4769      3853      3637
 -1     27085    3    0    3
 -2      6658      3085      3086      3088
 -1     27086    3    0    3
 -2      3633      5960      5340      5864
 -1     27087    3    0    3
 -2       622      3854       621       570
 -1     27088    3    0    3
 -2      3854       543       621       570
 -1     27089    3    0    3
 -2      4710      4707      3853      3637
 -1     27090    3    0    3
 -2      4281      5500      5502      3589
 -1     27091    3    0    3
 -2      5500      5502      3762      4281
 -1     27092    3    0    3
 -2      4185      4937      4934      3974
 -1     27093    3    0    3
 -2      4707      4710      4207      3637
 -1     27094    3    0    3
 -2      5272      4207      4710      3637
 -1     27095    3    0    3
 -2      5492      3514      5491      4340
 -1     27096    3    0    3
 -2      3578      3943      3609      5333
 -1     27097    3    0    3
 -2      4707      3673      3637      5269
 -1     27098    3    0    3
 -2       598      4934      3783      4003
 -1     27099    3    0    3
 -2       598      3783       525      4003
 -1     27100    3    0    3
 -2      5864      1404      5340      6231
 -1     27101    3    0    3
 -2      2875      5940      6274      5943
 -1     27102    3    0    3
 -2       611      3916       609      3942
 -1     27103    3    0    3
 -2       611       609       608      3942
 -1     27104    3    0    3
 -2       609      4938      3727      3942
 -1     27105    3    0    3
 -2      3916      5500      4938      3942
 -1     27106    3    0    3
 -2      3572      4777      3539      5340
 -1     27107    3    0    3
 -2      4003      4029       525       524
 -1     27108    3    0    3
 -2       517      4003       598       524
 -1     27109    3    0    3
 -2       515      3894       517      3486
 -1     27110    3    0    3
 -2       524      4029       634      4193
 -1     27111    3    0    3
 -2      2190      6252      2191      5950
 -1     27112    3    0    3
 -2      4322      6738      6276      4124
 -1     27113    3    0    3
 -2      2874      6333      5937      2802
 -1     27114    3    0    3
 -2      5496      4934      4504      3974
 -1     27115    3    0    3
 -2       608       609      3727      3942
 -1     27116    3    0    3
 -2      4185       608      4937      3974
 -1     27117    3    0    3
 -2      6329      5639      4326       973
 -1     27118    3    0    3
 -2      4777      4774      3599      3633
 -1     27119    3    0    3
 -2      3695      4774      4768      3633
 -1     27120    3    0    3
 -2      4779      3508      3539      5342
 -1     27121    3    0    3
 -2      2371      2594      2523      5953
 -1     27122    3    0    3
 -2      4136      4056      5380      4107
 -1     27123    3    0    3
 -2      4435      5498      5496      3894
 -1     27124    3    0    3
 -2      3572      4777      3633      4771
 -1     27125    3    0    3
 -2      1163      1081      1017      6342
 -1     27126    3    0    3
 -2      5335      5894      5952      6311
 -1     27127    3    0    3
 -2      6302      1017      1081      6342
 -1     27128    3    0    3
 -2      3456      3484      4933      5495
 -1     27129    3    0    3
 -2      4938      4937      3727      3942
 -1     27130    3    0    3
 -2      5500      3762      4475      5499
 -1     27131    3    0    3
 -2      4475      4938      5500      3942
 -1     27132    3    0    3
 -2       598      4185      4934      3974
 -1     27133    3    0    3
 -2      5499      5500      4281      3942
 -1     27134    3    0    3
 -2      4003       598      4934      3974
 -1     27135    3    0    3
 -2      4234      3673      3532      5332
 -1     27136    3    0    3
 -2      1202      5329       905      1088
 -1     27137    3    0    3
 -2       711       618        54        55
 -1     27138    3    0    3
 -2      6241      6324      5467      1126
 -1     27139    3    0    3
 -2      3584      6741      3616      5514
 -1     27140    3    0    3
 -2      5952      6227      5345      1047
 -1     27141    3    0    3
 -2      2438      2197      2330      5964
 -1     27142    3    0    3
 -2      4771      3606      3572      4772
 -1     27143    3    0    3
 -2      4744      4738      2680      6041
 -1     27144    3    0    3
 -2      5283      1259      6175      6427
 -1     27145    3    0    3
 -2      2445      4797      2506      6015
 -1     27146    3    0    3
 -2      6380       759      5326      6371
 -1     27147    3    0    3
 -2      5982      4796      2682      5981
 -1     27148    3    0    3
 -2      6052      4722      2058      3850
 -1     27149    3    0    3
 -2      3853      4705      4708      6217
 -1     27150    3    0    3
 -2      4708      4705      2089      6217
 -1     27151    3    0    3
 -2      5842      1168      5414      5671
 -1     27152    3    0    3
 -2      6052      4722      3850      4298
 -1     27153    3    0    3
 -2      2052      2276      2191      6252
 -1     27154    3    0    3
 -2      2113      2052      2191      6252
 -1     27155    3    0    3
 -2        55       710       516        56
 -1     27156    3    0    3
 -2       618      3894       516      5501
 -1     27157    3    0    3
 -2       515      3486       524      4193
 -1     27158    3    0    3
 -2      6110      2276      4766      6252
 -1     27159    3    0    3
 -2      3513      4778      3572      4772
 -1     27160    3    0    3
 -2      5708      2594      2371      5953
 -1     27161    3    0    3
 -2      3578      3305      3309      5344
 -1     27162    3    0    3
 -2      2863       464       463      5941
 -1     27163    3    0    3
 -2      5496      4504      4435      5499
 -1     27164    3    0    3
 -2      4159      5503      5505      3589
 -1     27165    3    0    3
 -2       611       624       618      4281
 -1     27166    3    0    3
 -2      4934      5496      4003      3974
 -1     27167    3    0    3
 -2      4281      5502       618      3589
 -1     27168    3    0    3
 -2       628       611       618      3589
 -1     27169    3    0    3
 -2      5501       618      3894      4281
 -1     27170    3    0    3
 -2       624      3894       618      4281
 -1     27171    3    0    3
 -2      5503       569      4000      3589
 -1     27172    3    0    3
 -2       611       628       569      3589
 -1     27173    3    0    3
 -2       611       569      3916      3589
 -1     27174    3    0    3
 -2      5503      3916       569      3589
 -1     27175    3    0    3
 -2       611      3916      5500      3589
 -1     27176    3    0    3
 -2      5503      5500      3916      3589
 -1     27177    3    0    3
 -2      4061      4929      4090      5491
 -1     27178    3    0    3
 -2      6309      1659      1663      1639
 -1     27179    3    0    3
 -2       525       598      4003       524
 -1     27180    3    0    3
 -2      4003      5496       517      3974
 -1     27181    3    0    3
 -2      5943      5941      2863      6104
 -1     27182    3    0    3
 -2      2824       466       465      6273
 -1     27183    3    0    3
 -2      4468       634      3793       578
 -1     27184    3    0    3
 -2      4281      5501      3762      5499
 -1     27185    3    0    3
 -2      3894      5501      4281      5499
 -1     27186    3    0    3
 -2      5501      4435      3762      5499
 -1     27187    3    0    3
 -2      5501      3894      4435      5499
 -1     27188    3    0    3
 -2      5949      5985      1713      4801
 -1     27189    3    0    3
 -2      5499      4281       624      3942
 -1     27190    3    0    3
 -2      4281       611       624      3942
 -1     27191    3    0    3
 -2       611       608       624      3942
 -1     27192    3    0    3
 -2      5499      4937      4475      3942
 -1     27193    3    0    3
 -2      4475      5500      5499      3942
 -1     27194    3    0    3
 -2      5492      4029      3484      5495
 -1     27195    3    0    3
 -2      5496      3456      4934      4003
 -1     27196    3    0    3
 -2      4933      4934      3456      4003
 -1     27197    3    0    3
 -2       624      5499      3942      3974
 -1     27198    3    0    3
 -2      3942      4937       608      3974
 -1     27199    3    0    3
 -2      3942      5499      4937      3974
 -1     27200    3    0    3
 -2      5499      5496      4504      3974
 -1     27201    3    0    3
 -2      5499      4504      4937      3974
 -1     27202    3    0    3
 -2      5343      5341      3539      5931
 -1     27203    3    0    3
 -2      4783      3513      3480      5346
 -1     27204    3    0    3
 -2      6272      6228      5345      6273
 -1     27205    3    0    3
 -2      3486       517       515       524
 -1     27206    3    0    3
 -2      5492      4193      4029      5495
 -1     27207    3    0    3
 -2       517      3486      4003       524
 -1     27208    3    0    3
 -2      4334      4922       567      4141
 -1     27209    3    0    3
 -2      4922      4334      4925      4141
 -1     27210    3    0    3
 -2       506      4101       555      3700
 -1     27211    3    0    3
 -2      2730      1782      4843      2731
 -1     27212    3    0    3
 -2       554      4112       553      4141
 -1     27213    3    0    3
 -2       561      3901       553      4112
 -1     27214    3    0    3
 -2      5557      5558      1490      6410
 -1     27215    3    0    3
 -2      1849      6438      1947      4920
 -1     27216    3    0    3
 -2      1849      6438      4923      1996
 -1     27217    3    0    3
 -2      5943      2829      2872      2875
 -1     27218    3    0    3
 -2      5433      3417      4230      3401
 -1     27219    3    0    3
 -2      6272       465       466      6273
 -1     27220    3    0    3
 -2       507      4468      5493       578
 -1     27221    3    0    3
 -2      3793      4029      4193       634
 -1     27222    3    0    3
 -2      4468      4112      4090       597
 -1     27223    3    0    3
 -2       554       553       567      4141
 -1     27224    3    0    3
 -2      6260      5944      5661      6737
 -1     27225    3    0    3
 -2      4772      4770      3606      3545
 -1     27226    3    0    3
 -2      4112      4926      3574      5488
 -1     27227    3    0    3
 -2      3311      3290      3291      5344
 -1     27228    3    0    3
 -2      4708      4710      3853      4469
 -1     27229    3    0    3
 -2       553      4112       555       597
 -1     27230    3    0    3
 -2      5558      5557      1490      5673
 -1     27231    3    0    3
 -2      6278      6277      6276      6310
 -1     27232    3    0    3
 -2       955      5464      3762      1014
 -1     27233    3    0    3
 -2      5487      3574      3604      3558
 -1     27234    3    0    3
 -2      3293      3795      3312      6262
 -1     27235    3    0    3
 -2      5661      4782      3545      6737
 -1     27236    3    0    3
 -2      3514      4929      4061      5491
 -1     27237    3    0    3
 -2       597       634      4468       578
 -1     27238    3    0    3
 -2      4475      4435      4504      5499
 -1     27239    3    0    3
 -2      5493      4468      3793       578
 -1     27240    3    0    3
 -2      5497      4066      5495      3662
 -1     27241    3    0    3
 -2      5496      4066      3456      5495
 -1     27242    3    0    3
 -2      5463      3484      4066      3662
 -1     27243    3    0    3
 -2       625       515      4193      5497
 -1     27244    3    0    3
 -2       507       597      4468       578
 -1     27245    3    0    3
 -2      1013      1209      5463      1081
 -1     27246    3    0    3
 -2      3514      5450      3544      4340
 -1     27247    3    0    3
 -2      5924      2121      4015      2053
 -1     27248    3    0    3
 -2      3558      5488      3544      3967
 -1     27249    3    0    3
 -2      5497      4193      5494      3662
 -1     27250    3    0    3
 -2       524      4003      4029      5495
 -1     27251    3    0    3
 -2      2892      4505      2947      2913
 -1     27252    3    0    3
 -2      4926      4090      3544      5488
 -1     27253    3    0    3
 -2      5484      4374      3700      5486
 -1     27254    3    0    3
 -2      4770      3545      5924      6260
 -1     27255    3    0    3
 -2      4101       555      4468       507
 -1     27256    3    0    3
 -2       506       507      4101      5489
 -1     27257    3    0    3
 -2      5941      3300       463      6121
 -1     27258    3    0    3
 -2      2309      2117      2053      6737
 -1     27259    3    0    3
 -2      1852      6187      2020      2021
 -1     27260    3    0    3
 -2      3314      4781      3298      3300
 -1     27261    3    0    3
 -2      3314      3301      4781      3300
 -1     27262    3    0    3
 -2      3577      6256      5449      6290
 -1     27263    3    0    3
 -2       359      2863       463      1737
 -1     27264    3    0    3
 -2        17       463      1740      1737
 -1     27265    3    0    3
 -2      2371      2522      5708      6253
 -1     27266    3    0    3
 -2      4709       354      3313      1800
 -1     27267    3    0    3
 -2      6404      3482      5561      5768
 -1     27268    3    0    3
 -2      4772      3513      4778      5945
 -1     27269    3    0    3
 -2      6251      2453      2422      6258
 -1     27270    3    0    3
 -2      4044      4015      4770      5924
 -1     27271    3    0    3
 -2      3480      5940      5707      4783
 -1     27272    3    0    3
 -2      2541      4776      4779      5697
 -1     27273    3    0    3
 -2      5941      6255      5943      6273
 -1     27274    3    0    3
 -2      1737       463      1740      5941
 -1     27275    3    0    3
 -2      1745      3298      1712      5944
 -1     27276    3    0    3
 -2      1966      2288      5945      2056
 -1     27277    3    0    3
 -2      5102       181      2977      2974
 -1     27278    3    0    3
 -2      5892      5661      5941      6121
 -1     27279    3    0    3
 -2      2068      1740      1917      5892
 -1     27280    3    0    3
 -2       726       507       578        59
 -1     27281    3    0    3
 -2       463        17      1740       358
 -1     27282    3    0    3
 -2      1711      1712       356      6262
 -1     27283    3    0    3
 -2      5944      5892      1745      6121
 -1     27284    3    0    3
 -2      4781      3293      3314      3297
 -1     27285    3    0    3
 -2       507       726       663        59
 -1     27286    3    0    3
 -2      1740       358      1745      6121
 -1     27287    3    0    3
 -2      4015      4709      3313      1800
 -1     27288    3    0    3
 -2      5495      4066      3484      3662
 -1     27289    3    0    3
 -2      4340      3484      5450      3662
 -1     27290    3    0    3
 -2      4781      3314      3298      3297
 -1     27291    3    0    3
 -2      5495      5492      4193      3662
 -1     27292    3    0    3
 -2      3609      4770      3795      3578
 -1     27293    3    0    3
 -2      4221       550      4918      4201
 -1     27294    3    0    3
 -2      5941      1737      2863      6104
 -1     27295    3    0    3
 -2      5950      2453      2190      6251
 -1     27296    3    0    3
 -2      1722      4044      2089      1989
 -1     27297    3    0    3
 -2      4708      3968      4710      4469
 -1     27298    3    0    3
 -2       340      5791      3320       339
 -1     27299    3    0    3
 -2      3313      1711      3312      4015
 -1     27300    3    0    3
 -2      4711      3294      3307      3303
 -1     27301    3    0    3
 -2      5661      5892      5944      6121
 -1     27302    3    0    3
 -2       357      3298      1745       358
 -1     27303    3    0    3
 -2      4044      1722      2089      4708
 -1     27304    3    0    3
 -2      2892      4505      4669      3829
 -1     27305    3    0    3
 -2      2053      1711      2121      4015
 -1     27306    3    0    3
 -2      4711      3306      3968      3307
 -1     27307    3    0    3
 -2      4711      3306      3307      3294
 -1     27308    3    0    3
 -2       468       469      3968      3306
 -1     27309    3    0    3
 -2       356      1712      3297      6262
 -1     27310    3    0    3
 -2      3306       469      3968      3307
 -1     27311    3    0    3
 -2      4709      1722      4708      6263
 -1     27312    3    0    3
 -2       468      1722        16       354
 -1     27313    3    0    3
 -2      4753      4749      3992      3582
 -1     27314    3    0    3
 -2      3795      4709      4711      3294
 -1     27315    3    0    3
 -2       571      4285      5481      3594
 -1     27316    3    0    3
 -2      1031       729      4154      5274
 -1     27317    3    0    3
 -2       356      1711      3312       355
 -1     27318    3    0    3
 -2      1800      3313       355       354
 -1     27319    3    0    3
 -2       729      1031      4154      1046
 -1     27320    3    0    3
 -2      3313      4709      3294      3306
 -1     27321    3    0    3
 -2      6052      2234      6127      4718
 -1     27322    3    0    3
 -2      5997       112      3231       684
 -1     27323    3    0    3
 -2      3308      5273      4322      5275
 -1     27324    3    0    3
 -2      5936      5949      4497      4801
 -1     27325    3    0    3
 -2       340      5791      3998      3320
 -1     27326    3    0    3
 -2      3293      4781      3314      3305
 -1     27327    3    0    3
 -2      3289      3290       656      5344
 -1     27328    3    0    3
 -2       533       531       532      4374
 -1     27329    3    0    3
 -2      4709      4711      4469      3795
 -1     27330    3    0    3
 -2      4169      3634      4921      5483
 -1     27331    3    0    3
 -2      4015      4709      4469      3795
 -1     27332    3    0    3
 -2      3312      4015      1711      6262
 -1     27333    3    0    3
 -2      4711      3306      3294      4709
 -1     27334    3    0    3
 -2      1711       356      3312      6262
 -1     27335    3    0    3
 -2      3637      4770      3853      4469
 -1     27336    3    0    3
 -2      3853      4770      4044      4469
 -1     27337    3    0    3
 -2      4015      4044      4770      4469
 -1     27338    3    0    3
 -2      4709      4044      4015      4469
 -1     27339    3    0    3
 -2      5333      4770      3578      6192
 -1     27340    3    0    3
 -2      3943      3609      5272      5273
 -1     27341    3    0    3
 -2      4207       469       470      4173
 -1     27342    3    0    3
 -2      5333      3545      4770      6192
 -1     27343    3    0    3
 -2      4469      4711      4710      3609
 -1     27344    3    0    3
 -2      4469      4710      3637      3609
 -1     27345    3    0    3
 -2      5273      3296      3299      4476
 -1     27346    3    0    3
 -2       532       554       533      4374
 -1     27347    3    0    3
 -2      4710      5272      3637      3609
 -1     27348    3    0    3
 -2      2498      5686      2463      2546
 -1     27349    3    0    3
 -2      6052      2234      2058      2131
 -1     27350    3    0    3
 -2      4688       449      1867      1801
 -1     27351    3    0    3
 -2      3723      6110      6219      4766
 -1     27352    3    0    3
 -2      4207      4476      4106      5272
 -1     27353    3    0    3
 -2      4207      4476      4173       471
 -1     27354    3    0    3
 -2      5488      4101      5490      3558
 -1     27355    3    0    3
 -2      1038      6248      1089      5946
 -1     27356    3    0    3
 -2      1038      6248      1207      1089
 -1     27357    3    0    3
 -2      4173      3609      4711      5273
 -1     27358    3    0    3
 -2      1038      5946      3834      5332
 -1     27359    3    0    3
 -2       571      4285      3594       626
 -1     27360    3    0    3
 -2      5272      3609      4173      5273
 -1     27361    3    0    3
 -2      4154      4124      4322      5275
 -1     27362    3    0    3
 -2      5719      4398      4369      5022
 -1     27363    3    0    3
 -2        61       798        60       506
 -1     27364    3    0    3
 -2      3605      2971      2936      2927
 -1     27365    3    0    3
 -2      5485      4374      3864      5486
 -1     27366    3    0    3
 -2      5273      3943      3578      4322
 -1     27367    3    0    3
 -2      3302      3308      3309      4322
 -1     27368    3    0    3
 -2      3673      4234      3532      5269
 -1     27369    3    0    3
 -2      3309      3305      3291      5344
 -1     27370    3    0    3
 -2      3308      3295      5273      3303
 -1     27371    3    0    3
 -2      4322      3310      3308      5275
 -1     27372    3    0    3
 -2      3304      3314      4781      3305
 -1     27373    3    0    3
 -2      3708      2998      3013      4382
 -1     27374    3    0    3
 -2      3307       470      4173      3299
 -1     27375    3    0    3
 -2       658      4124      3302      6286
 -1     27376    3    0    3
 -2      5272      3532      3943      5274
 -1     27377    3    0    3
 -2      3291      3290      3289      5344
 -1     27378    3    0    3
 -2      4226      4207      3001      5269
 -1     27379    3    0    3
 -2      3634      5483      3864      3670
 -1     27380    3    0    3
 -2      6276      6286      4124       656
 -1     27381    3    0    3
 -2       507      4101       555       506
 -1     27382    3    0    3
 -2       555       554       506      3700
 -1     27383    3    0    3
 -2      5486      3864       871      6283
 -1     27384    3    0    3
 -2      5486        61       798       758
 -1     27385    3    0    3
 -2      3670      4165      5480      3455
 -1     27386    3    0    3
 -2       757       531        62        63
 -1     27387    3    0    3
 -2      5344       657       656      6276
 -1     27388    3    0    3
 -2       792      6226      6227      6228
 -1     27389    3    0    3
 -2       531      5485       757        62
 -1     27390    3    0    3
 -2      5533       163       164      3418
 -1     27391    3    0    3
 -2      4387      4921      4918      4201
 -1     27392    3    0    3
 -2       588       533       610      4201
 -1     27393    3    0    3
 -2      3474      4918      3881      3697
 -1     27394    3    0    3
 -2      5477      1055       642       641
 -1     27395    3    0    3
 -2      5481      4285      5479      3594
 -1     27396    3    0    3
 -2      4285       626      5479      3594
 -1     27397    3    0    3
 -2      5485       871       758      5486
 -1     27398    3    0    3
 -2      5485       871      5486      3864
 -1     27399    3    0    3
 -2      5485       871      3864       872
 -1     27400    3    0    3
 -2      5485       871       872       758
 -1     27401    3    0    3
 -2      4141      4925      3604      5487
 -1     27402    3    0    3
 -2      4141       554      4112      5487
 -1     27403    3    0    3
 -2      4141      4922       567      4169
 -1     27404    3    0    3
 -2      6143      3739      4140      4685
 -1     27405    3    0    3
 -2      5344       657      6314      3290
 -1     27406    3    0    3
 -2      3574      5487      5488      3558
 -1     27407    3    0    3
 -2      3634      3604      3864      5484
 -1     27408    3    0    3
 -2      4112      4090      4926      5488
 -1     27409    3    0    3
 -2      3313      1711       355      3312
 -1     27410    3    0    3
 -2      4256      5484      3700      5486
 -1     27411    3    0    3
 -2      3864      5484      4256      5486
 -1     27412    3    0    3
 -2      3305      3295      3578      3309
 -1     27413    3    0    3
 -2      3594       626       581       588
 -1     27414    3    0    3
 -2      3594       571       626       588
 -1     27415    3    0    3
 -2      4019      4918      4917      4221
 -1     27416    3    0    3
 -2      4019       550      4918      4221
 -1     27417    3    0    3
 -2       581       550      4019      4221
 -1     27418    3    0    3
 -2       588       550       581      4221
 -1     27419    3    0    3
 -2      5489      3700       506      5486
 -1     27420    3    0    3
 -2      4374      3864      5483      5485
 -1     27421    3    0    3
 -2      4090      3901       561      4112
 -1     27422    3    0    3
 -2      1861      4079      4912      4911
 -1     27423    3    0    3
 -2      1861      4079      4911        66
 -1     27424    3    0    3
 -2      4925      3574      3604      5487
 -1     27425    3    0    3
 -2      4112      3574      4925      5487
 -1     27426    3    0    3
 -2      4918       550      4387      4201
 -1     27427    3    0    3
 -2      4101      5487      5489      3558
 -1     27428    3    0    3
 -2      4374       554       533      4169
 -1     27429    3    0    3
 -2      3634      3881      4921      3670
 -1     27430    3    0    3
 -2      2329      6100      2403      6110
 -1     27431    3    0    3
 -2      5483      4374      4169      5484
 -1     27432    3    0    3
 -2      4141      4112      4925      5487
 -1     27433    3    0    3
 -2      6260      6265      5661      4781
 -1     27434    3    0    3
 -2      3661      6043      5336      6354
 -1     27435    3    0    3
 -2      3697      3881      4881      3670
 -1     27436    3    0    3
 -2      5479      3594      4221      5480
 -1     27437    3    0    3
 -2      3594      5479      4165      5480
 -1     27438    3    0    3
 -2      4201      4221       588      5480
 -1     27439    3    0    3
 -2      4221      3594       588      5480
 -1     27440    3    0    3
 -2      6701      2185      2255      4861
 -1     27441    3    0    3
 -2      5485      3455      5483      4002
 -1     27442    3    0    3
 -2      3455      5480      5483      4002
 -1     27443    3    0    3
 -2      5483      4201      5480      3670
 -1     27444    3    0    3
 -2      3670      5445      4165      3455
 -1     27445    3    0    3
 -2      5480      5483      3670      3455
 -1     27446    3    0    3
 -2      5810      2616      2556      5705
 -1     27447    3    0    3
 -2      2616      5810      2556      2554
 -1     27448    3    0    3
 -2      4201      4918      5480      3670
 -1     27449    3    0    3
 -2      5483      4921      4201      3670
 -1     27450    3    0    3
 -2      4201      4921      4918      3670
 -1     27451    3    0    3
 -2      4922      3634      4169      5484
 -1     27452    3    0    3
 -2      4169      4141      4922      5484
 -1     27453    3    0    3
 -2      4169      4374       554      5484
 -1     27454    3    0    3
 -2      4169       554      4141      5484
 -1     27455    3    0    3
 -2      2271      2218      1973      6804
 -1     27456    3    0    3
 -2       554      4374      3700      5484
 -1     27457    3    0    3
 -2      3722      5479      4917      3697
 -1     27458    3    0    3
 -2      4917      3474      3722      3697
 -1     27459    3    0    3
 -2      4881      5445      3722      3697
 -1     27460    3    0    3
 -2      3722      3474      4881      3697
 -1     27461    3    0    3
 -2      3634      4882      3881      3670
 -1     27462    3    0    3
 -2      1240      5445      1233       957
 -1     27463    3    0    3
 -2      4881      3881      4882      3670
 -1     27464    3    0    3
 -2      4882      4881      3670      3699
 -1     27465    3    0    3
 -2      5719      4398      5912      5019
 -1     27466    3    0    3
 -2      5484      3864      4374      5486
 -1     27467    3    0    3
 -2      3455      5483      3864      5485
 -1     27468    3    0    3
 -2       506        61       798      5486
 -1     27469    3    0    3
 -2      5482      3594      5480      4002
 -1     27470    3    0    3
 -2      4201       588       533      4002
 -1     27471    3    0    3
 -2      2161      6250      6485      5785
 -1     27472    3    0    3
 -2       518      3776       596       632
 -1     27473    3    0    3
 -2      5663      5662      3838      3624
 -1     27474    3    0    3
 -2      5596      4289      5599      4414
 -1     27475    3    0    3
 -2      6192      5661      6272      3545
 -1     27476    3    0    3
 -2      2378      6770      4880      6245
 -1     27477    3    0    3
 -2      3604      5487      3558      4256
 -1     27478    3    0    3
 -2      2444      2629      2600      6770
 -1     27479    3    0    3
 -2      2378      6770      6245      2444
 -1     27480    3    0    3
 -2      4885      4440      3817      6438
 -1     27481    3    0    3
 -2      5494      5493       578       726
 -1     27482    3    0    3
 -2      3864      3604      5446      4256
 -1     27483    3    0    3
 -2        44      5619       499       545
 -1     27484    3    0    3
 -2      3896      6418      5300      6197
 -1     27485    3    0    3
 -2      3828       587      4085      4278
 -1     27486    3    0    3
 -2      5437      3785      4873      3729
 -1     27487    3    0    3
 -2      3785      4879      4873      3729
 -1     27488    3    0    3
 -2      1581      1609      1501      6082
 -1     27489    3    0    3
 -2      3699      3753      5445      5443
 -1     27490    3    0    3
 -2      5443      1501      1351      1459
 -1     27491    3    0    3
 -2      1084      6092      1145      1313
 -1     27492    3    0    3
 -2       174      3302       175       658
 -1     27493    3    0    3
 -2      3753      4879      3785      5443
 -1     27494    3    0    3
 -2      1428      5447      1376      6256
 -1     27495    3    0    3
 -2      5461      4897      3458      3518
 -1     27496    3    0    3
 -2      3757      5997      5323      4275
 -1     27497    3    0    3
 -2      1776      6577      1944      1943
 -1     27498    3    0    3
 -2      3518      4899      4886      6268
 -1     27499    3    0    3
 -2      2204      2368      2317      6268
 -1     27500    3    0    3
 -2      6272      6192      5344      6265
 -1     27501    3    0    3
 -2      6283       798      5486      5489
 -1     27502    3    0    3
 -2      1351      5443      1459      6280
 -1     27503    3    0    3
 -2      3699      5446      3636      5444
 -1     27504    3    0    3
 -2      3896      6418      6779      5297
 -1     27505    3    0    3
 -2      1530      1612      6105      6107
 -1     27506    3    0    3
 -2      3577      3612      4883      5447
 -1     27507    3    0    3
 -2      3675      4883      3612      5447
 -1     27508    3    0    3
 -2      3300      3301      4781      5661
 -1     27509    3    0    3
 -2      3518      3550      4884      5448
 -1     27510    3    0    3
 -2      1460      5444      6280      6287
 -1     27511    3    0    3
 -2      3636      5449      4885      3577
 -1     27512    3    0    3
 -2      4286      4440      4924      3901
 -1     27513    3    0    3
 -2      3793      4029      4061      5492
 -1     27514    3    0    3
 -2      5449      3544      3577      5450
 -1     27515    3    0    3
 -2      5450      3484      5463      3662
 -1     27516    3    0    3
 -2      3577      3518      4884      5448
 -1     27517    3    0    3
 -2      5441      1530      6105      6107
 -1     27518    3    0    3
 -2        64      5481       571       613
 -1     27519    3    0    3
 -2      3675      3612      5441      5447
 -1     27520    3    0    3
 -2      3675      3636      4883      5447
 -1     27521    3    0    3
 -2      3943      3578      3609      5273
 -1     27522    3    0    3
 -2      5491      3793      5492      4340
 -1     27523    3    0    3
 -2      4930      4929      4061      3514
 -1     27524    3    0    3
 -2      3484      4381      4930      3514
 -1     27525    3    0    3
 -2      4929      4930      4381      3514
 -1     27526    3    0    3
 -2      4381      3544      4929      3514
 -1     27527    3    0    3
 -2      3544      4381      4886      3514
 -1     27528    3    0    3
 -2      3484      4886      4381      3514
 -1     27529    3    0    3
 -2      4029      3484      4930      5492
 -1     27530    3    0    3
 -2      4029      4930      4061      5492
 -1     27531    3    0    3
 -2      4930      3484      3514      5492
 -1     27532    3    0    3
 -2      4061      4930      3514      5492
 -1     27533    3    0    3
 -2       524      3486      4003      5495
 -1     27534    3    0    3
 -2      4003      4933      4029      5495
 -1     27535    3    0    3
 -2      3456      4933      4003      5495
 -1     27536    3    0    3
 -2      4193       524      4029      5495
 -1     27537    3    0    3
 -2      4193      3486       524      5495
 -1     27538    3    0    3
 -2      3514      3544      4929      5491
 -1     27539    3    0    3
 -2      4061      3793      5492      5491
 -1     27540    3    0    3
 -2      3514      4061      5492      5491
 -1     27541    3    0    3
 -2      5491      3514      3544      4340
 -1     27542    3    0    3
 -2      3309      3291      3289      5344
 -1     27543    3    0    3
 -2       686      6228      6277      6314
 -1     27544    3    0    3
 -2      2730      1782       386      1783
 -1     27545    3    0    3
 -2      2730      1782      2731       386
 -1     27546    3    0    3
 -2      5449      3574      3544      3558
 -1     27547    3    0    3
 -2      3313      1711      4015      1800
 -1     27548    3    0    3
 -2      5489       506       798      5486
 -1     27549    3    0    3
 -2       689      3927      6207       866
 -1     27550    3    0    3
 -2      4782      5925      6104      5945
 -1     27551    3    0    3
 -2      5925      4782      6104      5892
 -1     27552    3    0    3
 -2      5487      4112      3574      5488
 -1     27553    3    0    3
 -2      5487      4101      4112      5488
 -1     27554    3    0    3
 -2       464      3301      5941      6272
 -1     27555    3    0    3
 -2      3301      5661      5941      6272
 -1     27556    3    0    3
 -2      6218      1081      1163      6342
 -1     27557    3    0    3
 -2      4307       940       685      5440
 -1     27558    3    0    3
 -2      3486       515      5498      5497
 -1     27559    3    0    3
 -2      5497       515      5498       745
 -1     27560    3    0    3
 -2      5365      5355      1022      5968
 -1     27561    3    0    3
 -2       625      4193      5494      5497
 -1     27562    3    0    3
 -2      4193       515      3486      5497
 -1     27563    3    0    3
 -2      3486      4066      5495      5497
 -1     27564    3    0    3
 -2      3700      4374       532      5486
 -1     27565    3    0    3
 -2      5719      4398      5019      4369
 -1     27566    3    0    3
 -2      1376      1377      1428      6256
 -1     27567    3    0    3
 -2      3558      5487      5489      4256
 -1     27568    3    0    3
 -2      5924      2309      2053      6737
 -1     27569    3    0    3
 -2      5488      5487      4101      3558
 -1     27570    3    0    3
 -2       625       745      5497       830
 -1     27571    3    0    3
 -2      4101      5489      5490      3558
 -1     27572    3    0    3
 -2      3558      5449      3604      4256
 -1     27573    3    0    3
 -2      6305      5335      5333      6310
 -1     27574    3    0    3
 -2      1227       932      5449       947
 -1     27575    3    0    3
 -2      5346      6228      2842      6274
 -1     27576    3    0    3
 -2      3301       465      3292      6272
 -1     27577    3    0    3
 -2         8       259       792       467
 -1     27578    3    0    3
 -2      6255      5941      5943      4782
 -1     27579    3    0    3
 -2      5943      2829      2875      5940
 -1     27580    3    0    3
 -2       798      5489       932       663
 -1     27581    3    0    3
 -2      1163      5450      6218      6342
 -1     27582    3    0    3
 -2      5497      5495      4193      3662
 -1     27583    3    0    3
 -2      4193      5492      5494      3662
 -1     27584    3    0    3
 -2      2875      2841      2863      5943
 -1     27585    3    0    3
 -2      5493      4468      5490      3967
 -1     27586    3    0    3
 -2      3532      4234      5332      6284
 -1     27587    3    0    3
 -2      5490      5488      3558      3967
 -1     27588    3    0    3
 -2      5492      3484      3514      4340
 -1     27589    3    0    3
 -2      3484      5450      3514      4340
 -1     27590    3    0    3
 -2      4340      5494      5492      3662
 -1     27591    3    0    3
 -2      4340      5492      3484      3662
 -1     27592    3    0    3
 -2      5346      6228      6274      5345
 -1     27593    3    0    3
 -2      3574      5449      3604      3558
 -1     27594    3    0    3
 -2      5489      5487      3700      4256
 -1     27595    3    0    3
 -2      3604      5484      5487      4256
 -1     27596    3    0    3
 -2      5484      3604      3864      4256
 -1     27597    3    0    3
 -2      5488      5491      3544      3967
 -1     27598    3    0    3
 -2      5488      4468      5491      3967
 -1     27599    3    0    3
 -2      5490      4468      5488      3967
 -1     27600    3    0    3
 -2      5491      4468      5493      3967
 -1     27601    3    0    3
 -2      4340      5450      3544      3967
 -1     27602    3    0    3
 -2      5450      5449      3544      3967
 -1     27603    3    0    3
 -2      3612      4884      3550      5448
 -1     27604    3    0    3
 -2      3612      3550      5442      5448
 -1     27605    3    0    3
 -2      5450      3518      3577      5448
 -1     27606    3    0    3
 -2      4782      5661      5892      6737
 -1     27607    3    0    3
 -2      1524      5448      1266      1287
 -1     27608    3    0    3
 -2      5343      1239      5341      5931
 -1     27609    3    0    3
 -2      5418      5424      3792      4420
 -1     27610    3    0    3
 -2      5448      1287      6290      6291
 -1     27611    3    0    3
 -2      5654      2464      5686      2716
 -1     27612    3    0    3
 -2      4772      5925      5945      6253
 -1     27613    3    0    3
 -2      5441      3612      5442      6269
 -1     27614    3    0    3
 -2      1166      1165      5461      6288
 -1     27615    3    0    3
 -2      3291      3311      5344      3292
 -1     27616    3    0    3
 -2      4851      1968      2155      1940
 -1     27617    3    0    3
 -2      2422      2053      2349      5924
 -1     27618    3    0    3
 -2      3753      5412      5414      5824
 -1     27619    3    0    3
 -2      2823       792       259       467
 -1     27620    3    0    3
 -2      1609      5437      5670      6082
 -1     27621    3    0    3
 -2      3558       947      3967      5449
 -1     27622    3    0    3
 -2      1459      5443      1501      5670
 -1     27623    3    0    3
 -2        44      5619       738       737
 -1     27624    3    0    3
 -2      5447      3675      3636      5444
 -1     27625    3    0    3
 -2        44      5619       545       738
 -1     27626    3    0    3
 -2      1341      6190      1469      6002
 -1     27627    3    0    3
 -2      3699      4879      3753      5443
 -1     27628    3    0    3
 -2      1366      1501      1351      5443
 -1     27629    3    0    3
 -2      5943      4783      5940      6274
 -1     27630    3    0    3
 -2       467       792       686      6228
 -1     27631    3    0    3
 -2      5441      3675      5447      6107
 -1     27632    3    0    3
 -2      5447      6107      1430      6269
 -1     27633    3    0    3
 -2      1501      1609      5670      6082
 -1     27634    3    0    3
 -2       791      2842      5346      6226
 -1     27635    3    0    3
 -2      5446      5444      6281      6297
 -1     27636    3    0    3
 -2      3729      5437      3785      5443
 -1     27637    3    0    3
 -2      5670      1459      5443      6280
 -1     27638    3    0    3
 -2      4165      3594      5480      5482
 -1     27639    3    0    3
 -2       729       173       734      6298
 -1     27640    3    0    3
 -2      5947       931       876      6739
 -1     27641    3    0    3
 -2      4778      3513      3572      5341
 -1     27642    3    0    3
 -2      5346      2805      2842      2804
 -1     27643    3    0    3
 -2      5719      4398      5022      5912
 -1     27644    3    0    3
 -2      5486      5489      4256      6283
 -1     27645    3    0    3
 -2       506       532        61      5486
 -1     27646    3    0    3
 -2      1460      1377      5444      1428
 -1     27647    3    0    3
 -2      3577      6256      6290      5447
 -1     27648    3    0    3
 -2      5445      1240      1233      6279
 -1     27649    3    0    3
 -2      6272      6192      6278      5344
 -1     27650    3    0    3
 -2      2309      1917      2117      6737
 -1     27651    3    0    3
 -2       625       745       830        57
 -1     27652    3    0    3
 -2      4090      3901      4112      4926
 -1     27653    3    0    3
 -2      5484      3700      5487      4256
 -1     27654    3    0    3
 -2       532      4374      5485      5486
 -1     27655    3    0    3
 -2       532       506      3700      5486
 -1     27656    3    0    3
 -2       588       531       533      4002
 -1     27657    3    0    3
 -2      5344      3304      3291      3292
 -1     27658    3    0    3
 -2      3578      3795      4781      6260
 -1     27659    3    0    3
 -2      3834       905      5267      4509
 -1     27660    3    0    3
 -2      5485       531       757      5482
 -1     27661    3    0    3
 -2      5480      3594       588      4002
 -1     27662    3    0    3
 -2       175       656       658      6286
 -1     27663    3    0    3
 -2      6277      6228      6278      6314
 -1     27664    3    0    3
 -2      4165      5481      3594      5482
 -1     27665    3    0    3
 -2      3594      5481       571      5482
 -1     27666    3    0    3
 -2      6105      3675      6107      5438
 -1     27667    3    0    3
 -2      5482      5481       571       796
 -1     27668    3    0    3
 -2      6105      3675      5438      3703
 -1     27669    3    0    3
 -2      2318      6249      4883      6266
 -1     27670    3    0    3
 -2      6231      1343      5894      6311
 -1     27671    3    0    3
 -2      4374       533       531      4002
 -1     27672    3    0    3
 -2      5480      3455      5482      4002
 -1     27673    3    0    3
 -2      3455      5485      5482      4002
 -1     27674    3    0    3
 -2      1233      1351      1352      6279
 -1     27675    3    0    3
 -2       521      4915       520      1904
 -1     27676    3    0    3
 -2       470       471      4173      3299
 -1     27677    3    0    3
 -2      6272      6192      3545      6278
 -1     27678    3    0    3
 -2      1233       872       957      6282
 -1     27679    3    0    3
 -2      5670      5443      3729      6280
 -1     27680    3    0    3
 -2       521      4915      1904      4912
 -1     27681    3    0    3
 -2      1351      1233      1240      6279
 -1     27682    3    0    3
 -2      4612      4162      4611      4129
 -1     27683    3    0    3
 -2      6256      1228      1377      6297
 -1     27684    3    0    3
 -2       518      3776      5639       596
 -1     27685    3    0    3
 -2      4322      3943      4154      5275
 -1     27686    3    0    3
 -2      2999      5271      4106       472
 -1     27687    3    0    3
 -2      4106      4207      5272      5269
 -1     27688    3    0    3
 -2      4707      4226      3673      5269
 -1     27689    3    0    3
 -2      5446       871      3864      6283
 -1     27690    3    0    3
 -2      3545      3606      5335      5333
 -1     27691    3    0    3
 -2       464       465      3301      6272
 -1     27692    3    0    3
 -2      1430      1428      1429      6107
 -1     27693    3    0    3
 -2      3943      6738      6284      5333
 -1     27694    3    0    3
 -2       734      4124      4154      5275
 -1     27695    3    0    3
 -2       729       472       173      6298
 -1     27696    3    0    3
 -2      5952      5894      1343      6311
 -1     27697    3    0    3
 -2       625       745       515      5497
 -1     27698    3    0    3
 -2       578       726        59        58
 -1     27699    3    0    3
 -2      5274      3943      4476      5275
 -1     27700    3    0    3
 -2      3729      5670      6287      5438
 -1     27701    3    0    3
 -2      3943      5274      4154      5275
 -1     27702    3    0    3
 -2       175      3289       656      6286
 -1     27703    3    0    3
 -2      4322      3302      4124      6286
 -1     27704    3    0    3
 -2      3309      3302      4322      6286
 -1     27705    3    0    3
 -2      3309      3578      5344      4322
 -1     27706    3    0    3
 -2      4707      4207      4226      5269
 -1     27707    3    0    3
 -2      5445      5443      5824      6279
 -1     27708    3    0    3
 -2       161      5531       851       160
 -1     27709    3    0    3
 -2      1376      1228      1377      6256
 -1     27710    3    0    3
 -2      1352      6279      6280      6281
 -1     27711    3    0    3
 -2      4226      2923      2965      3001
 -1     27712    3    0    3
 -2      3001      4207       471      4106
 -1     27713    3    0    3
 -2      1558      1402      1404      5864
 -1     27714    3    0    3
 -2        64      5481       796       571
 -1     27715    3    0    3
 -2      1361      6256      5447      6290
 -1     27716    3    0    3
 -2      5445      1237      5414      5669
 -1     27717    3    0    3
 -2      6248      1207      1493      6308
 -1     27718    3    0    3
 -2      4900      5464      4449      4478
 -1     27719    3    0    3
 -2      3310      4124       734      5275
 -1     27720    3    0    3
 -2      6579      2317      2368      6268
 -1     27721    3    0    3
 -2      6579      2317      4884      2337
 -1     27722    3    0    3
 -2      5670      3729      6287      6280
 -1     27723    3    0    3
 -2      4476      3943      5273      5275
 -1     27724    3    0    3
 -2      3943      6284      5274      3532
 -1     27725    3    0    3
 -2      1228      1234      1377      6297
 -1     27726    3    0    3
 -2      5444      1352      1460      6280
 -1     27727    3    0    3
 -2      1352      1459      1460      6280
 -1     27728    3    0    3
 -2       656      4124       658      6286
 -1     27729    3    0    3
 -2      2998      5270      5267      4382
 -1     27730    3    0    3
 -2       472         7       212       822
 -1     27731    3    0    3
 -2      5341      5335      3572      5894
 -1     27732    3    0    3
 -2      4162      4612      4611      4354
 -1     27733    3    0    3
 -2       862      6416       972       849
 -1     27734    3    0    3
 -2      6283       798       932       871
 -1     27735    3    0    3
 -2      3943      6738      4154      6284
 -1     27736    3    0    3
 -2      1026      5453      1018      1166
 -1     27737    3    0    3
 -2       466      6314      6228       467
 -1     27738    3    0    3
 -2      6040      2424      2680      2379
 -1     27739    3    0    3
 -2      5450      1163      6218      6291
 -1     27740    3    0    3
 -2      4476      3299       471      3296
 -1     27741    3    0    3
 -2      6309      1659      5858      1663
 -1     27742    3    0    3
 -2       914      1017      5494      6342
 -1     27743    3    0    3
 -2      3310       658       174       734
 -1     27744    3    0    3
 -2      4154      6298       734      5275
 -1     27745    3    0    3
 -2      6218      1267      5461      6091
 -1     27746    3    0    3
 -2      3449      3480      4780      5343
 -1     27747    3    0    3
 -2      4772      3606      3572      5335
 -1     27748    3    0    3
 -2      3606      4772      3545      5335
 -1     27749    3    0    3
 -2      3572      3513      4772      5335
 -1     27750    3    0    3
 -2      3545      4770      3606      5333
 -1     27751    3    0    3
 -2       208      5262       644       643
 -1     27752    3    0    3
 -2       864      1347       889      6277
 -1     27753    3    0    3
 -2      3545      4772      3513      5335
 -1     27754    3    0    3
 -2      1255      1254      1081      6218
 -1     27755    3    0    3
 -2      1232      1287      1163      6291
 -1     27756    3    0    3
 -2      3572      3539      4778      5341
 -1     27757    3    0    3
 -2      5345      3545      3513      5335
 -1     27758    3    0    3
 -2      4154      6298      5274       729
 -1     27759    3    0    3
 -2      4124      4154      1062       734
 -1     27760    3    0    3
 -2      5334      6293      1360      6248
 -1     27761    3    0    3
 -2      1255      1081      1163      6218
 -1     27762    3    0    3
 -2      3661      4774      3695      5337
 -1     27763    3    0    3
 -2      5481       957      5482      4165
 -1     27764    3    0    3
 -2      1365      1502      1532      6043
 -1     27765    3    0    3
 -2      3599      3539      4777      5340
 -1     27766    3    0    3
 -2      1013      5498       710       745
 -1     27767    3    0    3
 -2      5331      5334      6293      6306
 -1     27768    3    0    3
 -2      3539      3572      5340      5341
 -1     27769    3    0    3
 -2      3513      5335      5341      5952
 -1     27770    3    0    3
 -2      3967       947      5490      5493
 -1     27771    3    0    3
 -2      3606      4771      3572      5334
 -1     27772    3    0    3
 -2      3633      3572      4771      5334
 -1     27773    3    0    3
 -2      1017      1081      1013      6302
 -1     27774    3    0    3
 -2      3671      4771      3606      5334
 -1     27775    3    0    3
 -2      3633      4771      3671      5334
 -1     27776    3    0    3
 -2      1751      5816      1954      1953
 -1     27777    3    0    3
 -2       726      5494      5493       914
 -1     27778    3    0    3
 -2       726      5493       947       914
 -1     27779    3    0    3
 -2      5334      3633      3572      5340
 -1     27780    3    0    3
 -2      4777      3572      3633      5340
 -1     27781    3    0    3
 -2      3599      4777      3633      5340
 -1     27782    3    0    3
 -2      1361      6256      1227      1376
 -1     27783    3    0    3
 -2      5761      6240      6239      5543
 -1     27784    3    0    3
 -2      6305      6304      1493      6308
 -1     27785    3    0    3
 -2      3578      4770      3795      6260
 -1     27786    3    0    3
 -2      1361      5447      1524      6290
 -1     27787    3    0    3
 -2      1376      1227      1228      6256
 -1     27788    3    0    3
 -2      1429      1460      1607      6287
 -1     27789    3    0    3
 -2      1287      1524      5448      6290
 -1     27790    3    0    3
 -2      1524      1287      1361      6290
 -1     27791    3    0    3
 -2      4322      3578      5344      6192
 -1     27792    3    0    3
 -2      3577      5449      5450      6290
 -1     27793    3    0    3
 -2      1051      4324      3944      5254
 -1     27794    3    0    3
 -2      1232       914       947      6300
 -1     27795    3    0    3
 -2      1232      1163      5450      6291
 -1     27796    3    0    3
 -2      1227      1361      1232      6290
 -1     27797    3    0    3
 -2      1051      4324      5298      3944
 -1     27798    3    0    3
 -2      1051      4324       952      5298
 -1     27799    3    0    3
 -2      5489       947       663      5490
 -1     27800    3    0    3
 -2      5489       947      3558       932
 -1     27801    3    0    3
 -2      5341      3539      3480      5343
 -1     27802    3    0    3
 -2      5262       929      3740      5263
 -1     27803    3    0    3
 -2      3782      4699      4329      5261
 -1     27804    3    0    3
 -2      5260      4355      3808      5257
 -1     27805    3    0    3
 -2      5946      5329      3671      6293
 -1     27806    3    0    3
 -2      1365      1354      1202      6024
 -1     27807    3    0    3
 -2      1558      1404      5340      5864
 -1     27808    3    0    3
 -2      5299      3780      3808      5328
 -1     27809    3    0    3
 -2      2079      4556      1706      2044
 -1     27810    3    0    3
 -2      5332      4769      3701      3673
 -1     27811    3    0    3
 -2      4504      4899      5463      3458
 -1     27812    3    0    3
 -2      3723      4765      3780      5328
 -1     27813    3    0    3
 -2      5274       822       472      5271
 -1     27814    3    0    3
 -2      5274       822      5271      1031
 -1     27815    3    0    3
 -2      5274       822       729       472
 -1     27816    3    0    3
 -2      5952      6227      6739      5345
 -1     27817    3    0    3
 -2      3754      5328      5329      4142
 -1     27818    3    0    3
 -2      2928      5262      5263       644
 -1     27819    3    0    3
 -2      3671      4768      3633      5331
 -1     27820    3    0    3
 -2      3633      3695      4774      5337
 -1     27821    3    0    3
 -2      3633      4774      3599      5337
 -1     27822    3    0    3
 -2      2514      5910      2719      2662
 -1     27823    3    0    3
 -2      3695      4768      3723      5331
 -1     27824    3    0    3
 -2      3671      3633      5334      5331
 -1     27825    3    0    3
 -2      3671      3723      4768      5331
 -1     27826    3    0    3
 -2      6248      3671      5334      6293
 -1     27827    3    0    3
 -2      1502      1533      1532      6318
 -1     27828    3    0    3
 -2      3808      4736      5299      3832
 -1     27829    3    0    3
 -2      6218      1267      1255      1254
 -1     27830    3    0    3
 -2      1502      1402      1533      6318
 -1     27831    3    0    3
 -2      3695      4773      3661      5336
 -1     27832    3    0    3
 -2      3750      4773      3695      5336
 -1     27833    3    0    3
 -2      1360      1207      1493      6248
 -1     27834    3    0    3
 -2      4297      5263      3605      2928
 -1     27835    3    0    3
 -2      5270      5268      4234      3834
 -1     27836    3    0    3
 -2      2953      5267      4008      4382
 -1     27837    3    0    3
 -2      3661      6043      6354      5337
 -1     27838    3    0    3
 -2      2850      5942      2789      4784
 -1     27839    3    0    3
 -2      5918      4267      5035      5716
 -1     27840    3    0    3
 -2      4804      4803      5934      4441
 -1     27841    3    0    3
 -2      6241      5506      5505      3452
 -1     27842    3    0    3
 -2      3943      6738      5333      4322
 -1     27843    3    0    3
 -2      6324       856       855      1135
 -1     27844    3    0    3
 -2      3671      5329      5331      6293
 -1     27845    3    0    3
 -2      1354      5330      1282      5955
 -1     27846    3    0    3
 -2      3669      2980      2990      2991
 -1     27847    3    0    3
 -2      6284      6248      1207      1038
 -1     27848    3    0    3
 -2      4491      5453      5461      6288
 -1     27849    3    0    3
 -2      6447      1122      6441      5180
 -1     27850    3    0    3
 -2      5259      4048      4411      6037
 -1     27851    3    0    3
 -2      3808      5299      5328      4411
 -1     27852    3    0    3
 -2      3782      5328      4142      3740
 -1     27853    3    0    3
 -2      3740      3808      4411      5260
 -1     27854    3    0    3
 -2      4142      3782      3740      5261
 -1     27855    3    0    3
 -2      4329      2948      5260      4297
 -1     27856    3    0    3
 -2      2063      3712      6721      2250
 -1     27857    3    0    3
 -2      4329      5260      5261      4297
 -1     27858    3    0    3
 -2      4234      5268      3708      5269
 -1     27859    3    0    3
 -2      4106       471      2999       472
 -1     27860    3    0    3
 -2      3834      5270      5268      4382
 -1     27861    3    0    3
 -2      5265      4257      4008      4382
 -1     27862    3    0    3
 -2      3708      5268      4226      5269
 -1     27863    3    0    3
 -2      5271      4234      5270      3708
 -1     27864    3    0    3
 -2      5267      1038       639       904
 -1     27865    3    0    3
 -2      5265      5267      3834      4382
 -1     27866    3    0    3
 -2      2971      4008      2966      3013
 -1     27867    3    0    3
 -2      5265      3834      5268      4382
 -1     27868    3    0    3
 -2      4509      5267      3834      5265
 -1     27869    3    0    3
 -2      3726      4276      5264      5265
 -1     27870    3    0    3
 -2      4008      5267      4509      5265
 -1     27871    3    0    3
 -2      3834      3726      4509      5265
 -1     27872    3    0    3
 -2      3834      3701      3726      5265
 -1     27873    3    0    3
 -2      4699      3754      4702      4306
 -1     27874    3    0    3
 -2      4008      3013      2953      4382
 -1     27875    3    0    3
 -2       640       905      5267       904
 -1     27876    3    0    3
 -2      5264      4702      3754      4306
 -1     27877    3    0    3
 -2      4297      2895      2928      2948
 -1     27878    3    0    3
 -2      5336      3695      5330      6043
 -1     27879    3    0    3
 -2      1088      1202      5329      6024
 -1     27880    3    0    3
 -2      4703      4257      4276      5265
 -1     27881    3    0    3
 -2      4008      4509      5264      5265
 -1     27882    3    0    3
 -2      5264      4276      4008      5265
 -1     27883    3    0    3
 -2      4698      4355      3808      5260
 -1     27884    3    0    3
 -2      5257      5260      4355      3910
 -1     27885    3    0    3
 -2      4698      4329      4355      5260
 -1     27886    3    0    3
 -2      3754      4699      3782      5261
 -1     27887    3    0    3
 -2      5264      4276      4702      4306
 -1     27888    3    0    3
 -2      5262      5263      3740      4297
 -1     27889    3    0    3
 -2      4142      3754      3782      5261
 -1     27890    3    0    3
 -2      4142      3605      5266      5264
 -1     27891    3    0    3
 -2      3605      4008      5266      5264
 -1     27892    3    0    3
 -2      4509      5266      4008      5264
 -1     27893    3    0    3
 -2      5444      5446      3636      6256
 -1     27894    3    0    3
 -2      4509      4142      5266      5264
 -1     27895    3    0    3
 -2      4709       354      3306      3313
 -1     27896    3    0    3
 -2      4256      3558      5449      6283
 -1     27897    3    0    3
 -2      4509      3726      4142      5264
 -1     27898    3    0    3
 -2      3726      4703      4276      5265
 -1     27899    3    0    3
 -2      3808      4048      5299      4411
 -1     27900    3    0    3
 -2      1336      5301      1516      6295
 -1     27901    3    0    3
 -2      1152      1202      1354      5955
 -1     27902    3    0    3
 -2      3754      4142      5264      5261
 -1     27903    3    0    3
 -2      4297      5260      5262      3910
 -1     27904    3    0    3
 -2      5260      3808      4411      5257
 -1     27905    3    0    3
 -2      2948      4355      4329      5260
 -1     27906    3    0    3
 -2      5260      5262      3740      4297
 -1     27907    3    0    3
 -2      5264      4142      3605      5261
 -1     27908    3    0    3
 -2      5267      2953      2998      4382
 -1     27909    3    0    3
 -2      3834      5268      3701      5265
 -1     27910    3    0    3
 -2      5268      4257      3701      5265
 -1     27911    3    0    3
 -2      5261      5263      3605      4297
 -1     27912    3    0    3
 -2      3740      5263      4142      5261
 -1     27913    3    0    3
 -2       932       871      1228      6283
 -1     27914    3    0    3
 -2      4142      5263      3605      5261
 -1     27915    3    0    3
 -2      5489      3558      4256      6283
 -1     27916    3    0    3
 -2      4297      2948      5260      3910
 -1     27917    3    0    3
 -2      3867      4072      5205      4443
 -1     27918    3    0    3
 -2      2971      4306      3605      2936
 -1     27919    3    0    3
 -2       932      3558      5489      6283
 -1     27920    3    0    3
 -2      3558       932      5449      6283
 -1     27921    3    0    3
 -2      4256      3864      5486      6283
 -1     27922    3    0    3
 -2      5446      3864      4256      6283
 -1     27923    3    0    3
 -2      2971      2997      4306      2936
 -1     27924    3    0    3
 -2      1721      4708      4705      2089
 -1     27925    3    0    3
 -2      4503      4699      4702      4306
 -1     27926    3    0    3
 -2      3867      4072      3897      5205
 -1     27927    3    0    3
 -2      4276      4008      2966      2971
 -1     27928    3    0    3
 -2      1721      4708      1722       468
 -1     27929    3    0    3
 -2      2948      4297      2936      2928
 -1     27930    3    0    3
 -2      4276      2997      4306      2971
 -1     27931    3    0    3
 -2      4276      5264      4008      2971
 -1     27932    3    0    3
 -2      5264      3605      4008      2971
 -1     27933    3    0    3
 -2      5497      5494       830      1017
 -1     27934    3    0    3
 -2      5943      2829      5940      4783
 -1     27935    3    0    3
 -2      5481       957      4165       870
 -1     27936    3    0    3
 -2      4306      5264      4276      2971
 -1     27937    3    0    3
 -2      4306      3605      5264      2971
 -1     27938    3    0    3
 -2      5260      2948      4355      3910
 -1     27939    3    0    3
 -2      3636      5447      5444      6256
 -1     27940    3    0    3
 -2      2881      2896      3501      2994
 -1     27941    3    0    3
 -2      3501      2896      3910      2994
 -1     27942    3    0    3
 -2       811       724      1059      5258
 -1     27943    3    0    3
 -2      3904       674      6524      5131
 -1     27944    3    0    3
 -2      3605      5261      4297      2936
 -1     27945    3    0    3
 -2      2927      5263      5266       751
 -1     27946    3    0    3
 -2      4297      3605      2936      2928
 -1     27947    3    0    3
 -2      5266       905       640       751
 -1     27948    3    0    3
 -2      5263       209       751      2927
 -1     27949    3    0    3
 -2      5265      4008      5267      4382
 -1     27950    3    0    3
 -2       957      5482       757       796
 -1     27951    3    0    3
 -2       211      5267       639       640
 -1     27952    3    0    3
 -2      1062      4154      1383      1046
 -1     27953    3    0    3
 -2       472      2999      5271       822
 -1     27954    3    0    3
 -2      3673      4226      5268      5269
 -1     27955    3    0    3
 -2      3673      3532      3637      5269
 -1     27956    3    0    3
 -2      3785      3872      3836      5401
 -1     27957    3    0    3
 -2      5490      5489       507       663
 -1     27958    3    0    3
 -2      3708      4226      3001      5269
 -1     27959    3    0    3
 -2      3708      3001      3013      2999
 -1     27960    3    0    3
 -2      6249      2318      4883      6208
 -1     27961    3    0    3
 -2      5275      3310      3308      3296
 -1     27962    3    0    3
 -2      4322      3310      5275      4124
 -1     27963    3    0    3
 -2      4711      4173      5273      3303
 -1     27964    3    0    3
 -2      4711      3307      4173      3303
 -1     27965    3    0    3
 -2      4173      3307      3299      3303
 -1     27966    3    0    3
 -2      5328      6037      5299      6301
 -1     27967    3    0    3
 -2      5273      4173      3299      3303
 -1     27968    3    0    3
 -2      2965      4226      3001      3708
 -1     27969    3    0    3
 -2      3001      3013      2965      3708
 -1     27970    3    0    3
 -2      6279      5445      5443      6281
 -1     27971    3    0    3
 -2      1352      1233      6279      6281
 -1     27972    3    0    3
 -2      5445      3699      5443      6281
 -1     27973    3    0    3
 -2      6280      5444      1352      6281
 -1     27974    3    0    3
 -2      1240       870      5445       957
 -1     27975    3    0    3
 -2      3998       340      3394      1718
 -1     27976    3    0    3
 -2      2365      6618      4617      6594
 -1     27977    3    0    3
 -2      4165      5445       870       957
 -1     27978    3    0    3
 -2      3864      3455      5485      6282
 -1     27979    3    0    3
 -2       957      5482      4165      6282
 -1     27980    3    0    3
 -2      5444      3699      5446      6281
 -1     27981    3    0    3
 -2      3708      5268      5270      4382
 -1     27982    3    0    3
 -2       798       871      5486       758
 -1     27983    3    0    3
 -2      4706      2910      4024      4448
 -1     27984    3    0    3
 -2      4234      3673      5268      5269
 -1     27985    3    0    3
 -2      5271      5274      3532      4106
 -1     27986    3    0    3
 -2      5274      5272      3532      4106
 -1     27987    3    0    3
 -2      6231      1343      1494      1404
 -1     27988    3    0    3
 -2        64       571       796        63
 -1     27989    3    0    3
 -2      4322      3310      3302      3308
 -1     27990    3    0    3
 -2      3943      5272      5274      4476
 -1     27991    3    0    3
 -2      4106      3001      4207      5269
 -1     27992    3    0    3
 -2      3708      3001      4106      5269
 -1     27993    3    0    3
 -2      5271      3708      4106      5269
 -1     27994    3    0    3
 -2      3532      5271      4106      5269
 -1     27995    3    0    3
 -2      3708      5271      4234      5269
 -1     27996    3    0    3
 -2      3532      4234      5271      5269
 -1     27997    3    0    3
 -2      6276      6286      4322      4124
 -1     27998    3    0    3
 -2      4106      5274      5272      4476
 -1     27999    3    0    3
 -2      3299       471      4173      4476
 -1     28000    3    0    3
 -2      5487      5484       554      3700
 -1     28001    3    0    3
 -2      4173      5273      3299      4476
 -1     28002    3    0    3
 -2      4173      5272      5273      4476
 -1     28003    3    0    3
 -2       571      4285       626       613
 -1     28004    3    0    3
 -2      3708      2998      4382      5270
 -1     28005    3    0    3
 -2      3708      2998      2999      3013
 -1     28006    3    0    3
 -2      3708      2998      5270      2999
 -1     28007    3    0    3
 -2      4297      5262      5263      2928
 -1     28008    3    0    3
 -2      2971      3605      4008      2927
 -1     28009    3    0    3
 -2      5266      5267      4008      2953
 -1     28010    3    0    3
 -2      3310       658      4124      3302
 -1     28011    3    0    3
 -2      3001      3708      4106      2999
 -1     28012    3    0    3
 -2       729      5274       472      6298
 -1     28013    3    0    3
 -2      4106      5271      5274       472
 -1     28014    3    0    3
 -2      4753      4749      3582      3800
 -1     28015    3    0    3
 -2      3292      6265      3301      6272
 -1     28016    3    0    3
 -2      5270      5271      3708      2999
 -1     28017    3    0    3
 -2       211      5267      2998       639
 -1     28018    3    0    3
 -2      4476      4106      5274       472
 -1     28019    3    0    3
 -2       471      4476      3296       472
 -1     28020    3    0    3
 -2      4476       471      4106       472
 -1     28021    3    0    3
 -2      3661      6043      5337      3695
 -1     28022    3    0    3
 -2      5274       822      1031       729
 -1     28023    3    0    3
 -2       788      5293      4058       964
 -1     28024    3    0    3
 -2      3013      2971      4008      2953
 -1     28025    3    0    3
 -2       211      5267       640      2953
 -1     28026    3    0    3
 -2      3867      4072      4443      5199
 -1     28027    3    0    3
 -2      3867      4072      5199      3897
 -1     28028    3    0    3
 -2       788      5293       964       787
 -1     28029    3    0    3
 -2      3501      5257      4380      2994
 -1     28030    3    0    3
 -2      2953      5266      5267       640
 -1     28031    3    0    3
 -2      3292      6265      3304      3301
 -1     28032    3    0    3
 -2       905      5267      5266       640
 -1     28033    3    0    3
 -2      3013      4008      2966      4382
 -1     28034    3    0    3
 -2      2966      4008      4257      4382
 -1     28035    3    0    3
 -2      5265      5268      4257      4382
 -1     28036    3    0    3
 -2      3967      4340      5450      6300
 -1     28037    3    0    3
 -2      5267      1038       904      3834
 -1     28038    3    0    3
 -2      4706      2910      2965      4024
 -1     28039    3    0    3
 -2      3708      3013      2965      4382
 -1     28040    3    0    3
 -2      1014      5464      3762      6244
 -1     28041    3    0    3
 -2      4706      2910      4448      4257
 -1     28042    3    0    3
 -2      2928      5263      3605      2927
 -1     28043    3    0    3
 -2      3605      5263      5266      2927
 -1     28044    3    0    3
 -2      4008      5266      2953      2927
 -1     28045    3    0    3
 -2      4008      3605      5266      2927
 -1     28046    3    0    3
 -2      5329      1202       905      6303
 -1     28047    3    0    3
 -2       644      5262      5263       929
 -1     28048    3    0    3
 -2      6037       643      5259      1058
 -1     28049    3    0    3
 -2      5449       947      3967      6300
 -1     28050    3    0    3
 -2      4048      1058      5299      6037
 -1     28051    3    0    3
 -2       751      5266       905      1061
 -1     28052    3    0    3
 -2      5254       204       735       743
 -1     28053    3    0    3
 -2      4475      4435      3762      5464
 -1     28054    3    0    3
 -2      4048      4411      5257      5259
 -1     28055    3    0    3
 -2       208       644      2928       209
 -1     28056    3    0    3
 -2       120      4058      3252      3228
 -1     28057    3    0    3
 -2      3495      3255      4727      3462
 -1     28058    3    0    3
 -2       751      5263      5266      1061
 -1     28059    3    0    3
 -2      4711      3295      3795      3294
 -1     28060    3    0    3
 -2      2895       643       208       207
 -1     28061    3    0    3
 -2       734       174      3310       173
 -1     28062    3    0    3
 -2      3541       619      3765       615
 -1     28063    3    0    3
 -2      1031      1038      5271      6284
 -1     28064    3    0    3
 -2      6447      1122      1004      1096
 -1     28065    3    0    3
 -2      3489      5720      5140      4437
 -1     28066    3    0    3
 -2       209       751      2927       210
 -1     28067    3    0    3
 -2       211      2998       212       639
 -1     28068    3    0    3
 -2       212      2999       472       822
 -1     28069    3    0    3
 -2       210       640      2953       211
 -1     28070    3    0    3
 -2      3292      6265      5344      3304
 -1     28071    3    0    3
 -2      3785      3872      5401      3810
 -1     28072    3    0    3
 -2       571      4285       613      5481
 -1     28073    3    0    3
 -2      1038      5332      4234      6284
 -1     28074    3    0    3
 -2      5481       957       796      5482
 -1     28075    3    0    3
 -2      1524      5448      5447      6269
 -1     28076    3    0    3
 -2      3310       658       734      4124
 -1     28077    3    0    3
 -2      3292      6265      6272      5344
 -1     28078    3    0    3
 -2      5270      2998      5267       639
 -1     28079    3    0    3
 -2      2850      5942      5940      2829
 -1     28080    3    0    3
 -2      5952      6227       931      6739
 -1     28081    3    0    3
 -2      1088       904      1089      5946
 -1     28082    3    0    3
 -2      1031      1207      1038      6284
 -1     28083    3    0    3
 -2      1031      1383      1207      6284
 -1     28084    3    0    3
 -2      3661      6043      3695      5336
 -1     28085    3    0    3
 -2        57       515       745        56
 -1     28086    3    0    3
 -2      5332      5333      3532      6284
 -1     28087    3    0    3
 -2      1062      4124       734       658
 -1     28088    3    0    3
 -2      4142      5328      5329      6303
 -1     28089    3    0    3
 -2      4297      2895      2948      3910
 -1     28090    3    0    3
 -2      5307      1577      1576      6237
 -1     28091    3    0    3
 -2        57       830       625        58
 -1     28092    3    0    3
 -2      5761      6240      1073      6239
 -1     28093    3    0    3
 -2      5333      6276      6738      6310
 -1     28094    3    0    3
 -2      5958      3671      3633      4771
 -1     28095    3    0    3
 -2      5259      1058      4048      6037
 -1     28096    3    0    3
 -2      6399      6301      1291      1282
 -1     28097    3    0    3
 -2      4133      4306      4503      2997
 -1     28098    3    0    3
 -2      5334      1494      1403      6231
 -1     28099    3    0    3
 -2      6327      4441      5361      4467
 -1     28100    3    0    3
 -2      5450       914      4340      6342
 -1     28101    3    0    3
 -2      3967      5450      5449      6300
 -1     28102    3    0    3
 -2      3581      4876      4878      3641
 -1     28103    3    0    3
 -2       914      5450      4340      6300
 -1     28104    3    0    3
 -2      1163      1232      5450       914
 -1     28105    3    0    3
 -2      1061      5955      5328      6303
 -1     28106    3    0    3
 -2      1061      5955      6303      1202
 -1     28107    3    0    3
 -2      6685      6106      2487      2530
 -1     28108    3    0    3
 -2      5448      1524      5447      6290
 -1     28109    3    0    3
 -2      5609       502      4217      3684
 -1     28110    3    0    3
 -2      4297      2895      5262      2928
 -1     28111    3    0    3
 -2      1202      1061       905      6303
 -1     28112    3    0    3
 -2       929      5955      1153      5328
 -1     28113    3    0    3
 -2      5494       726       830       914
 -1     28114    3    0    3
 -2      6218      5450      5463      6342
 -1     28115    3    0    3
 -2      5450      4340      3662      6342
 -1     28116    3    0    3
 -2      4142      5329      4509      6303
 -1     28117    3    0    3
 -2      4340      5493       914      6300
 -1     28118    3    0    3
 -2      1563      6389      1576      1416
 -1     28119    3    0    3
 -2      5263       209       644       751
 -1     28120    3    0    3
 -2      5360      6317      5362      4490
 -1     28121    3    0    3
 -2      6284      6248      1038      5332
 -1     28122    3    0    3
 -2      6284      6248      6308      1207
 -1     28123    3    0    3
 -2      5263       209      2927      2928
 -1     28124    3    0    3
 -2      1153      1152      1282      5955
 -1     28125    3    0    3
 -2      1578      1649      1576      6237
 -1     28126    3    0    3
 -2      5336      5307      6237      6399
 -1     28127    3    0    3
 -2      6046      3678      6044      4741
 -1     28128    3    0    3
 -2      1013      5497      5498       745
 -1     28129    3    0    3
 -2      3584      6741      6009      5691
 -1     28130    3    0    3
 -2      6037      1205      5299      6301
 -1     28131    3    0    3
 -2      5330      1534      1354      1282
 -1     28132    3    0    3
 -2      1291      1577      5301      6399
 -1     28133    3    0    3
 -2      5301      1516      6021      6424
 -1     28134    3    0    3
 -2      1526      1400      6035      6418
 -1     28135    3    0    3
 -2       816      6241      5502       955
 -1     28136    3    0    3
 -2      1578      5336      1650      6307
 -1     28137    3    0    3
 -2      1563      6389      1416      5306
 -1     28138    3    0    3
 -2      6036      1623      1435      1536
 -1     28139    3    0    3
 -2      2914      1853       439       440
 -1     28140    3    0    3
 -2      5489       947       932       663
 -1     28141    3    0    3
 -2       618      5502       711        54
 -1     28142    3    0    3
 -2      6231      5334      1494      6311
 -1     28143    3    0    3
 -2      3729      3675      6287      5444
 -1     28144    3    0    3
 -2       931      5947      5952      6739
 -1     28145    3    0    3
 -2      6235      1209      5463      6244
 -1     28146    3    0    3
 -2      3662      4340      5494      6342
 -1     28147    3    0    3
 -2      5340      3539      5341      5931
 -1     28148    3    0    3
 -2      5960      1533      1558      6318
 -1     28149    3    0    3
 -2      6399      6301      5330      5301
 -1     28150    3    0    3
 -2      1502      5331      1365      1326
 -1     28151    3    0    3
 -2      1014      1013      1209      6244
 -1     28152    3    0    3
 -2      5946      3671      5332      6248
 -1     28153    3    0    3
 -2      6318      1533      1532      6354
 -1     28154    3    0    3
 -2      5334      3671      5331      6293
 -1     28155    3    0    3
 -2      1343      1382      1404      5894
 -1     28156    3    0    3
 -2      5346      2804       761      6316
 -1     28157    3    0    3
 -2      5267      1038      3834      5270
 -1     28158    3    0    3
 -2      6228      1047      6227       792
 -1     28159    3    0    3
 -2      6024      5331      5329      6293
 -1     28160    3    0    3
 -2      5299      3869      4736      3831
 -1     28161    3    0    3
 -2      6329      5639       974      3946
 -1     28162    3    0    3
 -2      6248      5946      3671      6293
 -1     28163    3    0    3
 -2      1494      5334      1403      1360
 -1     28164    3    0    3
 -2      3943      6284      3532      5333
 -1     28165    3    0    3
 -2      6304      1493      1348      6305
 -1     28166    3    0    3
 -2      6241      6324      1126       856
 -1     28167    3    0    3
 -2      1383      1348      1493      6305
 -1     28168    3    0    3
 -2      6399      6301      5301      1291
 -1     28169    3    0    3
 -2      5333      3606      5335      6308
 -1     28170    3    0    3
 -2      1014      1209      1099      6244
 -1     28171    3    0    3
 -2      5960      6318      6354      1533
 -1     28172    3    0    3
 -2      1493      1344      1494      6311
 -1     28173    3    0    3
 -2      4435      3762      5464      6244
 -1     28174    3    0    3
 -2      4709       354      6263      3306
 -1     28175    3    0    3
 -2      3943      6284      4154      5274
 -1     28176    3    0    3
 -2       177      3311       467      6314
 -1     28177    3    0    3
 -2      4770      3578      6192      6260
 -1     28178    3    0    3
 -2       889       656       657      6276
 -1     28179    3    0    3
 -2      5940      3480      5707      4784
 -1     28180    3    0    3
 -2      5344      3305      3304      6265
 -1     28181    3    0    3
 -2       905      5946      3834       904
 -1     28182    3    0    3
 -2      5502       618       628        54
 -1     28183    3    0    3
 -2      3578      4322      5333      6192
 -1     28184    3    0    3
 -2      3577      6256      3636      5449
 -1     28185    3    0    3
 -2        56      5498       745       710
 -1     28186    3    0    3
 -2      5980      5341      3480      5343
 -1     28187    3    0    3
 -2      5661      3301      4781      6265
 -1     28188    3    0    3
 -2      6217      4704      4705      2113
 -1     28189    3    0    3
 -2      6276      6286      5344      4322
 -1     28190    3    0    3
 -2      6276      6286       656      5344
 -1     28191    3    0    3
 -2       905      5946       904      1088
 -1     28192    3    0    3
 -2       177       686       657      6314
 -1     28193    3    0    3
 -2      1045      1348      1383      6305
 -1     28194    3    0    3
 -2      3577      6256      5447      3636
 -1     28195    3    0    3
 -2        56      5498       516       515
 -1     28196    3    0    3
 -2      3572      5334      5340      5894
 -1     28197    3    0    3
 -2      3572      5335      5334      5894
 -1     28198    3    0    3
 -2       955      1126       856      6241
 -1     28199    3    0    3
 -2      5980      5341      5957      3480
 -1     28200    3    0    3
 -2       792       931      1047      6227
 -1     28201    3    0    3
 -2      6236      6339      1208      5462
 -1     28202    3    0    3
 -2      6104      1966      1738      4783
 -1     28203    3    0    3
 -2      5348      1538      5349      6355
 -1     28204    3    0    3
 -2      5341      5952      1343      5947
 -1     28205    3    0    3
 -2      6104      1966      5945      2056
 -1     28206    3    0    3
 -2       919       698       699      5347
 -1     28207    3    0    3
 -2      6329      5639      3946      4326
 -1     28208    3    0    3
 -2       710      5501      1014       711
 -1     28209    3    0    3
 -2      6228      6272      5345      6278
 -1     28210    3    0    3
 -2      5502       955       711       816
 -1     28211    3    0    3
 -2      5997       112       684       687
 -1     28212    3    0    3
 -2      6364      1433      1306      5352
 -1     28213    3    0    3
 -2       259       791      2842       260
 -1     28214    3    0    3
 -2       177       467         8       686
 -1     28215    3    0    3
 -2        54      5502       711       816
 -1     28216    3    0    3
 -2      5335      3545      5333      6310
 -1     28217    3    0    3
 -2       792         8       467       686
 -1     28218    3    0    3
 -2      6277      6276       657      6314
 -1     28219    3    0    3
 -2      3834       905       904      5267
 -1     28220    3    0    3
 -2      3290      3289       656       176
 -1     28221    3    0    3
 -2       657      3290       656       176
 -1     28222    3    0    3
 -2      3289       175       656       176
 -1     28223    3    0    3
 -2       711      5501       618        55
 -1     28224    3    0    3
 -2       516       618      5501        55
 -1     28225    3    0    3
 -2       711       710      5501        55
 -1     28226    3    0    3
 -2       710       516      5501        55
 -1     28227    3    0    3
 -2      3290       657       177       176
 -1     28228    3    0    3
 -2       658      3302       175      6286
 -1     28229    3    0    3
 -2      4154      6298      5275      5274
 -1     28230    3    0    3
 -2       472      3296       173      6298
 -1     28231    3    0    3
 -2       830      5497      1017       745
 -1     28232    3    0    3
 -2      1013      1017      5497       745
 -1     28233    3    0    3
 -2       734      4154      1062      1046
 -1     28234    3    0    3
 -2      6741      3584      3616      5515
 -1     28235    3    0    3
 -2      6235      1081      5463      1209
 -1     28236    3    0    3
 -2       762      5607       858       832
 -1     28237    3    0    3
 -2       729      4154       734      1046
 -1     28238    3    0    3
 -2      1062      1045      4124       658
 -1     28239    3    0    3
 -2      4124      1045       656       658
 -1     28240    3    0    3
 -2       472         7       729       173
 -1     28241    3    0    3
 -2      1038      6248      5946      5332
 -1     28242    3    0    3
 -2      3869      3832      4694      5256
 -1     28243    3    0    3
 -2      3599      6736      5340      5960
 -1     28244    3    0    3
 -2      1239      1131      5341      1382
 -1     28245    3    0    3
 -2      1336      1114      1205      6295
 -1     28246    3    0    3
 -2      3925      4733      3984      5296
 -1     28247    3    0    3
 -2      3625      4786      3567      5349
 -1     28248    3    0    3
 -2      5307      3717      5336      6237
 -1     28249    3    0    3
 -2      5354      4791      3478      3446
 -1     28250    3    0    3
 -2       723      2791       264       718
 -1     28251    3    0    3
 -2       952      1186      1051      5298
 -1     28252    3    0    3
 -2      5251      4479      3009      5254
 -1     28253    3    0    3
 -2      5935      4441      4804      5933
 -1     28254    3    0    3
 -2      1534      5336      1650      1578
 -1     28255    3    0    3
 -2      2858       261       698       262
 -1     28256    3    0    3
 -2      5347       698      2858      6316
 -1     28257    3    0    3
 -2      5980      6319      6759      3449
 -1     28258    3    0    3
 -2      6692      1677      5775      6334
 -1     28259    3    0    3
 -2      4786      4785      3625      5664
 -1     28260    3    0    3
 -2      1436      1390      5360      5983
 -1     28261    3    0    3
 -2      1115      1116      1371      5835
 -1     28262    3    0    3
 -2      5351      3534      5354      3504
 -1     28263    3    0    3
 -2      1371      1115      5835      6363
 -1     28264    3    0    3
 -2       261       260      2804       761
 -1     28265    3    0    3
 -2      5791      3355      3345      4974
 -1     28266    3    0    3
 -2      5957      3480      5346      6352
 -1     28267    3    0    3
 -2      2804       260       791       761
 -1     28268    3    0    3
 -2      5353      4497      4790      3449
 -1     28269    3    0    3
 -2       261      2858       698      6316
 -1     28270    3    0    3
 -2       261      2804      2858      6316
 -1     28271    3    0    3
 -2      1140      5430      4392      5424
 -1     28272    3    0    3
 -2      6740      4370      5468      4424
 -1     28273    3    0    3
 -2      1842      4028      4693      1973
 -1     28274    3    0    3
 -2       762      5607       832       601
 -1     28275    3    0    3
 -2      5465       946      1177       866
 -1     28276    3    0    3
 -2      1787      6046      4729      1788
 -1     28277    3    0    3
 -2      5864      1403      1402      1404
 -1     28278    3    0    3
 -2      6383      6240       975      1073
 -1     28279    3    0    3
 -2      5349      5339      3625      6355
 -1     28280    3    0    3
 -2      6237      6307      5336      1578
 -1     28281    3    0    3
 -2      6239      5468      5543      6240
 -1     28282    3    0    3
 -2       762      5509       728       857
 -1     28283    3    0    3
 -2      1622      5338      1541      1649
 -1     28284    3    0    3
 -2      3539      5340      5342      5931
 -1     28285    3    0    3
 -2      3475      5362      5360      6663
 -1     28286    3    0    3
 -2      6316       698       761      6352
 -1     28287    3    0    3
 -2      1537      5348      1562      1538
 -1     28288    3    0    3
 -2      3244      4634      3975      3158
 -1     28289    3    0    3
 -2      2705      2558      2559      5996
 -1     28290    3    0    3
 -2      5935      4441      5933      4800
 -1     28291    3    0    3
 -2      6228      1047      5345      6227
 -1     28292    3    0    3
 -2      4736      3808      5299      3780
 -1     28293    3    0    3
 -2      5340      1558      5864      5960
 -1     28294    3    0    3
 -2       728        52       547        51
 -1     28295    3    0    3
 -2      3508      5342      3567      5352
 -1     28296    3    0    3
 -2      4789      3508      3567      5352
 -1     28297    3    0    3
 -2      4461      3788      5316      5313
 -1     28298    3    0    3
 -2      1535      1433      5352      1306
 -1     28299    3    0    3
 -2      5329      3701      4766      3726
 -1     28300    3    0    3
 -2      1115      1371      1257      6363
 -1     28301    3    0    3
 -2      3449      5956      4784      3480
 -1     28302    3    0    3
 -2       762        51       601        50
 -1     28303    3    0    3
 -2      5683      6763      6368      1641
 -1     28304    3    0    3
 -2      6716      6705      4875      2254
 -1     28305    3    0    3
 -2      1542      1544      5356      1543
 -1     28306    3    0    3
 -2      1537      5350      1544      1543
 -1     28307    3    0    3
 -2      4164      3986      3951      4649
 -1     28308    3    0    3
 -2      1373      1300      1221      5846
 -1     28309    3    0    3
 -2      5510      5509       601       762
 -1     28310    3    0    3
 -2      5355      5361      4467      6327
 -1     28311    3    0    3
 -2      4792      3478      4791      3446
 -1     28312    3    0    3
 -2      5363      4465      5570      5846
 -1     28313    3    0    3
 -2      5012      2396      5913      2334
 -1     28314    3    0    3
 -2      5566      5569      4520      6321
 -1     28315    3    0    3
 -2      6121      4781      3300      3298
 -1     28316    3    0    3
 -2       816      5505       825        53
 -1     28317    3    0    3
 -2       816       628      5505        53
 -1     28318    3    0    3
 -2        54       628       816        53
 -1     28319    3    0    3
 -2      5355      1103      1370      1130
 -1     28320    3    0    3
 -2      4499      4993      5560      3453
 -1     28321    3    0    3
 -2      5509      6324      5506       855
 -1     28322    3    0    3
 -2       905      5946      5329      3834
 -1     28323    3    0    3
 -2      6242       855      1137      6324
 -1     28324    3    0    3
 -2      5356      1544      5350      1543
 -1     28325    3    0    3
 -2      2792      2879      2791      5984
 -1     28326    3    0    3
 -2       830       578        58       726
 -1     28327    3    0    3
 -2      5806      4428      5576      5852
 -1     28328    3    0    3
 -2       857       762      5510       858
 -1     28329    3    0    3
 -2      5607       832       975       858
 -1     28330    3    0    3
 -2      3596      5350      4787      3562
 -1     28331    3    0    3
 -2       762      5607       601      5510
 -1     28332    3    0    3
 -2      1139      6239      6240      6242
 -1     28333    3    0    3
 -2      5468      3556      5543      6240
 -1     28334    3    0    3
 -2      5607      4517      3556      6240
 -1     28335    3    0    3
 -2      3556      4517      5543      6240
 -1     28336    3    0    3
 -2      3556      5510      6240      6242
 -1     28337    3    0    3
 -2      4263      3246      4275      5322
 -1     28338    3    0    3
 -2      6240      6239      5468      6242
 -1     28339    3    0    3
 -2      1543      1542      1304      5325
 -1     28340    3    0    3
 -2      5509      6324       855      6242
 -1     28341    3    0    3
 -2      3588      4793      5356      3531
 -1     28342    3    0    3
 -2      5506       825       728       855
 -1     28343    3    0    3
 -2       857      5509       728       855
 -1     28344    3    0    3
 -2      5510      3556      4252      6242
 -1     28345    3    0    3
 -2      1441      5356      1544      6020
 -1     28346    3    0    3
 -2      6396      6390      6401       948
 -1     28347    3    0    3
 -2       905      5946      1088      5329
 -1     28348    3    0    3
 -2      4263      3246      5322      4760
 -1     28349    3    0    3
 -2       515      3894       516       517
 -1     28350    3    0    3
 -2      5468      4424      5467      6740
 -1     28351    3    0    3
 -2      4019       582       550       551
 -1     28352    3    0    3
 -2      4463      3956      4760      3738
 -1     28353    3    0    3
 -2       301      4729      1787      6056
 -1     28354    3    0    3
 -2      6237      6307      1649      5338
 -1     28355    3    0    3
 -2       975      4517      5607      6240
 -1     28356    3    0    3
 -2       795      5669       870      5481
 -1     28357    3    0    3
 -2       975       858      1073      6240
 -1     28358    3    0    3
 -2      5510      5607      3556      6240
 -1     28359    3    0    3
 -2       975      5607       858      6240
 -1     28360    3    0    3
 -2      4755      2074      2171      2188
 -1     28361    3    0    3
 -2      3227       113       687      5323
 -1     28362    3    0    3
 -2      1370      5355      1130      6315
 -1     28363    3    0    3
 -2      5363      1221      1300      5846
 -1     28364    3    0    3
 -2      5936      3449      5364      6345
 -1     28365    3    0    3
 -2      5355      4467      5365      6327
 -1     28366    3    0    3
 -2      5364      2879      2792      5984
 -1     28367    3    0    3
 -2      6235      1081      1209      1254
 -1     28368    3    0    3
 -2      6328      5360      5362      6663
 -1     28369    3    0    3
 -2      2200      5785      2201      5786
 -1     28370    3    0    3
 -2      6321      5362      5359      6375
 -1     28371    3    0    3
 -2      2791      2879      2861      5984
 -1     28372    3    0    3
 -2      5361      1390      1130      6315
 -1     28373    3    0    3
 -2      1558      5340      6736      5960
 -1     28374    3    0    3
 -2      4996      2282      4993      5797
 -1     28375    3    0    3
 -2      4520      4799      4796      3475
 -1     28376    3    0    3
 -2      5354      1623      1436      1434
 -1     28377    3    0    3
 -2      5350      1536      1537      1544
 -1     28378    3    0    3
 -2      6235      1081      1254      6218
 -1     28379    3    0    3
 -2      1448      1446      1447      6321
 -1     28380    3    0    3
 -2      5354      1623      1434      6365
 -1     28381    3    0    3
 -2      1440      1439      1437      6328
 -1     28382    3    0    3
 -2      6663      1439      6328      5360
 -1     28383    3    0    3
 -2      4767      2217      4765      6219
 -1     28384    3    0    3
 -2      6324      5467      6325      6740
 -1     28385    3    0    3
 -2      4467      4792      4798      3446
 -1     28386    3    0    3
 -2      1195       995       994      6331
 -1     28387    3    0    3
 -2      5984      5365      2861      6348
 -1     28388    3    0    3
 -2      3271      3702      6416      6051
 -1     28389    3    0    3
 -2      1390      1206      5361      1130
 -1     28390    3    0    3
 -2      4803      5927      5929      5928
 -1     28391    3    0    3
 -2      1136      6324      6325      6740
 -1     28392    3    0    3
 -2      3478      4497      5353      5355
 -1     28393    3    0    3
 -2       754       995       772      6337
 -1     28394    3    0    3
 -2      4882      2193      1947      2134
 -1     28395    3    0    3
 -2      3534      5972      4788      6004
 -1     28396    3    0    3
 -2      5363      1300      5362      5846
 -1     28397    3    0    3
 -2       876      5346      5957      5947
 -1     28398    3    0    3
 -2      4791      3446      4797      6017
 -1     28399    3    0    3
 -2      5367      2796      2817      6333
 -1     28400    3    0    3
 -2      2593      6194      6045      4737
 -1     28401    3    0    3
 -2      2865      5367       772      2796
 -1     28402    3    0    3
 -2      1373      1221      1195      5846
 -1     28403    3    0    3
 -2       772      5367       837      2796
 -1     28404    3    0    3
 -2      3562      5357      5351      6020
 -1     28405    3    0    3
 -2      5467      5465      6292      6325
 -1     28406    3    0    3
 -2      1738      5707      4783      1966
 -1     28407    3    0    3
 -2      4441      5361      5363      6335
 -1     28408    3    0    3
 -2      4792      4497      3478      5355
 -1     28409    3    0    3
 -2      1126       955      5464      6241
 -1     28410    3    0    3
 -2      5367      4441      5363      6335
 -1     28411    3    0    3
 -2      1447      1373      1374      6332
 -1     28412    3    0    3
 -2      2796      2798      2817      6333
 -1     28413    3    0    3
 -2      1195       994      1230      6331
 -1     28414    3    0    3
 -2       880       953      1219      6335
 -1     28415    3    0    3
 -2      1256      1417      5342      6359
 -1     28416    3    0    3
 -2      6336      4406      5367      6337
 -1     28417    3    0    3
 -2      5466      1138      6740      6239
 -1     28418    3    0    3
 -2      5936      3449      4801      4497
 -1     28419    3    0    3
 -2      6345      2806      5959      2846
 -1     28420    3    0    3
 -2      3351      5460      5459      3515
 -1     28421    3    0    3
 -2      1300      5363      5362      6317
 -1     28422    3    0    3
 -2      6121      4781      5661      3300
 -1     28423    3    0    3
 -2      3927       866      5465      6207
 -1     28424    3    0    3
 -2      3436      6564      6232      3591
 -1     28425    3    0    3
 -2       994       995       754      6337
 -1     28426    3    0    3
 -2       707      5652      1671       809
 -1     28427    3    0    3
 -2      5464      1014      1099      6244
 -1     28428    3    0    3
 -2      2253      6730      2372      5677
 -1     28429    3    0    3
 -2      1013      4066      5463      6244
 -1     28430    3    0    3
 -2       995      6331      6336      6337
 -1     28431    3    0    3
 -2      5884      2097      4803      5934
 -1     28432    3    0    3
 -2      1204      6363      5931      5343
 -1     28433    3    0    3
 -2      2796      2865      5367      2817
 -1     28434    3    0    3
 -2      1579      6355      5339      1508
 -1     28435    3    0    3
 -2      3534      5972      4791      3504
 -1     28436    3    0    3
 -2      5448      3550      5442      6091
 -1     28437    3    0    3
 -2      5937      4441      4804      6333
 -1     28438    3    0    3
 -2       772       269      2865      2796
 -1     28439    3    0    3
 -2       837       269       772      2796
 -1     28440    3    0    3
 -2      3927       866      6289      3515
 -1     28441    3    0    3
 -2      3436      6564      3346      6232
 -1     28442    3    0    3
 -2      2820      2821      2860      5927
 -1     28443    3    0    3
 -2       707      5652      3624      1670
 -1     28444    3    0    3
 -2       879       880      1206      6327
 -1     28445    3    0    3
 -2      3508      5885      4790      4789
 -1     28446    3    0    3
 -2      4800      4799      4490      6340
 -1     28447    3    0    3
 -2      4803      5927      4467      6777
 -1     28448    3    0    3
 -2      2797      2809      2880      6366
 -1     28449    3    0    3
 -2      4467      5365      4497      5355
 -1     28450    3    0    3
 -2      5980      6319       919      6759
 -1     28451    3    0    3
 -2      5463      1013      1081      6302
 -1     28452    3    0    3
 -2      4066      1013      5463      6302
 -1     28453    3    0    3
 -2      1017      1013      5497      6302
 -1     28454    3    0    3
 -2      1204      6363      5343      1115
 -1     28455    3    0    3
 -2      5424      5418      3792      3849
 -1     28456    3    0    3
 -2      3599      6736      5339      5342
 -1     28457    3    0    3
 -2      5366      2797      2880      6366
 -1     28458    3    0    3
 -2       267       268       706      2797
 -1     28459    3    0    3
 -2      1130      1206      5361      6327
 -1     28460    3    0    3
 -2       678       266       267      2809
 -1     28461    3    0    3
 -2       678      1022       677      5975
 -1     28462    3    0    3
 -2      3449      5980      5347      3480
 -1     28463    3    0    3
 -2      4491      5462      1019      1165
 -1     28464    3    0    3
 -2      4799      4465      4800      4490
 -1     28465    3    0    3
 -2       723      2792       263       264
 -1     28466    3    0    3
 -2      2790      4784      1883      5959
 -1     28467    3    0    3
 -2      4784      3449      4801      6345
 -1     28468    3    0    3
 -2      6639      4352      5578      5829
 -1     28469    3    0    3
 -2      4497      5365      4802      5936
 -1     28470    3    0    3
 -2      5568      1599      5566      5886
 -1     28471    3    0    3
 -2      4167      3597      1041      5522
 -1     28472    3    0    3
 -2      5464      4478      5462      6292
 -1     28473    3    0    3
 -2      5936      4801      2845      5985
 -1     28474    3    0    3
 -2      5927      4802      5365      5936
 -1     28475    3    0    3
 -2      2791       718      5984      6348
 -1     28476    3    0    3
 -2      6335      6333      6341      5367
 -1     28477    3    0    3
 -2      6272      3545      5345      6278
 -1     28478    3    0    3
 -2      1436      1370      1390      5983
 -1     28479    3    0    3
 -2      2860      2864      2861      5365
 -1     28480    3    0    3
 -2      5980      1115      5343      6759
 -1     28481    3    0    3
 -2       678      6327      1022      5975
 -1     28482    3    0    3
 -2       946      3515       688       866
 -1     28483    3    0    3
 -2      3480      4783      5346      5940
 -1     28484    3    0    3
 -2      4784      2848      2850      5956
 -1     28485    3    0    3
 -2      6242      6239      5468      6740
 -1     28486    3    0    3
 -2      2222      6243      4900      5784
 -1     28487    3    0    3
 -2      2705      4785      4786      5664
 -1     28488    3    0    3
 -2      2842       791      5346      2804
 -1     28489    3    0    3
 -2       260       791      2842      2804
 -1     28490    3    0    3
 -2       931       876      1131      5947
 -1     28491    3    0    3
 -2      4879      2386      6709      6711
 -1     28492    3    0    3
 -2      6740      4370      6239      5468
 -1     28493    3    0    3
 -2      1116       920      1020      5951
 -1     28494    3    0    3
 -2       699       263       723      6726
 -1     28495    3    0    3
 -2      4467      5887      5948      4792
 -1     28496    3    0    3
 -2      6316       761      5346      6352
 -1     28497    3    0    3
 -2      1599      5568      5566      5683
 -1     28498    3    0    3
 -2       879      1206      1130      6327
 -1     28499    3    0    3
 -2       865       689       646      6207
 -1     28500    3    0    3
 -2      3598      4980      5547      3631
 -1     28501    3    0    3
 -2      6327      6777      4467      5365
 -1     28502    3    0    3
 -2      2792       723       263      6726
 -1     28503    3    0    3
 -2      5467      5465      6740      4424
 -1     28504    3    0    3
 -2      4342      5543      3556      3745
 -1     28505    3    0    3
 -2      6634      4607      6201      2695
 -1     28506    3    0    3
 -2      3449      5980      3480      5343
 -1     28507    3    0    3
 -2      5867      2843      2801      5932
 -1     28508    3    0    3
 -2      2864       266       265       677
 -1     28509    3    0    3
 -2      1418      5689      5569      1374
 -1     28510    3    0    3
 -2      5906      4364      5026      5745
 -1     28511    3    0    3
 -2      2542      4774      4776      5697
 -1     28512    3    0    3
 -2      2809      6777      2860      2880
 -1     28513    3    0    3
 -2      5957       876       877      6352
 -1     28514    3    0    3
 -2      6350      2819      5347      6726
 -1     28515    3    0    3
 -2       263      2819       699       262
 -1     28516    3    0    3
 -2      3449      5956      3480      5347
 -1     28517    3    0    3
 -2      1306      5353      5352      5835
 -1     28518    3    0    3
 -2      1140      5430       968       960
 -1     28519    3    0    3
 -2      3534      4791      3478      5354
 -1     28520    3    0    3
 -2      6023      2591      2534      4795
 -1     28521    3    0    3
 -2      6241      6324      5506      5467
 -1     28522    3    0    3
 -2      4497      5353      5364      3449
 -1     28523    3    0    3
 -2      1214       931      1131      5947
 -1     28524    3    0    3
 -2      4785      2705      4786      5996
 -1     28525    3    0    3
 -2      4331      3490      4898      3459
 -1     28526    3    0    3
 -2      1348      6310      6304      6305
 -1     28527    3    0    3
 -2      2819       263       699      6726
 -1     28528    3    0    3
 -2      1131      1239      5341      5957
 -1     28529    3    0    3
 -2      5346       876      5957      6352
 -1     28530    3    0    3
 -2      6639      4352      5583      4323
 -1     28531    3    0    3
 -2      1507      1558      1559      6736
 -1     28532    3    0    3
 -2      5354      1434      1436      1370
 -1     28533    3    0    3
 -2      3656      5348      4785      3690
 -1     28534    3    0    3
 -2      1538      1508      5349      6355
 -1     28535    3    0    3
 -2      1562      1541      1622      5348
 -1     28536    3    0    3
 -2      5338      1622      1541      5348
 -1     28537    3    0    3
 -2      1104      5353      1116      5951
 -1     28538    3    0    3
 -2      4732      3931      5295      3896
 -1     28539    3    0    3
 -2      3417      4867      3401      3416
 -1     28540    3    0    3
 -2      1019       712      5457      1018
 -1     28541    3    0    3
 -2      5348      1622      1538      6355
 -1     28542    3    0    3
 -2      5448      5442      1266      6091
 -1     28543    3    0    3
 -2      1255      5448      1266      6091
 -1     28544    3    0    3
 -2      5461      5453      3550      6091
 -1     28545    3    0    3
 -2      4155      5452      3755      6294
 -1     28546    3    0    3
 -2      4791      3478      4789      3534
 -1     28547    3    0    3
 -2      1142      5380      5374      5992
 -1     28548    3    0    3
 -2      3054      6210      6538      3056
 -1     28549    3    0    3
 -2      3508      4779      4789      3567
 -1     28550    3    0    3
 -2      1535      5352      1371      1306
 -1     28551    3    0    3
 -2      5348      5349      3625      6355
 -1     28552    3    0    3
 -2      5319      5321      3656      6387
 -1     28553    3    0    3
 -2      3596      5350      5351      6036
 -1     28554    3    0    3
 -2      1614      5659      5395      6060
 -1     28555    3    0    3
 -2      4802      5365      4467      5927
 -1     28556    3    0    3
 -2      2797      2880      2798      5366
 -1     28557    3    0    3
 -2      1650      1579      1578      6307
 -1     28558    3    0    3
 -2      1579      5339      1507      1508
 -1     28559    3    0    3
 -2      1404      1558      5340      1559
 -1     28560    3    0    3
 -2      5352      3478      5353      6364
 -1     28561    3    0    3
 -2      5342      5339      3599      3567
 -1     28562    3    0    3
 -2      5342      3599      4779      3567
 -1     28563    3    0    3
 -2      1417      1507      1559      6736
 -1     28564    3    0    3
 -2      1020      6319      5364      5951
 -1     28565    3    0    3
 -2      4786      5349      3596      3534
 -1     28566    3    0    3
 -2      5338      4775      3625      3690
 -1     28567    3    0    3
 -2      4775      3661      5338      3625
 -1     28568    3    0    3
 -2      5338      3661      5339      3625
 -1     28569    3    0    3
 -2      4775      4776      3661      3625
 -1     28570    3    0    3
 -2      2623      4785      2705      5664
 -1     28571    3    0    3
 -2      2705      4786      2675      5664
 -1     28572    3    0    3
 -2      5339      3661      4776      3625
 -1     28573    3    0    3
 -2      5339      6354      5960      5337
 -1     28574    3    0    3
 -2      6352      5956      5347      3480
 -1     28575    3    0    3
 -2      5340      3599      3539      5342
 -1     28576    3    0    3
 -2      3599      4779      3539      5342
 -1     28577    3    0    3
 -2       723      2791       718      5984
 -1     28578    3    0    3
 -2      1534      5330      1354      6043
 -1     28579    3    0    3
 -2      3931      4732      5295      3957
 -1     28580    3    0    3
 -2      1540      1649      5309      1576
 -1     28581    3    0    3
 -2      1577      1576      1563      5307
 -1     28582    3    0    3
 -2      1579      1649      1578      6307
 -1     28583    3    0    3
 -2      6317      5360      5362      6328
 -1     28584    3    0    3
 -2      1341      6190      5308      1414
 -1     28585    3    0    3
 -2      5339      5338      3625      6355
 -1     28586    3    0    3
 -2      1622      1562      5348      1538
 -1     28587    3    0    3
 -2      6364      1433      5352      5354
 -1     28588    3    0    3
 -2      5342      4779      3508      3567
 -1     28589    3    0    3
 -2       261       698       761      6316
 -1     28590    3    0    3
 -2      2848      2849      2850      5956
 -1     28591    3    0    3
 -2      1140      5430       960      4392
 -1     28592    3    0    3
 -2      6352      5956      3480      5346
 -1     28593    3    0    3
 -2      1508      5339      1507      6356
 -1     28594    3    0    3
 -2      4467      5887      4497      4802
 -1     28595    3    0    3
 -2      1239       876       877      5957
 -1     28596    3    0    3
 -2      3449      4780      3508      5343
 -1     28597    3    0    3
 -2      6023      2591      2610      2534
 -1     28598    3    0    3
 -2      2789      1883      2790      4784
 -1     28599    3    0    3
 -2      5353      4790      3508      3449
 -1     28600    3    0    3
 -2      3795      5273      3295      4711
 -1     28601    3    0    3
 -2      4780      3480      3539      5343
 -1     28602    3    0    3
 -2      3956      4295      4754      3738
 -1     28603    3    0    3
 -2      6356      1535      1648      6360
 -1     28604    3    0    3
 -2      3508      4780      3539      5343
 -1     28605    3    0    3
 -2      3449      5956      5347      6350
 -1     28606    3    0    3
 -2      5353      5343      6363      6759
 -1     28607    3    0    3
 -2      3508      5353      3449      5343
 -1     28608    3    0    3
 -2      3956      4295      3738      4757
 -1     28609    3    0    3
 -2      5340      1404      1559      1382
 -1     28610    3    0    3
 -2       657       889      6277       864
 -1     28611    3    0    3
 -2      1533      1558      1507      5960
 -1     28612    3    0    3
 -2      3661      5338      5339      6307
 -1     28613    3    0    3
 -2      5352      5342      3567      6356
 -1     28614    3    0    3
 -2      5339      3599      5337      5960
 -1     28615    3    0    3
 -2      1417      1508      1507      6356
 -1     28616    3    0    3
 -2      1507      1417      6356      6736
 -1     28617    3    0    3
 -2      1508      1538      1622      6355
 -1     28618    3    0    3
 -2      1256      1257      1417      6359
 -1     28619    3    0    3
 -2      1535      1508      1417      6356
 -1     28620    3    0    3
 -2      3567      4786      4789      3534
 -1     28621    3    0    3
 -2      5349      4786      3567      3534
 -1     28622    3    0    3
 -2      1562      1560      5319      6387
 -1     28623    3    0    3
 -2      5348      5338      1622      6355
 -1     28624    3    0    3
 -2      6145      2279      1925      2299
 -1     28625    3    0    3
 -2      5352      6356      1535      6359
 -1     28626    3    0    3
 -2      4746      3690      4756      6357
 -1     28627    3    0    3
 -2      5319      3656      5348      6387
 -1     28628    3    0    3
 -2      6363      1256      1204      5931
 -1     28629    3    0    3
 -2      6356      1648      5349      6360
 -1     28630    3    0    3
 -2      3567      5339      3625      5349
 -1     28631    3    0    3
 -2      3656      5350      4787      3596
 -1     28632    3    0    3
 -2      4753      4754      4487      4295
 -1     28633    3    0    3
 -2      5338      3625      5348      3690
 -1     28634    3    0    3
 -2      4081      3889      4748      3859
 -1     28635    3    0    3
 -2       687      3227      5323      5997
 -1     28636    3    0    3
 -2      5318      3714      4755      3744
 -1     28637    3    0    3
 -2      5321      1560      5319      1292
 -1     28638    3    0    3
 -2      2621      4746      4756      6357
 -1     28639    3    0    3
 -2      5319      3690      5309      6398
 -1     28640    3    0    3
 -2      1541      5319      5309      6398
 -1     28641    3    0    3
 -2      6363      1256      6359      1257
 -1     28642    3    0    3
 -2      3656      4787      4785      3596
 -1     28643    3    0    3
 -2      1648      5349      1435      1538
 -1     28644    3    0    3
 -2      3656      5348      5350      3596
 -1     28645    3    0    3
 -2      5348      3656      4785      3596
 -1     28646    3    0    3
 -2      4785      3625      5348      3596
 -1     28647    3    0    3
 -2      4785      4786      3625      3596
 -1     28648    3    0    3
 -2      5349      3625      4786      3596
 -1     28649    3    0    3
 -2      5349      5348      3625      3596
 -1     28650    3    0    3
 -2      3567      5349      3534      5352
 -1     28651    3    0    3
 -2      5355      1307      5354      1370
 -1     28652    3    0    3
 -2      5158      3065       771      3074
 -1     28653    3    0    3
 -2      5354      5360      3446      5983
 -1     28654    3    0    3
 -2      2820      2879      2845      5936
 -1     28655    3    0    3
 -2      4467      4798      4803      4441
 -1     28656    3    0    3
 -2      1371      5835      6359      6363
 -1     28657    3    0    3
 -2      3478      3508      4789      5352
 -1     28658    3    0    3
 -2      4789      3567      3534      5352
 -1     28659    3    0    3
 -2      3478      5353      3508      5352
 -1     28660    3    0    3
 -2      6359      1257      1371      6363
 -1     28661    3    0    3
 -2      6352      5956      6316      5347
 -1     28662    3    0    3
 -2      1433      5352      5354      6365
 -1     28663    3    0    3
 -2      5349      1648      1435      6360
 -1     28664    3    0    3
 -2      1648      1433      1435      6360
 -1     28665    3    0    3
 -2      1435      1433      1434      6365
 -1     28666    3    0    3
 -2      6360      1433      1435      6365
 -1     28667    3    0    3
 -2      3567      5342      5339      6356
 -1     28668    3    0    3
 -2      2874      2798      2857      5930
 -1     28669    3    0    3
 -2      5361      4467      3446      5355
 -1     28670    3    0    3
 -2      4497      4792      4467      5355
 -1     28671    3    0    3
 -2      3446      5360      5361      5983
 -1     28672    3    0    3
 -2      1104      1116      1020      5951
 -1     28673    3    0    3
 -2      3599      6736      5960      5339
 -1     28674    3    0    3
 -2      5355      4497      5353      5968
 -1     28675    3    0    3
 -2       723      1020      5364       718
 -1     28676    3    0    3
 -2      5353      1104      1116      1306
 -1     28677    3    0    3
 -2      1433      1535      5352      6360
 -1     28678    3    0    3
 -2      1371      1116      1306      5835
 -1     28679    3    0    3
 -2      3599      6736      5342      5340
 -1     28680    3    0    3
 -2      1306      5352      1371      5835
 -1     28681    3    0    3
 -2      1306      5353      1104      6364
 -1     28682    3    0    3
 -2      1307      1104      1103      5355
 -1     28683    3    0    3
 -2      2819       698      5347       699
 -1     28684    3    0    3
 -2      5353      3478      5355      6364
 -1     28685    3    0    3
 -2      1307      1306      1104      6364
 -1     28686    3    0    3
 -2      3446      4792      4798      6017
 -1     28687    3    0    3
 -2      5352      3534      3478      5354
 -1     28688    3    0    3
 -2      5354      3534      4791      3504
 -1     28689    3    0    3
 -2      3534      5351      5354      6365
 -1     28690    3    0    3
 -2      1536      5350      1537      6036
 -1     28691    3    0    3
 -2      5320      3773      5318      3714
 -1     28692    3    0    3
 -2      1538      5349      1435      6036
 -1     28693    3    0    3
 -2      1536      1537      1538      6036
 -1     28694    3    0    3
 -2      5356      4793      3562      3531
 -1     28695    3    0    3
 -2      2507      2506      2639      6015
 -1     28696    3    0    3
 -2      4796      3499      4520      5359
 -1     28697    3    0    3
 -2      5566      3499      5565      6320
 -1     28698    3    0    3
 -2      5359      1448      1521      6320
 -1     28699    3    0    3
 -2      5021      5719      5024      6367
 -1     28700    3    0    3
 -2      1544      5356      5350      6020
 -1     28701    3    0    3
 -2      3475      5359      5362      6663
 -1     28702    3    0    3
 -2      5356      3562      5350      6020
 -1     28703    3    0    3
 -2      5357      3562      5356      6020
 -1     28704    3    0    3
 -2      2819       698       262      2858
 -1     28705    3    0    3
 -2      5990      5977      5987      5372
 -1     28706    3    0    3
 -2      3686      4758      4757      3714
 -1     28707    3    0    3
 -2      5358      1547      1521      1573
 -1     28708    3    0    3
 -2       672      3059       753       227
 -1     28709    3    0    3
 -2       706      6327       880       879
 -1     28710    3    0    3
 -2      5358      5356      1573      6376
 -1     28711    3    0    3
 -2      6321      1446      1447      6332
 -1     28712    3    0    3
 -2      1433      1307      1434      5354
 -1     28713    3    0    3
 -2      6327      6777      5975      5366
 -1     28714    3    0    3
 -2      5356      5358      1573      6377
 -1     28715    3    0    3
 -2      1301      1219      1300      6317
 -1     28716    3    0    3
 -2      5366       678       706      6366
 -1     28717    3    0    3
 -2      1206       880      1219      6335
 -1     28718    3    0    3
 -2      5980      6319      3449      5347
 -1     28719    3    0    3
 -2       880       837       953      6341
 -1     28720    3    0    3
 -2      4406      4465      5570      5363
 -1     28721    3    0    3
 -2      5351      5354      1623      6369
 -1     28722    3    0    3
 -2      4783      5865      1966      5707
 -1     28723    3    0    3
 -2      5806      4428      4398      5576
 -1     28724    3    0    3
 -2      2406      6015      4799      6340
 -1     28725    3    0    3
 -2      6522      1327      5149      1196
 -1     28726    3    0    3
 -2      5977      5974      6728      5158
 -1     28727    3    0    3
 -2      4798      4467      3446      5361
 -1     28728    3    0    3
 -2      6121      4781      5944      5661
 -1     28729    3    0    3
 -2      1188      6382      5327      5994
 -1     28730    3    0    3
 -2       706       267      2797      6366
 -1     28731    3    0    3
 -2       837      5367       953      6341
 -1     28732    3    0    3
 -2      4804      4406      5367      4441
 -1     28733    3    0    3
 -2      2056      5925      2068      2163
 -1     28734    3    0    3
 -2      4520      4796      5359      3475
 -1     28735    3    0    3
 -2      1436      5354      1370      5983
 -1     28736    3    0    3
 -2      1390      1437      1436      5360
 -1     28737    3    0    3
 -2      4441      4406      5367      5363
 -1     28738    3    0    3
 -2      1188      6382       882      1113
 -1     28739    3    0    3
 -2      5361      4798      4467      4441
 -1     28740    3    0    3
 -2      2056      5925      2163      5945
 -1     28741    3    0    3
 -2      5975      1022      5365      6327
 -1     28742    3    0    3
 -2      3446      4792      3478      5355
 -1     28743    3    0    3
 -2      3478      5354      3446      5355
 -1     28744    3    0    3
 -2      3446      4467      4792      5355
 -1     28745    3    0    3
 -2      1021      1022      1103      5968
 -1     28746    3    0    3
 -2      2809      2864      2860      5975
 -1     28747    3    0    3
 -2      3449      5980      5343      6759
 -1     28748    3    0    3
 -2      5354      1307      1434      1370
 -1     28749    3    0    3
 -2      5935      4804      5755      5933
 -1     28750    3    0    3
 -2      5716      2186      5025      5902
 -1     28751    3    0    3
 -2      5357      5359      3531      3475
 -1     28752    3    0    3
 -2      1636      1441      5357      1439
 -1     28753    3    0    3
 -2      2282      4996      4993      5809
 -1     28754    3    0    3
 -2      5360      5354      3446      3504
 -1     28755    3    0    3
 -2      6235      1081      6218      5463
 -1     28756    3    0    3
 -2      5357      1441      1440      1439
 -1     28757    3    0    3
 -2      1636      1623      1439      6322
 -1     28758    3    0    3
 -2      5357      1636      1439      6322
 -1     28759    3    0    3
 -2      3446      4791      4797      3504
 -1     28760    3    0    3
 -2      3446      5354      4791      3504
 -1     28761    3    0    3
 -2      3054      6538      3074      3056
 -1     28762    3    0    3
 -2      5868       486      3376      6742
 -1     28763    3    0    3
 -2      1441      1544      1636      6020
 -1     28764    3    0    3
 -2      5351      5350      3562      6020
 -1     28765    3    0    3
 -2      3619      4793      5356      3588
 -1     28766    3    0    3
 -2      5350      3656      4787      3619
 -1     28767    3    0    3
 -2      4758      4787      3656      3619
 -1     28768    3    0    3
 -2      4754      5322      4760      3738
 -1     28769    3    0    3
 -2      2592      4793      4787      6089
 -1     28770    3    0    3
 -2      4762      3619      4793      6089
 -1     28771    3    0    3
 -2      3619      3562      5350      5356
 -1     28772    3    0    3
 -2      1441      1636      5357      6020
 -1     28773    3    0    3
 -2      5358      3588      5327      6377
 -1     28774    3    0    3
 -2      5324      1112       890      6382
 -1     28775    3    0    3
 -2      1543      1304      1372      5325
 -1     28776    3    0    3
 -2      3619      5350      3656      5321
 -1     28777    3    0    3
 -2      5356      1542      1543      5325
 -1     28778    3    0    3
 -2      1573      1542      5356      6377
 -1     28779    3    0    3
 -2      1388      5515      1353      6353
 -1     28780    3    0    3
 -2      5565      1388      1523      6353
 -1     28781    3    0    3
 -2      3559      5565      5358      6353
 -1     28782    3    0    3
 -2      1523      5358      5565      6353
 -1     28783    3    0    3
 -2      3652      6095      6026      4764
 -1     28784    3    0    3
 -2      1188      1305      1353      5327
 -1     28785    3    0    3
 -2      2534      2533      2532      6025
 -1     28786    3    0    3
 -2      5982      4796      4794      6025
 -1     28787    3    0    3
 -2      4796      4795      3499      3531
 -1     28788    3    0    3
 -2      4795      5358      3499      3531
 -1     28789    3    0    3
 -2      5359      3499      5358      3531
 -1     28790    3    0    3
 -2      5359      4796      3499      3531
 -1     28791    3    0    3
 -2      4993      4499      5560      3450
 -1     28792    3    0    3
 -2      1446      5362      1606      1300
 -1     28793    3    0    3
 -2      1188      6382      5994       882
 -1     28794    3    0    3
 -2      3499      6321      6320      5566
 -1     28795    3    0    3
 -2      5362      4465      4799      4490
 -1     28796    3    0    3
 -2      3504      5360      5357      3475
 -1     28797    3    0    3
 -2      5361      4441      5363      4490
 -1     28798    3    0    3
 -2      5363      4441      4800      4490
 -1     28799    3    0    3
 -2      5360      3446      5361      4490
 -1     28800    3    0    3
 -2      3475      4520      4799      5362
 -1     28801    3    0    3
 -2      4465      4799      4520      5362
 -1     28802    3    0    3
 -2      5359      4520      3475      5362
 -1     28803    3    0    3
 -2      5509      6324      6242      3860
 -1     28804    3    0    3
 -2      3475      5360      5357      6663
 -1     28805    3    0    3
 -2      3504      5360      5354      6369
 -1     28806    3    0    3
 -2      5362      1446      6321      6332
 -1     28807    3    0    3
 -2      4520      5569      5362      6321
 -1     28808    3    0    3
 -2      4441      4800      4406      5363
 -1     28809    3    0    3
 -2      4800      4465      4406      5363
 -1     28810    3    0    3
 -2      4799      4797      3475      4490
 -1     28811    3    0    3
 -2       169      5520       655      3322
 -1     28812    3    0    3
 -2      5362      3475      5360      4490
 -1     28813    3    0    3
 -2      4799      3475      5362      4490
 -1     28814    3    0    3
 -2      5363      4800      4465      4490
 -1     28815    3    0    3
 -2      4465      5362      5363      4490
 -1     28816    3    0    3
 -2      5846      5362      4465      6332
 -1     28817    3    0    3
 -2      5846      4465      5570      6332
 -1     28818    3    0    3
 -2      1437      5360      1301      6328
 -1     28819    3    0    3
 -2      5359      1521      5358      6320
 -1     28820    3    0    3
 -2      1437      1301      1606      6328
 -1     28821    3    0    3
 -2      1521      5359      5358      6376
 -1     28822    3    0    3
 -2      4081      3891      4742      6731
 -1     28823    3    0    3
 -2      3475      5357      5359      6663
 -1     28824    3    0    3
 -2      3588      3559      5358      5327
 -1     28825    3    0    3
 -2      6663      1606      5362      6328
 -1     28826    3    0    3
 -2      5566      5565      1522      6320
 -1     28827    3    0    3
 -2      1448      1522      1521      6320
 -1     28828    3    0    3
 -2      1544      1542      5356      1573
 -1     28829    3    0    3
 -2      5356      1441      1544      1573
 -1     28830    3    0    3
 -2      5325      5356      1542      6377
 -1     28831    3    0    3
 -2      5358      5356      3588      6377
 -1     28832    3    0    3
 -2      6317      1606      5362      1300
 -1     28833    3    0    3
 -2      1521      5358      1573      6376
 -1     28834    3    0    3
 -2      5351      5357      6369      6322
 -1     28835    3    0    3
 -2      5358      5359      3531      6376
 -1     28836    3    0    3
 -2      4164      3986      4649      6615
 -1     28837    3    0    3
 -2      4081      3891      4741      3859
 -1     28838    3    0    3
 -2      5357      5351      6369      3504
 -1     28839    3    0    3
 -2      5354      1623      6369      1436
 -1     28840    3    0    3
 -2      6317      1606      1300      1301
 -1     28841    3    0    3
 -2      1020      6319       920       723
 -1     28842    3    0    3
 -2      4019       582       551      4916
 -1     28843    3    0    3
 -2       995      1195      1221      6336
 -1     28844    3    0    3
 -2      1188      6382      1113      5327
 -1     28845    3    0    3
 -2      3584      5826      3616      4950
 -1     28846    3    0    3
 -2      4490      5362      5363      6317
 -1     28847    3    0    3
 -2      1437      1606      1440      6328
 -1     28848    3    0    3
 -2      5360      1390      1437      1301
 -1     28849    3    0    3
 -2      5360      5361      1390      1301
 -1     28850    3    0    3
 -2      3800      4461      4319      5313
 -1     28851    3    0    3
 -2      5366       880      6327      6335
 -1     28852    3    0    3
 -2       266      2864      2809      5975
 -1     28853    3    0    3
 -2      5365      2860      2864      5975
 -1     28854    3    0    3
 -2      5366       706       880      6341
 -1     28855    3    0    3
 -2      6327       880      1206      6335
 -1     28856    3    0    3
 -2       837       880       706      6341
 -1     28857    3    0    3
 -2      6345      2806      2845      4801
 -1     28858    3    0    3
 -2      5367       772       837       953
 -1     28859    3    0    3
 -2       113       687       112      3227
 -1     28860    3    0    3
 -2      3738      4463      4761      4263
 -1     28861    3    0    3
 -2       487       111       759      3234
 -1     28862    3    0    3
 -2      5356      3619      3588      5325
 -1     28863    3    0    3
 -2      3686      4761      4757      6374
 -1     28864    3    0    3
 -2      3616      4949      4763      6095
 -1     28865    3    0    3
 -2      4763      4761      3928      3711
 -1     28866    3    0    3
 -2      2819       698       699       262
 -1     28867    3    0    3
 -2      5323      3227      4275      5997
 -1     28868    3    0    3
 -2      1388      1353      1523      6353
 -1     28869    3    0    3
 -2      5321      5325      3619      5681
 -1     28870    3    0    3
 -2      1547      6353      5327      5358
 -1     28871    3    0    3
 -2      3652      6095      3616      4763
 -1     28872    3    0    3
 -2      1543      6387      5321      1560
 -1     28873    3    0    3
 -2      1547      6353      1523      1353
 -1     28874    3    0    3
 -2      3652      4762      4761      3686
 -1     28875    3    0    3
 -2      4755      3992      4757      3773
 -1     28876    3    0    3
 -2      4753      3800      5313      3773
 -1     28877    3    0    3
 -2      4275      3738      5324      4263
 -1     28878    3    0    3
 -2      1256      5342      6363      6359
 -1     28879    3    0    3
 -2      3686      5324      5325      6388
 -1     28880    3    0    3
 -2      3259       115       114       824
 -1     28881    3    0    3
 -2      1353      1188      5327      6372
 -1     28882    3    0    3
 -2       736      6547       982       765
 -1     28883    3    0    3
 -2       114       733       113      3226
 -1     28884    3    0    3
 -2       503      4944       513      4016
 -1     28885    3    0    3
 -2       487       172       691         5
 -1     28886    3    0    3
 -2       759       882       883      5326
 -1     28887    3    0    3
 -2      3233       485      3166      3680
 -1     28888    3    0    3
 -2       881      1112       890      5324
 -1     28889    3    0    3
 -2       684      3231       111       112
 -1     28890    3    0    3
 -2      4421       949      5293      6396
 -1     28891    3    0    3
 -2      3956      4463      4761      3738
 -1     28892    3    0    3
 -2      5326      3680      4763      3616
 -1     28893    3    0    3
 -2      3233       486       485      3680
 -1     28894    3    0    3
 -2      2326      2203      4758      6001
 -1     28895    3    0    3
 -2      1372      1543      5325      5321
 -1     28896    3    0    3
 -2      3287      4275      3246      3232
 -1     28897    3    0    3
 -2      1542      1305      5325      6377
 -1     28898    3    0    3
 -2      3234       111       759      6371
 -1     28899    3    0    3
 -2      5313      3788      4308      3773
 -1     28900    3    0    3
 -2      5315      5317      5316       824
 -1     28901    3    0    3
 -2      6406      3865      3925      5297
 -1     28902    3    0    3
 -2      6363      1256      1257      1204
 -1     28903    3    0    3
 -2      5313      4753      3773      4295
 -1     28904    3    0    3
 -2      4756      3656      3690      5319
 -1     28905    3    0    3
 -2      5734      6765      1454      5588
 -1     28906    3    0    3
 -2      1739      3992      3582      4751
 -1     28907    3    0    3
 -2      3714      4757      4755      6001
 -1     28908    3    0    3
 -2      5289      5288      5282      4358
 -1     28909    3    0    3
 -2      3738      5324      5320      3757
 -1     28910    3    0    3
 -2      1305      1304      1542      5325
 -1     28911    3    0    3
 -2      5321      3656      4758      3714
 -1     28912    3    0    3
 -2      3738      4308      5320      4295
 -1     28913    3    0    3
 -2      6371      5324       890      6382
 -1     28914    3    0    3
 -2      6021      3803      5301      6424
 -1     28915    3    0    3
 -2      5348      3690      5319      6398
 -1     28916    3    0    3
 -2      5325      5324      3652      6382
 -1     28917    3    0    3
 -2      1353      5515      1127      6372
 -1     28918    3    0    3
 -2      4932        96       607       560
 -1     28919    3    0    3
 -2      4950      3584      5515      3616
 -1     28920    3    0    3
 -2      4275      5324      3711      4263
 -1     28921    3    0    3
 -2       486       487      3376      6742
 -1     28922    3    0    3
 -2       487       691      3376      6742
 -1     28923    3    0    3
 -2       890       684      5997      6371
 -1     28924    3    0    3
 -2      4544      1749      2894      1855
 -1     28925    3    0    3
 -2      3652      4761      5324      3686
 -1     28926    3    0    3
 -2      3738      5324      4761      3686
 -1     28927    3    0    3
 -2      1547      6353      1353      5327
 -1     28928    3    0    3
 -2      3588      4764      3559      5327
 -1     28929    3    0    3
 -2       890      1113       882      6382
 -1     28930    3    0    3
 -2      4421       949      5302      6402
 -1     28931    3    0    3
 -2      4421       949      6396      5302
 -1     28932    3    0    3
 -2      5326       759       882      6371
 -1     28933    3    0    3
 -2      5322      4275      3738      3757
 -1     28934    3    0    3
 -2       684       687       890      5997
 -1     28935    3    0    3
 -2      5868      3376      6532      6742
 -1     28936    3    0    3
 -2      3928      4763      3711      6384
 -1     28937    3    0    3
 -2      5288      5289      5282       943
 -1     28938    3    0    3
 -2      4275      5322      3738      4263
 -1     28939    3    0    3
 -2      5323      3226       733      5317
 -1     28940    3    0    3
 -2      5997      3231      3725      6371
 -1     28941    3    0    3
 -2      3725      3231      3234      6371
 -1     28942    3    0    3
 -2      3231       111      3234      6371
 -1     28943    3    0    3
 -2      5997       684      3231      6371
 -1     28944    3    0    3
 -2       487       759       691      6742
 -1     28945    3    0    3
 -2       883       759      5326      6027
 -1     28946    3    0    3
 -2       733       687       113      5323
 -1     28947    3    0    3
 -2      4740      4739      2440      5657
 -1     28948    3    0    3
 -2       881       687      5323      5997
 -1     28949    3    0    3
 -2       483       484      3366      5883
 -1     28950    3    0    3
 -2      3680      3233       486      6380
 -1     28951    3    0    3
 -2      2206      2280      2007      5821
 -1     28952    3    0    3
 -2      5843      5516      3584      6009
 -1     28953    3    0    3
 -2      5296      1290      6406      1432
 -1     28954    3    0    3
 -2      3368      5868      3665      3340
 -1     28955    3    0    3
 -2      5997      3232      3725      3231
 -1     28956    3    0    3
 -2       789      3014      2949       200
 -1     28957    3    0    3
 -2      3233      3234      3725      3232
 -1     28958    3    0    3
 -2      3231      3725      3234      3232
 -1     28959    3    0    3
 -2      1789      5755      1757      2800
 -1     28960    3    0    3
 -2      6028      3680      4763      6384
 -1     28961    3    0    3
 -2      5997      3232      3227      4275
 -1     28962    3    0    3
 -2      3232      3286      3287      3711
 -1     28963    3    0    3
 -2      5997      3232      3231      3227
 -1     28964    3    0    3
 -2      6031      3222      3928      4463
 -1     28965    3    0    3
 -2      3286      3222      3287      3711
 -1     28966    3    0    3
 -2        39      5628       538        40
 -1     28967    3    0    3
 -2      3233      3166      3286      3711
 -1     28968    3    0    3
 -2        39      5628      5631       538
 -1     28969    3    0    3
 -2      4761      4763      3652      6385
 -1     28970    3    0    3
 -2      2007      1862      1880      6097
 -1     28971    3    0    3
 -2      5321      1543      5325      5681
 -1     28972    3    0    3
 -2      1305      1113      1304      5325
 -1     28973    3    0    3
 -2      2819       698      2858      5347
 -1     28974    3    0    3
 -2      3233      3232      3711      3286
 -1     28975    3    0    3
 -2      3232      3233      3711      3725
 -1     28976    3    0    3
 -2      3711      4763      4761      6385
 -1     28977    3    0    3
 -2      5327      3588      3652      5325
 -1     28978    3    0    3
 -2      1188      1113      1305      5327
 -1     28979    3    0    3
 -2      3652      3588      4762      5325
 -1     28980    3    0    3
 -2      3588      3619      4762      5325
 -1     28981    3    0    3
 -2      3711      5324      5326      6385
 -1     28982    3    0    3
 -2       883       882      1188      5994
 -1     28983    3    0    3
 -2      1113       890      1112      6382
 -1     28984    3    0    3
 -2      3652      5326      4763      3616
 -1     28985    3    0    3
 -2      5317       114      3259      3226
 -1     28986    3    0    3
 -2      3652      4764      5327      3616
 -1     28987    3    0    3
 -2       718      5968      1020      5364
 -1     28988    3    0    3
 -2      5320      5318      1180      6386
 -1     28989    3    0    3
 -2      1560      5321      5319      6387
 -1     28990    3    0    3
 -2      4757      4755      3773      3714
 -1     28991    3    0    3
 -2      5320      3686      5321      6388
 -1     28992    3    0    3
 -2       350      4953      1804      3375
 -1     28993    3    0    3
 -2      5320      5324       881      3757
 -1     28994    3    0    3
 -2      5314      3738      4754      4295
 -1     28995    3    0    3
 -2      4308      3738      5320      3757
 -1     28996    3    0    3
 -2      1180      5318      1179      1332
 -1     28997    3    0    3
 -2      4319      4461      3924      5313
 -1     28998    3    0    3
 -2      5319      1562      1541      1561
 -1     28999    3    0    3
 -2      1560      1543      1372      5321
 -1     29000    3    0    3
 -2      5324      4761      3711      4263
 -1     29001    3    0    3
 -2      3711      3232      3725      4275
 -1     29002    3    0    3
 -2      3711      4761      4463      4263
 -1     29003    3    0    3
 -2      3368      5868      3376      6532
 -1     29004    3    0    3
 -2      4748      3278      3169      4371
 -1     29005    3    0    3
 -2      5997      3232      4275      3725
 -1     29006    3    0    3
 -2      3232      3246      3227      4275
 -1     29007    3    0    3
 -2      4763      3711      5326      6385
 -1     29008    3    0    3
 -2      3738      4761      4757      3686
 -1     29009    3    0    3
 -2      5320      3738      4757      3686
 -1     29010    3    0    3
 -2      5324      3738      5320      3686
 -1     29011    3    0    3
 -2      1332      1180      5318      6386
 -1     29012    3    0    3
 -2      1469      1540      5309      6190
 -1     29013    3    0    3
 -2      3711      4463      3287      4263
 -1     29014    3    0    3
 -2       301      4729      3200       300
 -1     29015    3    0    3
 -2      4760      4463      3738      4263
 -1     29016    3    0    3
 -2      3738      5322      4760      4263
 -1     29017    3    0    3
 -2      5322      3738      5314      3757
 -1     29018    3    0    3
 -2      4275      5322      5323      3757
 -1     29019    3    0    3
 -2      3226       113      3227      5323
 -1     29020    3    0    3
 -2      3226       733       113      5323
 -1     29021    3    0    3
 -2      5318      4755      3773      3801
 -1     29022    3    0    3
 -2      4748      3278      5310      3282
 -1     29023    3    0    3
 -2      5316      3788      4308      5313
 -1     29024    3    0    3
 -2      1245      1341      1179      6062
 -1     29025    3    0    3
 -2      3212      3201      4456      3204
 -1     29026    3    0    3
 -2      1938      3980      1939      4532
 -1     29027    3    0    3
 -2      6758      5795      2344      4990
 -1     29028    3    0    3
 -2      4761      4759      3956      2088
 -1     29029    3    0    3
 -2      3279      5314      4319      3924
 -1     29030    3    0    3
 -2      4755      4749      3992      3773
 -1     29031    3    0    3
 -2      3773      4753      4487      4295
 -1     29032    3    0    3
 -2      2676      6041      2680      2599
 -1     29033    3    0    3
 -2      5820      2399      2582      2400
 -1     29034    3    0    3
 -2      2786      6672      2787      5857
 -1     29035    3    0    3
 -2      3259      3226      3279      3924
 -1     29036    3    0    3
 -2      2786      6672      6671      2808
 -1     29037    3    0    3
 -2      4748      3278      3282      3169
 -1     29038    3    0    3
 -2      3226      3227      3246      5323
 -1     29039    3    0    3
 -2      3711      4763      5326      6384
 -1     29040    3    0    3
 -2      6406      3865      5297      6035
 -1     29041    3    0    3
 -2      4748      3278      4371      5310
 -1     29042    3    0    3
 -2       789      3014       806      5243
 -1     29043    3    0    3
 -2       890       882      6371      6382
 -1     29044    3    0    3
 -2      5994      5326       882      6382
 -1     29045    3    0    3
 -2      1113      1112      1304      5325
 -1     29046    3    0    3
 -2      1134      1372      1112      6388
 -1     29047    3    0    3
 -2      6158       143       803      5421
 -1     29048    3    0    3
 -2      1112      1372      1304      5325
 -1     29049    3    0    3
 -2      5305      4115      5729      6390
 -1     29050    3    0    3
 -2      4308      5314      3738      3757
 -1     29051    3    0    3
 -2      3924      3259      3226      5317
 -1     29052    3    0    3
 -2      3859      6065      4081      4742
 -1     29053    3    0    3
 -2      3259      5315       115       824
 -1     29054    3    0    3
 -2      2786      6672      2808      2787
 -1     29055    3    0    3
 -2      3924      5317      5316      5315
 -1     29056    3    0    3
 -2       115      5315       818       824
 -1     29057    3    0    3
 -2      5323       881      3757      5317
 -1     29058    3    0    3
 -2      5323       733       881      5317
 -1     29059    3    0    3
 -2      6215      4056      4023      4820
 -1     29060    3    0    3
 -2      2970       750       185       695
 -1     29061    3    0    3
 -2      5317      4308      3924      5316
 -1     29062    3    0    3
 -2      3686      5320      5321      3714
 -1     29063    3    0    3
 -2      3773      5312      3788      5318
 -1     29064    3    0    3
 -2      1134       881      5320      6388
 -1     29065    3    0    3
 -2      5324       881      1112      6388
 -1     29066    3    0    3
 -2      3686      3619      4758      5321
 -1     29067    3    0    3
 -2      3656      4758      3619      5321
 -1     29068    3    0    3
 -2      5324      5320       881      6388
 -1     29069    3    0    3
 -2      4028      4736      1973      6804
 -1     29070    3    0    3
 -2       818      5315      3249      6397
 -1     29071    3    0    3
 -2      5313      5312      3773      3800
 -1     29072    3    0    3
 -2      3205      5311       742      6397
 -1     29073    3    0    3
 -2      3766      3255      3256      3982
 -1     29074    3    0    3
 -2      3773      4749      5312      3801
 -1     29075    3    0    3
 -2      3205       116      3249      6397
 -1     29076    3    0    3
 -2      4421      5293      4058      5292
 -1     29077    3    0    3
 -2       350      4953      3392      1832
 -1     29078    3    0    3
 -2      3744      5308      4745      3801
 -1     29079    3    0    3
 -2       350      4953      3375      3392
 -1     29080    3    0    3
 -2      3924      4308      5314      5313
 -1     29081    3    0    3
 -2      6406      3865      5303      3925
 -1     29082    3    0    3
 -2      5312      4749      3800      4371
 -1     29083    3    0    3
 -2      3859      6065      3801      4749
 -1     29084    3    0    3
 -2       120      4058      5293      3252
 -1     29085    3    0    3
 -2      3253      3249      5315      3278
 -1     29086    3    0    3
 -2      3718      6396      6390      5304
 -1     29087    3    0    3
 -2      4319      3254      3189      3253
 -1     29088    3    0    3
 -2      5313      5312      3800      4461
 -1     29089    3    0    3
 -2       818       116       742      6397
 -1     29090    3    0    3
 -2      3859      6065      4749      4081
 -1     29091    3    0    3
 -2      5315      3924      3259      3253
 -1     29092    3    0    3
 -2      5315      3259       115      3249
 -1     29093    3    0    3
 -2      4751      4757      4487      4752
 -1     29094    3    0    3
 -2      5126       192       709       848
 -1     29095    3    0    3
 -2      1010      4461       818      6400
 -1     29096    3    0    3
 -2      6186      6191      4734      3953
 -1     29097    3    0    3
 -2      4748      4371      3859      5310
 -1     29098    3    0    3
 -2      3982      3949      4058      5292
 -1     29099    3    0    3
 -2      3982      4730      3949      5292
 -1     29100    3    0    3
 -2      3718      6396      5304      3886
 -1     29101    3    0    3
 -2      3288      4263      3287      4463
 -1     29102    3    0    3
 -2      5126       192      2930       709
 -1     29103    3    0    3
 -2      3253      4461      4319      3800
 -1     29104    3    0    3
 -2      3718      6396       740      6390
 -1     29105    3    0    3
 -2      5305      3827      3891      5303
 -1     29106    3    0    3
 -2      3548      5312      3800      4371
 -1     29107    3    0    3
 -2      3169      3502      4748      4371
 -1     29108    3    0    3
 -2      3800      4749      3502      4371
 -1     29109    3    0    3
 -2      3253      4319      3254      3800
 -1     29110    3    0    3
 -2      3288      4263      4760      3246
 -1     29111    3    0    3
 -2      3924      5314      4319      5313
 -1     29112    3    0    3
 -2      4308      5313      3773      4295
 -1     29113    3    0    3
 -2      5320      4308      3773      4295
 -1     29114    3    0    3
 -2      4319      5314      4754      4295
 -1     29115    3    0    3
 -2      1579      5338      6307      5339
 -1     29116    3    0    3
 -2      3656      4756      4758      3714
 -1     29117    3    0    3
 -2      3744      4745      4755      3801
 -1     29118    3    0    3
 -2       120      5293       788       787
 -1     29119    3    0    3
 -2       350      4953      1832      1804
 -1     29120    3    0    3
 -2      4749      5312      3800      3773
 -1     29121    3    0    3
 -2      5313      4308      5314      4295
 -1     29122    3    0    3
 -2      3738      5320      4757      4295
 -1     29123    3    0    3
 -2      4081      3889      3678      4748
 -1     29124    3    0    3
 -2      3773      4487      4757      4295
 -1     29125    3    0    3
 -2      3773      4757      5320      4295
 -1     29126    3    0    3
 -2      4757      5320      3686      3714
 -1     29127    3    0    3
 -2      5320      3714      5318      6386
 -1     29128    3    0    3
 -2      1292      1180      1332      6386
 -1     29129    3    0    3
 -2      5348      3656      5350      6387
 -1     29130    3    0    3
 -2      3714      5321      3656      5319
 -1     29131    3    0    3
 -2      5319      5318      3714      6386
 -1     29132    3    0    3
 -2      5319      5348      1562      6387
 -1     29133    3    0    3
 -2      6075      5395      4023      5383
 -1     29134    3    0    3
 -2      2316      2473      2615      5882
 -1     29135    3    0    3
 -2      5767      4474      5798      4994
 -1     29136    3    0    3
 -2      2615      2624      4743      5882
 -1     29137    3    0    3
 -2      4739      3949      3891      5302
 -1     29138    3    0    3
 -2      3690      5309      4746      3744
 -1     29139    3    0    3
 -2      4767      4773      6042      6230
 -1     29140    3    0    3
 -2      3744      4746      4756      6085
 -1     29141    3    0    3
 -2      6252      4701      2052      3505
 -1     29142    3    0    3
 -2      4773      4767      6042      3750
 -1     29143    3    0    3
 -2      5308      3827      3801      5305
 -1     29144    3    0    3
 -2      2235      6065      5999      2172
 -1     29145    3    0    3
 -2      3827      4745      5308      3801
 -1     29146    3    0    3
 -2      3827      4742      4745      3801
 -1     29147    3    0    3
 -2      6063      4749      4755      6065
 -1     29148    3    0    3
 -2      1905      2730      2765       387
 -1     29149    3    0    3
 -2      4745      4743      3827      3774
 -1     29150    3    0    3
 -2      4745      3827      5308      3774
 -1     29151    3    0    3
 -2      3827      3859      3891      4742
 -1     29152    3    0    3
 -2      3774      4744      4746      6068
 -1     29153    3    0    3
 -2      5308      3744      4745      3774
 -1     29154    3    0    3
 -2      3744      4746      4745      3774
 -1     29155    3    0    3
 -2      3744      5308      5309      3774
 -1     29156    3    0    3
 -2      3744      5309      4746      3774
 -1     29157    3    0    3
 -2      3859      6065      4742      3801
 -1     29158    3    0    3
 -2      4371      3278      3548      5310
 -1     29159    3    0    3
 -2      4371      4081      4748      3859
 -1     29160    3    0    3
 -2      2676      6041      4744      2680
 -1     29161    3    0    3
 -2      2676      6041      6068      4744
 -1     29162    3    0    3
 -2      4371      4749      4081      3859
 -1     29163    3    0    3
 -2      6191      6186      4734      6735
 -1     29164    3    0    3
 -2      1010      4461      3788      5316
 -1     29165    3    0    3
 -2      3205      3278      3282      5310
 -1     29166    3    0    3
 -2      2676      6041      2599      6068
 -1     29167    3    0    3
 -2      3925      3891      4740      5303
 -1     29168    3    0    3
 -2      3865      3925      4740      5303
 -1     29169    3    0    3
 -2      3891      3925      5302      5303
 -1     29170    3    0    3
 -2      3285      3282      4748      3889
 -1     29171    3    0    3
 -2      5310      4115      3889      3718
 -1     29172    3    0    3
 -2      3285      3678      3276      3889
 -1     29173    3    0    3
 -2      3285      3276      3282      3889
 -1     29174    3    0    3
 -2      5729      3548      5312      6397
 -1     29175    3    0    3
 -2      2970       750      5111      2922
 -1     29176    3    0    3
 -2      3285      4748      3678      3889
 -1     29177    3    0    3
 -2      4115      5304      3859      3889
 -1     29178    3    0    3
 -2      4115      3859      5310      3889
 -1     29179    3    0    3
 -2      3859      4748      5310      3889
 -1     29180    3    0    3
 -2      2235      6065      2172      2316
 -1     29181    3    0    3
 -2       742       741      5311       117
 -1     29182    3    0    3
 -2      3889      4115      5304      3718
 -1     29183    3    0    3
 -2      1016       742      5729      6397
 -1     29184    3    0    3
 -2      3984      4739      3925      5302
 -1     29185    3    0    3
 -2      3925      4739      3891      5302
 -1     29186    3    0    3
 -2      5843      5514      4949      6761
 -1     29187    3    0    3
 -2      1345      5303      5305      6401
 -1     29188    3    0    3
 -2      5303      1345      5305      6016
 -1     29189    3    0    3
 -2      5310      3205      3548      5311
 -1     29190    3    0    3
 -2      6183      4731      2279      5909
 -1     29191    3    0    3
 -2      1439      1623      6369      6322
 -1     29192    3    0    3
 -2      3788      1010      1060      1180
 -1     29193    3    0    3
 -2      4115      5311      5729      6390
 -1     29194    3    0    3
 -2      5729       928      5305      6390
 -1     29195    3    0    3
 -2      4115      3718      5311      6390
 -1     29196    3    0    3
 -2      2970       750       695      5111
 -1     29197    3    0    3
 -2      4751      4757      3992      4487
 -1     29198    3    0    3
 -2      4549       432      1747      2945
 -1     29199    3    0    3
 -2      4549       432      2942      1748
 -1     29200    3    0    3
 -2      4549       432      1748      1747
 -1     29201    3    0    3
 -2      4549       432      2945      2942
 -1     29202    3    0    3
 -2      5308      3744      5309      6002
 -1     29203    3    0    3
 -2      6017      2605      4791      2364
 -1     29204    3    0    3
 -2      6396      5302      5304      4421
 -1     29205    3    0    3
 -2      1543      6387      1537      5350
 -1     29206    3    0    3
 -2      4461      5312      3548      6397
 -1     29207    3    0    3
 -2      4115      3548      5312      5729
 -1     29208    3    0    3
 -2      4461      3548      5315      6397
 -1     29209    3    0    3
 -2      5319      5321      1292      6386
 -1     29210    3    0    3
 -2      1415      1323      5308      1414
 -1     29211    3    0    3
 -2      5466      1138       865      6740
 -1     29212    3    0    3
 -2      5318      1179      1341      6062
 -1     29213    3    0    3
 -2      5318      1341      5308      6062
 -1     29214    3    0    3
 -2      5308      5318      3744      6002
 -1     29215    3    0    3
 -2      3744      3690      5309      5319
 -1     29216    3    0    3
 -2      1541      5348      5319      6398
 -1     29217    3    0    3
 -2      3744      5318      3714      5319
 -1     29218    3    0    3
 -2      3714      4756      3744      5319
 -1     29219    3    0    3
 -2      4756      3690      3744      5319
 -1     29220    3    0    3
 -2      5729      1016      6397      6400
 -1     29221    3    0    3
 -2      5321      1134      1372      1292
 -1     29222    3    0    3
 -2       733      5317       824      1060
 -1     29223    3    0    3
 -2      5319      1541      5309      1469
 -1     29224    3    0    3
 -2      1540      5309      1541      1469
 -1     29225    3    0    3
 -2      4746      4745      2473      6085
 -1     29226    3    0    3
 -2      3718      4115      5304      6390
 -1     29227    3    0    3
 -2      5305      1245      5729      6062
 -1     29228    3    0    3
 -2      4115      5305      5729      6062
 -1     29229    3    0    3
 -2      5312      4115      5729      6062
 -1     29230    3    0    3
 -2      4237      3990      5295      6195
 -1     29231    3    0    3
 -2      5306      5308      1415      6016
 -1     29232    3    0    3
 -2      1576      5309      5307      6237
 -1     29233    3    0    3
 -2      5307      3803      3774      5306
 -1     29234    3    0    3
 -2      5306      3827      5308      6016
 -1     29235    3    0    3
 -2      3774      3803      4743      5306
 -1     29236    3    0    3
 -2      4745      4746      2473      6068
 -1     29237    3    0    3
 -2       120      5293       119      3252
 -1     29238    3    0    3
 -2      1543      6387      1560      1537
 -1     29239    3    0    3
 -2      1180      3788      5320      1060
 -1     29240    3    0    3
 -2      5316      5317      4308      1060
 -1     29241    3    0    3
 -2      6092      5440      5442      3641
 -1     29242    3    0    3
 -2      5318      5312      3788      6400
 -1     29243    3    0    3
 -2       881      1134      5320      1060
 -1     29244    3    0    3
 -2      5319      3744      5318      6002
 -1     29245    3    0    3
 -2      5316       824      1060      1010
 -1     29246    3    0    3
 -2      1179      5318      1341      1332
 -1     29247    3    0    3
 -2      1292      5321      1134      6386
 -1     29248    3    0    3
 -2      5309      3744      5319      6002
 -1     29249    3    0    3
 -2      1332      5319      1469      1561
 -1     29250    3    0    3
 -2      1292      1560      5319      1561
 -1     29251    3    0    3
 -2      6353      3526      5515      3559
 -1     29252    3    0    3
 -2      1016       928      1245      5729
 -1     29253    3    0    3
 -2      1345      5305      1323      1247
 -1     29254    3    0    3
 -2      5336      1534      6354      6043
 -1     29255    3    0    3
 -2      1247      1345      5305      6401
 -1     29256    3    0    3
 -2      1401      1516      1563      6021
 -1     29257    3    0    3
 -2       928      1245      5305      1247
 -1     29258    3    0    3
 -2      4306      2986      2997      4133
 -1     29259    3    0    3
 -2      1151      1290      1345      6401
 -1     29260    3    0    3
 -2      1290      1151      5302      6401
 -1     29261    3    0    3
 -2      4040      4215      3462      5291
 -1     29262    3    0    3
 -2      5291       964      4058      6402
 -1     29263    3    0    3
 -2      3984      4719      4040      5283
 -1     29264    3    0    3
 -2      5305      1245      1323      1247
 -1     29265    3    0    3
 -2      5303      1345      1290      6401
 -1     29266    3    0    3
 -2      5302      1151      6396      6401
 -1     29267    3    0    3
 -2       928       948      1247      6390
 -1     29268    3    0    3
 -2      1151       948      6396      6401
 -1     29269    3    0    3
 -2      5305       928      1247      6390
 -1     29270    3    0    3
 -2      5843      5514      6009      3584
 -1     29271    3    0    3
 -2      1553      6006      1552      6693
 -1     29272    3    0    3
 -2      4030      3784      4644      3564
 -1     29273    3    0    3
 -2      5302      5304      3891      6401
 -1     29274    3    0    3
 -2       740       119       787      5293
 -1     29275    3    0    3
 -2       788       121       845      5290
 -1     29276    3    0    3
 -2      6175      1277      1124      6426
 -1     29277    3    0    3
 -2      1241       943      5282      5289
 -1     29278    3    0    3
 -2      4747      1951      5999      1826
 -1     29279    3    0    3
 -2      3238      3174      3812      3221
 -1     29280    3    0    3
 -2      6051      3271      3175      6470
 -1     29281    3    0    3
 -2      5292      5293      4058      3212
 -1     29282    3    0    3
 -2      5050      5770      3811      4981
 -1     29283    3    0    3
 -2      1247      5305      6390      6401
 -1     29284    3    0    3
 -2      4030      3784      3564      4633
 -1     29285    3    0    3
 -2      3988      5284      5285      3579
 -1     29286    3    0    3
 -2       120      4058      3228       788
 -1     29287    3    0    3
 -2       964       949       787      5293
 -1     29288    3    0    3
 -2      3212      5293      4058      3252
 -1     29289    3    0    3
 -2      4306      2986      4329      2936
 -1     29290    3    0    3
 -2      3164       119       740      5293
 -1     29291    3    0    3
 -2      5050      5770      2094      1926
 -1     29292    3    0    3
 -2      3160      3271      3175      6051
 -1     29293    3    0    3
 -2      5188      1298      6471      6454
 -1     29294    3    0    3
 -2      5290       788       121      3228
 -1     29295    3    0    3
 -2      6757      2142      5792      5770
 -1     29296    3    0    3
 -2      1007       943       715      5288
 -1     29297    3    0    3
 -2      4358      3812      5289      5288
 -1     29298    3    0    3
 -2       740      6390       741      3718
 -1     29299    3    0    3
 -2      2177      6585      2225      6083
 -1     29300    3    0    3
 -2      5293      3212      3164      3252
 -1     29301    3    0    3
 -2      3207      4152      3181      3225
 -1     29302    3    0    3
 -2      4358      5282      4099      3988
 -1     29303    3    0    3
 -2       764       196      5235      2890
 -1     29304    3    0    3
 -2      4725      3208      5284      4721
 -1     29305    3    0    3
 -2      6091      3518      3550      5461
 -1     29306    3    0    3
 -2      3158      3756      3975      3186
 -1     29307    3    0    3
 -2      3994      3553      4155      3383
 -1     29308    3    0    3
 -2      3237      4725      3208      3221
 -1     29309    3    0    3
 -2      3238      3812      3495      3221
 -1     29310    3    0    3
 -2      3495      3237      3238      3221
 -1     29311    3    0    3
 -2      4358      4099      4073      5286
 -1     29312    3    0    3
 -2      4099      4119      3988      5279
 -1     29313    3    0    3
 -2      3994      3553      5453      4155
 -1     29314    3    0    3
 -2      1298      5188      6471      1216
 -1     29315    3    0    3
 -2      3702      5198      3756      6472
 -1     29316    3    0    3
 -2      5287      4073      3495      5286
 -1     29317    3    0    3
 -2      4306      2986      2936      2997
 -1     29318    3    0    3
 -2       788       845       942      5290
 -1     29319    3    0    3
 -2      3495      3255      3462      3238
 -1     29320    3    0    3
 -2      4225      6536      4255      4593
 -1     29321    3    0    3
 -2      3812      3495      4215      3238
 -1     29322    3    0    3
 -2      3228      3174      5290      3238
 -1     29323    3    0    3
 -2      3886      3718      3163      3204
 -1     29324    3    0    3
 -2      3592      3949      4730      4456
 -1     29325    3    0    3
 -2       740      3164      5293      3886
 -1     29326    3    0    3
 -2      4456      5292      3212      3886
 -1     29327    3    0    3
 -2      3212      5293      3164      3886
 -1     29328    3    0    3
 -2      3984      4728      3949      5291
 -1     29329    3    0    3
 -2      3766      4728      3462      3982
 -1     29330    3    0    3
 -2      4058      3949      5291      4421
 -1     29331    3    0    3
 -2      6403       125       124       702
 -1     29332    3    0    3
 -2      3495      3255      3238      3237
 -1     29333    3    0    3
 -2       942       964       788      5291
 -1     29334    3    0    3
 -2      3949      5304      5302      4421
 -1     29335    3    0    3
 -2      6403       125       702      4271
 -1     29336    3    0    3
 -2      4215       788      4058      5291
 -1     29337    3    0    3
 -2      6586      3186      3229      3272
 -1     29338    3    0    3
 -2      3174      3221      5288      3812
 -1     29339    3    0    3
 -2       740      6390       948       741
 -1     29340    3    0    3
 -2      6776      4299      5580      5847
 -1     29341    3    0    3
 -2       121      3174      5290      3228
 -1     29342    3    0    3
 -2      5290      3812      4215      3238
 -1     29343    3    0    3
 -2      3495      3462      4215      3238
 -1     29344    3    0    3
 -2      4030      3784      4633      3809
 -1     29345    3    0    3
 -2       672      3060       731      6034
 -1     29346    3    0    3
 -2      6215      4056      6681      4819
 -1     29347    3    0    3
 -2      3221      3174      5288      3220
 -1     29348    3    0    3
 -2       672      3060      6034      3047
 -1     29349    3    0    3
 -2       283      5718      1865      6773
 -1     29350    3    0    3
 -2       672      3060       228       731
 -1     29351    3    0    3
 -2      3949      4728      3766      3982
 -1     29352    3    0    3
 -2      5291      4728      3949      3982
 -1     29353    3    0    3
 -2      3949      4058      5291      3982
 -1     29354    3    0    3
 -2      5291      3462      4728      3982
 -1     29355    3    0    3
 -2      2623      5893      2542      2689
 -1     29356    3    0    3
 -2      5302       949      1190      6402
 -1     29357    3    0    3
 -2       948       949      1151      6396
 -1     29358    3    0    3
 -2      1151       949      5302      6396
 -1     29359    3    0    3
 -2      5304      4741      3889      4456
 -1     29360    3    0    3
 -2      4741      3592      3889      4456
 -1     29361    3    0    3
 -2      5277      4183      4121      5279
 -1     29362    3    0    3
 -2      5284      3208      3221      3277
 -1     29363    3    0    3
 -2      3984      4421      6402      5291
 -1     29364    3    0    3
 -2      3702      3181      4152      3225
 -1     29365    3    0    3
 -2      5198      6090      4282      6472
 -1     29366    3    0    3
 -2      3756      5198      4282      6472
 -1     29367    3    0    3
 -2       120      4058       788      5293
 -1     29368    3    0    3
 -2      5292      4421      5293      3886
 -1     29369    3    0    3
 -2      3212      5292      5293      3886
 -1     29370    3    0    3
 -2      5292      4730      3949      4456
 -1     29371    3    0    3
 -2      3949      4741      5304      4456
 -1     29372    3    0    3
 -2      5304      3889      3718      4456
 -1     29373    3    0    3
 -2      3949      3592      4741      4456
 -1     29374    3    0    3
 -2      6006      1553      1552      1551
 -1     29375    3    0    3
 -2      4163      1787      2067      6046
 -1     29376    3    0    3
 -2      3949      4421      5292      4456
 -1     29377    3    0    3
 -2      4421      3949      5304      4456
 -1     29378    3    0    3
 -2      5292      3201      4730      4456
 -1     29379    3    0    3
 -2      3201      3592      4730      4456
 -1     29380    3    0    3
 -2      3201      5292      3212      4456
 -1     29381    3    0    3
 -2       117      5311      3205      3163
 -1     29382    3    0    3
 -2      4456      3718      3886      3204
 -1     29383    3    0    3
 -2      3163      3718      3282      3204
 -1     29384    3    0    3
 -2      4456      4421      5292      3886
 -1     29385    3    0    3
 -2      5304      4421      4456      3886
 -1     29386    3    0    3
 -2       117       741      5311      3163
 -1     29387    3    0    3
 -2       740      3718       741      3163
 -1     29388    3    0    3
 -2      3164      3212      3886      3204
 -1     29389    3    0    3
 -2       741      3718      5311      3163
 -1     29390    3    0    3
 -2       119      3164       740       118
 -1     29391    3    0    3
 -2      3276      3889      4456      3204
 -1     29392    3    0    3
 -2      4456      3889      3718      3204
 -1     29393    3    0    3
 -2      3889      3282      3718      3204
 -1     29394    3    0    3
 -2      3889      3276      3282      3204
 -1     29395    3    0    3
 -2      3163       740      3164       118
 -1     29396    3    0    3
 -2      3163       117       741       118
 -1     29397    3    0    3
 -2       741       740      3163       118
 -1     29398    3    0    3
 -2      3251       124       123       700
 -1     29399    3    0    3
 -2      3175      3271       126      6470
 -1     29400    3    0    3
 -2      6743      6175      5281      6426
 -1     29401    3    0    3
 -2      3750      5301      3803      5307
 -1     29402    3    0    3
 -2      3865      4743      3803      5306
 -1     29403    3    0    3
 -2      6035      1400      5300      6418
 -1     29404    3    0    3
 -2      6403       125      4271      3270
 -1     29405    3    0    3
 -2      1193      1258      1190      6402
 -1     29406    3    0    3
 -2      5250      3535       899      6003
 -1     29407    3    0    3
 -2      5288      5284      5285      3988
 -1     29408    3    0    3
 -2      5203      4194      5201      3627
 -1     29409    3    0    3
 -2      6586      3186      3272      3975
 -1     29410    3    0    3
 -2      4718      4099      5282      4121
 -1     29411    3    0    3
 -2      5285      1007      5288      3988
 -1     29412    3    0    3
 -2      6252      4701      3915      4704
 -1     29413    3    0    3
 -2       701       971       702      6419
 -1     29414    3    0    3
 -2      4271      5278      6051      6419
 -1     29415    3    0    3
 -2      6091      3518      5448      3550
 -1     29416    3    0    3
 -2      3271      3193       127      6090
 -1     29417    3    0    3
 -2      3462      3495      4215      5287
 -1     29418    3    0    3
 -2      4416      1024      5238      6413
 -1     29419    3    0    3
 -2      5232      5234      4210      3807
 -1     29420    3    0    3
 -2      5195      3961       970       922
 -1     29421    3    0    3
 -2      4322      6738      4124      4154
 -1     29422    3    0    3
 -2      6051       701       702      6419
 -1     29423    3    0    3
 -2      3743      4145      5240      5242
 -1     29424    3    0    3
 -2      5241      4078      4145      5240
 -1     29425    3    0    3
 -2      6417      6412      1121      6433
 -1     29426    3    0    3
 -2      5231      5229      4482      3807
 -1     29427    3    0    3
 -2      3944      5252      4479      5254
 -1     29428    3    0    3
 -2      4145      4078      4102      5240
 -1     29429    3    0    3
 -2      4052      4416      5236      5238
 -1     29430    3    0    3
 -2      4675      3560      3586      5237
 -1     29431    3    0    3
 -2      4385      5245      3710      5247
 -1     29432    3    0    3
 -2       910      1125      1119      6177
 -1     29433    3    0    3
 -2      5250      4109      3535      5248
 -1     29434    3    0    3
 -2      5234       983       746      5231
 -1     29435    3    0    3
 -2      5278      4152      5279      4271
 -1     29436    3    0    3
 -2      4734      3925      3865      5297
 -1     29437    3    0    3
 -2      3750      4744      3717      5307
 -1     29438    3    0    3
 -2      1400      1261      5300      6418
 -1     29439    3    0    3
 -2      1261      1401      1400      5300
 -1     29440    3    0    3
 -2      3896      3831      4735      5298
 -1     29441    3    0    3
 -2      3717      4744      3774      5307
 -1     29442    3    0    3
 -2      3944      3900      4324      5298
 -1     29443    3    0    3
 -2      3750      3803      4744      5307
 -1     29444    3    0    3
 -2      1190      1151      5302      1290
 -1     29445    3    0    3
 -2      5302      3925      5296      6406
 -1     29446    3    0    3
 -2      4152      5278      5279      4183
 -1     29447    3    0    3
 -2      1577      1291      5301      1336
 -1     29448    3    0    3
 -2      6021      1359      1516      6295
 -1     29449    3    0    3
 -2      3750      3717      5336      5307
 -1     29450    3    0    3
 -2       909      1043      1124      6164
 -1     29451    3    0    3
 -2      5282      4040      4075      5283
 -1     29452    3    0    3
 -2      6411       811      5255       952
 -1     29453    3    0    3
 -2      5843      5514      3584      4949
 -1     29454    3    0    3
 -2      5293       964       949      6402
 -1     29455    3    0    3
 -2      5293      4058       964      6402
 -1     29456    3    0    3
 -2      5302      1190      1258      6402
 -1     29457    3    0    3
 -2       949      1151      5302      1190
 -1     29458    3    0    3
 -2      6180      6183      6123      2278
 -1     29459    3    0    3
 -2       716      3710      5250      5247
 -1     29460    3    0    3
 -2      5240      4301      3560      5237
 -1     29461    3    0    3
 -2      5230      4482      3947      5228
 -1     29462    3    0    3
 -2      3586      3914      5237      3011
 -1     29463    3    0    3
 -2      2981      2980      4466      2979
 -1     29464    3    0    3
 -2      2980      3025      4466      2979
 -1     29465    3    0    3
 -2      3650      2940      2891      2889
 -1     29466    3    0    3
 -2      4191      2917      3483      4693
 -1     29467    3    0    3
 -2      3650      2947      2940      2889
 -1     29468    3    0    3
 -2      6177      6164      4145       909
 -1     29469    3    0    3
 -2      3990      4237      5294      6195
 -1     29470    3    0    3
 -2      4466      4439      2981      2979
 -1     29471    3    0    3
 -2      5254       204       743      3012
 -1     29472    3    0    3
 -2      2896      2881      3501      4208
 -1     29473    3    0    3
 -2      2896      2882      2881      4208
 -1     29474    3    0    3
 -2      1058      4048      5299      1059
 -1     29475    3    0    3
 -2      6418      1358      1105      6779
 -1     29476    3    0    3
 -2      6413       713      5238      5235
 -1     29477    3    0    3
 -2      2904      4439      2883      2979
 -1     29478    3    0    3
 -2       735       743      1051      5254
 -1     29479    3    0    3
 -2       764       195       196      2890
 -1     29480    3    0    3
 -2      5126      4219      2929      5127
 -1     29481    3    0    3
 -2      2890       196      5235      2984
 -1     29482    3    0    3
 -2      4301      3011      2983      2931
 -1     29483    3    0    3
 -2      3820      5416      6160      4452
 -1     29484    3    0    3
 -2       764      5235      5234      2890
 -1     29485    3    0    3
 -2       746      2938      5234      5231
 -1     29486    3    0    3
 -2      5127       863       985       848
 -1     29487    3    0    3
 -2      5291      4058      4421      6402
 -1     29488    3    0    3
 -2      5238      4052      4416      6413
 -1     29489    3    0    3
 -2      4052      5235      3644      6413
 -1     29490    3    0    3
 -2       713      5235       978       764
 -1     29491    3    0    3
 -2      5279      5277      4183      6415
 -1     29492    3    0    3
 -2      4301      3914      5239      2983
 -1     29493    3    0    3
 -2      2891      2940      3683      2939
 -1     29494    3    0    3
 -2      6143      6135      2169      4732
 -1     29495    3    0    3
 -2      4073      3495      4726      5287
 -1     29496    3    0    3
 -2       197       198       714      2983
 -1     29497    3    0    3
 -2      5126      3658      4219      5127
 -1     29498    3    0    3
 -2       713      5238      5235      2984
 -1     29499    3    0    3
 -2      5277      1173       978       977
 -1     29500    3    0    3
 -2      1071      6414      1080      5276
 -1     29501    3    0    3
 -2      5236      4052      5238      3503
 -1     29502    3    0    3
 -2      5238       197       714      2983
 -1     29503    3    0    3
 -2      3608      4145      5243      5242
 -1     29504    3    0    3
 -2      6413       713      5235       978
 -1     29505    3    0    3
 -2      2939      3709      4482      3004
 -1     29506    3    0    3
 -2      2891      3807      2938      2939
 -1     29507    3    0    3
 -2       746       195      2938       194
 -1     29508    3    0    3
 -2      3709      3683      3003      2939
 -1     29509    3    0    3
 -2      6413       713      1024      5238
 -1     29510    3    0    3
 -2      6413       713       978      1024
 -1     29511    3    0    3
 -2      6524       842      6540       941
 -1     29512    3    0    3
 -2      4705      1897      4704      2908
 -1     29513    3    0    3
 -2      3503      4210      5235      2984
 -1     29514    3    0    3
 -2      5236      2950      3503      3914
 -1     29515    3    0    3
 -2      3517      5230      4482      2954
 -1     29516    3    0    3
 -2      4219      3517      2929      5127
 -1     29517    3    0    3
 -2      3947      4236      3761      5228
 -1     29518    3    0    3
 -2      3002       806      3014      5246
 -1     29519    3    0    3
 -2      3683      2940      3003      2939
 -1     29520    3    0    3
 -2      4676       444      1852      1720
 -1     29521    3    0    3
 -2      2984      3503      4210      2889
 -1     29522    3    0    3
 -2      6524       842       941       674
 -1     29523    3    0    3
 -2      4332      3819      4360      5124
 -1     29524    3    0    3
 -2      5277      4052      3644      6413
 -1     29525    3    0    3
 -2       985       847       983      5230
 -1     29526    3    0    3
 -2      4075      5282      5283      6743
 -1     29527    3    0    3
 -2      5565      1521      5358      1523
 -1     29528    3    0    3
 -2      6079      1128      1129      6769
 -1     29529    3    0    3
 -2      5276      5196      3731      6153
 -1     29530    3    0    3
 -2      3702      5198      5278      3731
 -1     29531    3    0    3
 -2      4705      1897      2908      1721
 -1     29532    3    0    3
 -2      5280      4102      4416      3743
 -1     29533    3    0    3
 -2      5294      4237      4018      3840
 -1     29534    3    0    3
 -2      4102      4145      5240      3743
 -1     29535    3    0    3
 -2      3931      4735      4140      3900
 -1     29536    3    0    3
 -2       205       743      3012      5255
 -1     29537    3    0    3
 -2       910      1119      1024      5280
 -1     29538    3    0    3
 -2      5246      5243      4013      4514
 -1     29539    3    0    3
 -2      3820      5416      6161      6160
 -1     29540    3    0    3
 -2      5241      3529      5240      3608
 -1     29541    3    0    3
 -2      5279      1007      5282      6433
 -1     29542    3    0    3
 -2      1154       898      5294      6164
 -1     29543    3    0    3
 -2      4770      3637      5333      3609
 -1     29544    3    0    3
 -2      4717      4075      4719      4014
 -1     29545    3    0    3
 -2      1071      6414      5276      6153
 -1     29546    3    0    3
 -2      5283      3984      5296      6430
 -1     29547    3    0    3
 -2       196      5235       713       764
 -1     29548    3    0    3
 -2      4014      4733      3953      5296
 -1     29549    3    0    3
 -2      2983      3503      5238      2984
 -1     29550    3    0    3
 -2      5229      4212      3683      5232
 -1     29551    3    0    3
 -2       942       943      1241      5289
 -1     29552    3    0    3
 -2      4705      1897      1721      2113
 -1     29553    3    0    3
 -2      5276      4212      4236      3947
 -1     29554    3    0    3
 -2      6180      1720      4676      2020
 -1     29555    3    0    3
 -2      3947      5229      4236      5228
 -1     29556    3    0    3
 -2       983      1079       985      6414
 -1     29557    3    0    3
 -2      6416       849      3271      6470
 -1     29558    3    0    3
 -2       849       126      3271      6470
 -1     29559    3    0    3
 -2      4747      1951      6044      5999
 -1     29560    3    0    3
 -2      3702      3183      3181      3160
 -1     29561    3    0    3
 -2      5285      3277      3251      3579
 -1     29562    3    0    3
 -2      3225      3702      3181      3160
 -1     29563    3    0    3
 -2      1192      6078      6456      1148
 -1     29564    3    0    3
 -2      5278      4183      4714      3731
 -1     29565    3    0    3
 -2      4712      4236      3761      5276
 -1     29566    3    0    3
 -2      5276      5278      4183      6415
 -1     29567    3    0    3
 -2      5276      4712      4183      3731
 -1     29568    3    0    3
 -2      5279      5282      4099      4121
 -1     29569    3    0    3
 -2      3731      5196      5198      6153
 -1     29570    3    0    3
 -2      5285      5284      3277      3579
 -1     29571    3    0    3
 -2      3220       715      5288      5285
 -1     29572    3    0    3
 -2      6183      4731      5909      4248
 -1     29573    3    0    3
 -2      6051       702      4271      6419
 -1     29574    3    0    3
 -2       700       702      1065      6403
 -1     29575    3    0    3
 -2      3579       700      1065      6403
 -1     29576    3    0    3
 -2      6196      3869      3831      4736
 -1     29577    3    0    3
 -2      6164      1154      1124      6175
 -1     29578    3    0    3
 -2      5290       845       942      5289
 -1     29579    3    0    3
 -2      5291      3984      4040      5283
 -1     29580    3    0    3
 -2      4145      4102      5281      3743
 -1     29581    3    0    3
 -2      5288      1007      5282      3988
 -1     29582    3    0    3
 -2      5279      1065      1007      1175
 -1     29583    3    0    3
 -2      1120      1007      1175      6433
 -1     29584    3    0    3
 -2      5291       942       964      1193
 -1     29585    3    0    3
 -2       943       942       845      5289
 -1     29586    3    0    3
 -2      2951      5241      4013      3608
 -1     29587    3    0    3
 -2      5289      4358      5282      3685
 -1     29588    3    0    3
 -2      4271      3251      3579      6403
 -1     29589    3    0    3
 -2       700       124       702      6403
 -1     29590    3    0    3
 -2      4155       151       767      3425
 -1     29591    3    0    3
 -2      4718      4715      6176      6052
 -1     29592    3    0    3
 -2      1190      5302      1258      1290
 -1     29593    3    0    3
 -2      3501      4208      5256      5258
 -1     29594    3    0    3
 -2      2908      4705      1721      2909
 -1     29595    3    0    3
 -2       898      1183      1154      5294
 -1     29596    3    0    3
 -2      6403       125      3270       124
 -1     29597    3    0    3
 -2      5290       942      4215      5289
 -1     29598    3    0    3
 -2      4215      4040      3462      5287
 -1     29599    3    0    3
 -2      4735      3869      4089      3900
 -1     29600    3    0    3
 -2      3812      5290      4215      5289
 -1     29601    3    0    3
 -2      4514      4018      4014      4046
 -1     29602    3    0    3
 -2      1527      6016      1557      6035
 -1     29603    3    0    3
 -2      6430      5291      6431      5283
 -1     29604    3    0    3
 -2      4271       702      6403      6419
 -1     29605    3    0    3
 -2       715       122      3220      5288
 -1     29606    3    0    3
 -2      5280      4052      4156      6417
 -1     29607    3    0    3
 -2       939      6092      5442      1145
 -1     29608    3    0    3
 -2      5294      3953      3990      6195
 -1     29609    3    0    3
 -2      4669      2041      4668      1705
 -1     29610    3    0    3
 -2      4735      3869      5298      3831
 -1     29611    3    0    3
 -2      4155       151      3377      5452
 -1     29612    3    0    3
 -2      3865      3896      4734      5297
 -1     29613    3    0    3
 -2      1557      1290      1432      6406
 -1     29614    3    0    3
 -2      5300      1359      1401      6021
 -1     29615    3    0    3
 -2      5328      5299      3780      6301
 -1     29616    3    0    3
 -2      5297      1358      1526      6418
 -1     29617    3    0    3
 -2      5299      1205      1059      1114
 -1     29618    3    0    3
 -2      3990      3957      3535      5295
 -1     29619    3    0    3
 -2      4237      3535      3990      5248
 -1     29620    3    0    3
 -2      5245      4521      3473      3710
 -1     29621    3    0    3
 -2      4521      5245      3990      5248
 -1     29622    3    0    3
 -2      4385      5246      3840      5247
 -1     29623    3    0    3
 -2      3535      3990      5295      4237
 -1     29624    3    0    3
 -2      1124      1277      1125      6426
 -1     29625    3    0    3
 -2      1259      5296      5283      6175
 -1     29626    3    0    3
 -2      5236      4416      4126      5237
 -1     29627    3    0    3
 -2      4040      4718      5282      4075
 -1     29628    3    0    3
 -2       716       898       806      5246
 -1     29629    3    0    3
 -2      3982      3238      4215      3462
 -1     29630    3    0    3
 -2      1260      1183      1380      6407
 -1     29631    3    0    3
 -2       919      6352       877       698
 -1     29632    3    0    3
 -2       939      6092      1084      6093
 -1     29633    3    0    3
 -2      5296      3925      3953      5297
 -1     29634    3    0    3
 -2      6411       811       952      1059
 -1     29635    3    0    3
 -2      1358      1526      1380      5297
 -1     29636    3    0    3
 -2      5307      5301      3803      6424
 -1     29637    3    0    3
 -2      5328      1153       929      6037
 -1     29638    3    0    3
 -2      3831      4737      3803      5300
 -1     29639    3    0    3
 -2      4737      3831      3896      5300
 -1     29640    3    0    3
 -2      1414      1540      6389      1416
 -1     29641    3    0    3
 -2      5258      4048      1059      6411
 -1     29642    3    0    3
 -2      5283      1276      1241      6431
 -1     29643    3    0    3
 -2      5258      4208      3640      5255
 -1     29644    3    0    3
 -2      3803      5301      3831      5300
 -1     29645    3    0    3
 -2      1577      1578      1576      6237
 -1     29646    3    0    3
 -2      3671      3834      5329      5946
 -1     29647    3    0    3
 -2      1615      1577      1291      6399
 -1     29648    3    0    3
 -2      1534      5336      6354      1650
 -1     29649    3    0    3
 -2      6241      5506       856      5505
 -1     29650    3    0    3
 -2      4732      3953      3896      5295
 -1     29651    3    0    3
 -2      5330      3750      5336      6399
 -1     29652    3    0    3
 -2       901      6779      1105      1194
 -1     29653    3    0    3
 -2      2434      6681      2360      2258
 -1     29654    3    0    3
 -2      5303      5305      3827      6016
 -1     29655    3    0    3
 -2       939      6092      1145      1084
 -1     29656    3    0    3
 -2      1557      5303      1290      6406
 -1     29657    3    0    3
 -2      5300      3803      5301      6021
 -1     29658    3    0    3
 -2      2434      6681      6215      4820
 -1     29659    3    0    3
 -2      5301      5300      6021      6295
 -1     29660    3    0    3
 -2      6021      5300      1359      6295
 -1     29661    3    0    3
 -2      3910      4411      5262      5259
 -1     29662    3    0    3
 -2      4109      5249      4479      5251
 -1     29663    3    0    3
 -2      1577      5301      1516      1336
 -1     29664    3    0    3
 -2      1516      5301      6021      6295
 -1     29665    3    0    3
 -2      4644      3250      3281      3263
 -1     29666    3    0    3
 -2      5300      3831      3896      5298
 -1     29667    3    0    3
 -2      4048      5256      3640      5258
 -1     29668    3    0    3
 -2      4297      2895      3910      5262
 -1     29669    3    0    3
 -2       724       206      2896      5258
 -1     29670    3    0    3
 -2      2996      2924      3710      4109
 -1     29671    3    0    3
 -2      2896      3910      2895      5259
 -1     29672    3    0    3
 -2      4411      5328      3740      6037
 -1     29673    3    0    3
 -2      2896      3501      3910      5259
 -1     29674    3    0    3
 -2      3931      5249      3535      3944
 -1     29675    3    0    3
 -2      4514      5246      3840      5244
 -1     29676    3    0    3
 -2      1065      6415      5279      6419
 -1     29677    3    0    3
 -2       789       200      2949       199
 -1     29678    3    0    3
 -2       206      2896       207       724
 -1     29679    3    0    3
 -2      2924      2996      3025      4109
 -1     29680    3    0    3
 -2      4257      2934      4276      2966
 -1     29681    3    0    3
 -2      5254      3944      5252      4324
 -1     29682    3    0    3
 -2       716      3710      3002       202
 -1     29683    3    0    3
 -2      1259      1154      1260      6423
 -1     29684    3    0    3
 -2      6439      2361      2133      2362
 -1     29685    3    0    3
 -2      5296      1260      6407      6423
 -1     29686    3    0    3
 -2      1154      1259      1124      6175
 -1     29687    3    0    3
 -2       901       899      5295      1194
 -1     29688    3    0    3
 -2      5295      3990      3953      6195
 -1     29689    3    0    3
 -2      2996      3473      2995      2991
 -1     29690    3    0    3
 -2      3840      5245      4018      5244
 -1     29691    3    0    3
 -2      5243      2949      3014      4013
 -1     29692    3    0    3
 -2      4385      5245      3840      5244
 -1     29693    3    0    3
 -2      1065      6415      6419      1072
 -1     29694    3    0    3
 -2      3633      6043      5331      3695
 -1     29695    3    0    3
 -2       716       202       717      5250
 -1     29696    3    0    3
 -2      2951      5241      3608      3529
 -1     29697    3    0    3
 -2      3500      4345      3473      4682
 -1     29698    3    0    3
 -2      4355      5257      3910      2994
 -1     29699    3    0    3
 -2       811      2882      5258      5255
 -1     29700    3    0    3
 -2      5255       952      4324      6411
 -1     29701    3    0    3
 -2      4466      2979      4479      5252
 -1     29702    3    0    3
 -2      4014      4248      4018      4731
 -1     29703    3    0    3
 -2       743       204       205      3012
 -1     29704    3    0    3
 -2      5252      3931      3900      3944
 -1     29705    3    0    3
 -2      4109      4479      3009      5251
 -1     29706    3    0    3
 -2      4734      3953      3925      5297
 -1     29707    3    0    3
 -2      3313      3795      4015      3312
 -1     29708    3    0    3
 -2      1051      3944      5251      5254
 -1     29709    3    0    3
 -2      2881      2904      4407      2883
 -1     29710    3    0    3
 -2      1205      1058      5299      1059
 -1     29711    3    0    3
 -2      2912      4380      2978      2881
 -1     29712    3    0    3
 -2      5257      3910      3501      5259
 -1     29713    3    0    3
 -2      5300      5301      3831      6295
 -1     29714    3    0    3
 -2      5442       939       940      5440
 -1     29715    3    0    3
 -2      2979      3025      4466      4479
 -1     29716    3    0    3
 -2      4439      3900      4691      5253
 -1     29717    3    0    3
 -2      2979      3009      3025      4479
 -1     29718    3    0    3
 -2      3012      3009      2979      4479
 -1     29719    3    0    3
 -2      1516      1359      1336      6295
 -1     29720    3    0    3
 -2       811       205      2882      5255
 -1     29721    3    0    3
 -2       724       643      1058      5259
 -1     29722    3    0    3
 -2      5262       643      2895      5259
 -1     29723    3    0    3
 -2       724       207       643      5259
 -1     29724    3    0    3
 -2       207      2895       643      5259
 -1     29725    3    0    3
 -2      3910      2896      2895      2994
 -1     29726    3    0    3
 -2      4380      4355      2978      2994
 -1     29727    3    0    3
 -2      2948      2978      4355      2994
 -1     29728    3    0    3
 -2      3910      2948      4355      2994
 -1     29729    3    0    3
 -2      5298      4324       952      6411
 -1     29730    3    0    3
 -2      4109      3535      5249      5251
 -1     29731    3    0    3
 -2      6402      5296      6430      1258
 -1     29732    3    0    3
 -2      4479      3009      3025      4109
 -1     29733    3    0    3
 -2      5234       195      2938       746
 -1     29734    3    0    3
 -2      3633      6043      3695      5337
 -1     29735    3    0    3
 -2      6402      5296      3984      6430
 -1     29736    3    0    3
 -2      3710      4109      5250      5248
 -1     29737    3    0    3
 -2      5245      4018      3990      4237
 -1     29738    3    0    3
 -2      3009       735       204       203
 -1     29739    3    0    3
 -2      2904      4407      2912      2881
 -1     29740    3    0    3
 -2       205       206       811      2882
 -1     29741    3    0    3
 -2      3900      5252      3944      4324
 -1     29742    3    0    3
 -2      2996      3473      2991      4521
 -1     29743    3    0    3
 -2      3010      2950      3586      3011
 -1     29744    3    0    3
 -2      5237      3560      3586      3011
 -1     29745    3    0    3
 -2      5237      4301      3560      3011
 -1     29746    3    0    3
 -2      2951      4013      2949      3608
 -1     29747    3    0    3
 -2      6779      1380      1194      6420
 -1     29748    3    0    3
 -2      3840      4237      5245      5247
 -1     29749    3    0    3
 -2      4109      2924      3710      5250
 -1     29750    3    0    3
 -2      5251      4109      3535      5250
 -1     29751    3    0    3
 -2      3710       202      5250      2924
 -1     29752    3    0    3
 -2      1065      6415      1175      5279
 -1     29753    3    0    3
 -2      3500      3473      2992      2995
 -1     29754    3    0    3
 -2      2995      3710      4385      3473
 -1     29755    3    0    3
 -2      3002      2924      3710      2996
 -1     29756    3    0    3
 -2      2991      2992      3473      2995
 -1     29757    3    0    3
 -2      4385      3014      3002      2995
 -1     29758    3    0    3
 -2      5246      1043      5243      6164
 -1     29759    3    0    3
 -2      5296      1258      1259      6430
 -1     29760    3    0    3
 -2      3002       716       202       201
 -1     29761    3    0    3
 -2      3014      4385      3002      5246
 -1     29762    3    0    3
 -2      4237      5245      4018      3840
 -1     29763    3    0    3
 -2       200       806      3014       201
 -1     29764    3    0    3
 -2      4116      3800      3254      4319
 -1     29765    3    0    3
 -2      5246      4385      3840      5244
 -1     29766    3    0    3
 -2      1065      6415      1072      1175
 -1     29767    3    0    3
 -2      4116      3800      4319      4753
 -1     29768    3    0    3
 -2      3473      5245      3710      4385
 -1     29769    3    0    3
 -2      1259      1277      1124      6175
 -1     29770    3    0    3
 -2      3014      5243      4013      5246
 -1     29771    3    0    3
 -2      3982      3238      3462      3255
 -1     29772    3    0    3
 -2       806      5243      3014      5246
 -1     29773    3    0    3
 -2      3014      4013      4385      5246
 -1     29774    3    0    3
 -2      6439      2361      2362      4623
 -1     29775    3    0    3
 -2      2995      3710      3002      4385
 -1     29776    3    0    3
 -2      2981      4439      2904      2979
 -1     29777    3    0    3
 -2      2995      3710      2996      3002
 -1     29778    3    0    3
 -2      6439      2361      4623      4624
 -1     29779    3    0    3
 -2      6439      2361      4624      2133
 -1     29780    3    0    3
 -2      3560      2926      3010      2952
 -1     29781    3    0    3
 -2      3710       202      2924      3002
 -1     29782    3    0    3
 -2      3529      3500      2946      2951
 -1     29783    3    0    3
 -2      2995      2946      3500      2951
 -1     29784    3    0    3
 -2      3500      4013      2995      2951
 -1     29785    3    0    3
 -2      3896      3953      4734      5297
 -1     29786    3    0    3
 -2      5251      3944      4479      5254
 -1     29787    3    0    3
 -2      3805      4439      2883      5253
 -1     29788    3    0    3
 -2      4690      4439      4466      5252
 -1     29789    3    0    3
 -2      4407      2881      2883      4208
 -1     29790    3    0    3
 -2      4439      3805      5252      5253
 -1     29791    3    0    3
 -2      2883      2881      2882      4208
 -1     29792    3    0    3
 -2      3910      5257      3501      2994
 -1     29793    3    0    3
 -2      5257      4355      4380      2994
 -1     29794    3    0    3
 -2      2881      4380      2978      2994
 -1     29795    3    0    3
 -2      2881      3501      4380      2994
 -1     29796    3    0    3
 -2      3957      3990      3535      5248
 -1     29797    3    0    3
 -2      2924      3025      3009      4109
 -1     29798    3    0    3
 -2      4691      3900      3869      5253
 -1     29799    3    0    3
 -2      5256      3869      4048      3640
 -1     29800    3    0    3
 -2      4208      2882      3805      5255
 -1     29801    3    0    3
 -2      5259      1059       724      5258
 -1     29802    3    0    3
 -2      2882      3012      2883      3805
 -1     29803    3    0    3
 -2      2882       205      3012      5255
 -1     29804    3    0    3
 -2      3805      2883      4208      5253
 -1     29805    3    0    3
 -2      2979      3012      4479      3805
 -1     29806    3    0    3
 -2      2979      2883      3012      3805
 -1     29807    3    0    3
 -2      2979      4439      2883      3805
 -1     29808    3    0    3
 -2      4488      3957      5249      5248
 -1     29809    3    0    3
 -2      4488      4521      4686      5248
 -1     29810    3    0    3
 -2      2996      4488      3025      4109
 -1     29811    3    0    3
 -2      5252      5249      3931      3944
 -1     29812    3    0    3
 -2      5251       735       717       901
 -1     29813    3    0    3
 -2      4479      2979      3805      5252
 -1     29814    3    0    3
 -2      3805      2979      4439      5252
 -1     29815    3    0    3
 -2      3869      5299      4048      3640
 -1     29816    3    0    3
 -2      4691      4407      4439      5253
 -1     29817    3    0    3
 -2      1359      1261      1186      6425
 -1     29818    3    0    3
 -2      5257      3501      4380      5256
 -1     29819    3    0    3
 -2      2881      4407      4380      5256
 -1     29820    3    0    3
 -2      3501      2881      4380      5256
 -1     29821    3    0    3
 -2      4208      2881      3501      5256
 -1     29822    3    0    3
 -2      4208      4407      2881      5256
 -1     29823    3    0    3
 -2      3640      5299      4048      6411
 -1     29824    3    0    3
 -2      5256      4407      3869      5253
 -1     29825    3    0    3
 -2      5259      2896      3501      5258
 -1     29826    3    0    3
 -2      3805      3012      4479      5254
 -1     29827    3    0    3
 -2      4479      3012      3009      5254
 -1     29828    3    0    3
 -2      3640      4208      5253      5255
 -1     29829    3    0    3
 -2      6197      3931      3944      5298
 -1     29830    3    0    3
 -2      4644      3250      5207      3281
 -1     29831    3    0    3
 -2      5256      4208      4407      5253
 -1     29832    3    0    3
 -2      2883      4407      4208      5253
 -1     29833    3    0    3
 -2      2883      4439      4407      5253
 -1     29834    3    0    3
 -2      3640      5256      3869      5253
 -1     29835    3    0    3
 -2      4208      5256      3640      5253
 -1     29836    3    0    3
 -2      1051       735      5251       901
 -1     29837    3    0    3
 -2       735      1051      5251      5254
 -1     29838    3    0    3
 -2      5252      4479      5249      3944
 -1     29839    3    0    3
 -2      4669      2041      2014      3977
 -1     29840    3    0    3
 -2      4048      1059      5259      5258
 -1     29841    3    0    3
 -2      3501      2896      4208      5258
 -1     29842    3    0    3
 -2       724       811       206      5258
 -1     29843    3    0    3
 -2      5259       724      2896      5258
 -1     29844    3    0    3
 -2      1059       724      1058      5259
 -1     29845    3    0    3
 -2      4048      3501      5256      5258
 -1     29846    3    0    3
 -2      1059      1058      4048      5259
 -1     29847    3    0    3
 -2      5251      2924      4109      5250
 -1     29848    3    0    3
 -2      3009      2924      4109      5251
 -1     29849    3    0    3
 -2       203      3009       735      5251
 -1     29850    3    0    3
 -2       203       735       717      5251
 -1     29851    3    0    3
 -2      3633      6043      5337      6318
 -1     29852    3    0    3
 -2      3009       203      2924      5251
 -1     29853    3    0    3
 -2      2882       206       811      5258
 -1     29854    3    0    3
 -2      2882      2896       206      5258
 -1     29855    3    0    3
 -2       811       743       205      5255
 -1     29856    3    0    3
 -2      4208      2896      2882      5258
 -1     29857    3    0    3
 -2      5254      3805      3012      5255
 -1     29858    3    0    3
 -2      4644      3250      3263      3185
 -1     29859    3    0    3
 -2      1114      5299      1205      6295
 -1     29860    3    0    3
 -2      6779      1194      1358      1105
 -1     29861    3    0    3
 -2       952       743       811      5255
 -1     29862    3    0    3
 -2      6177      6164      6426      5281
 -1     29863    3    0    3
 -2      6195      5294      1183      6003
 -1     29864    3    0    3
 -2      1059      4048      5299      6411
 -1     29865    3    0    3
 -2      5254       204      3012      3009
 -1     29866    3    0    3
 -2      3535      3944      5251       901
 -1     29867    3    0    3
 -2      4248      4014      4018      4046
 -1     29868    3    0    3
 -2      3944      1051      5251       901
 -1     29869    3    0    3
 -2      1186      1261      1105      6197
 -1     29870    3    0    3
 -2      2908      4705      2909      4024
 -1     29871    3    0    3
 -2      2079      4556      4557      1706
 -1     29872    3    0    3
 -2      1336      6301      5301      6295
 -1     29873    3    0    3
 -2      2079      4556      2044      3629
 -1     29874    3    0    3
 -2      4732      3990      5295      3957
 -1     29875    3    0    3
 -2      1260      1432      5296      6407
 -1     29876    3    0    3
 -2      1358      1261      1400      6418
 -1     29877    3    0    3
 -2       899      3535       901      5295
 -1     29878    3    0    3
 -2      1059      1114       952      6411
 -1     29879    3    0    3
 -2      3944      3931      3900      5298
 -1     29880    3    0    3
 -2      4324      3900      3640      5298
 -1     29881    3    0    3
 -2      3944       901      5295      6197
 -1     29882    3    0    3
 -2      1359      1401      1261      5300
 -1     29883    3    0    3
 -2      6197      3931      5295      3944
 -1     29884    3    0    3
 -2       901      3944      1051      6197
 -1     29885    3    0    3
 -2      5297      1526      6035      6418
 -1     29886    3    0    3
 -2      3865      3803      5300      5306
 -1     29887    3    0    3
 -2      4371      3254      3800      3253
 -1     29888    3    0    3
 -2      1401      1359      1516      6021
 -1     29889    3    0    3
 -2      5301      1577      1516      6424
 -1     29890    3    0    3
 -2      1336      6301      6295      1205
 -1     29891    3    0    3
 -2      1563      1577      5307      6424
 -1     29892    3    0    3
 -2      5252      3900      5253      4324
 -1     29893    3    0    3
 -2      3900      3640      5253      4324
 -1     29894    3    0    3
 -2      5253      3640      5255      4324
 -1     29895    3    0    3
 -2      5252      3805      5254      4324
 -1     29896    3    0    3
 -2      5253      3805      5252      4324
 -1     29897    3    0    3
 -2      5255      3805      5253      4324
 -1     29898    3    0    3
 -2      5255      5254      3805      4324
 -1     29899    3    0    3
 -2      6095      4764      2226      6026
 -1     29900    3    0    3
 -2      4371      3254      3502      3800
 -1     29901    3    0    3
 -2      1527      1416      1415      5306
 -1     29902    3    0    3
 -2      1469      5309      6002      6190
 -1     29903    3    0    3
 -2      6390      5305      5304      6401
 -1     29904    3    0    3
 -2      3774      3827      5308      5306
 -1     29905    3    0    3
 -2      3774      5307      5306      6389
 -1     29906    3    0    3
 -2       901      6779      5295      6197
 -1     29907    3    0    3
 -2      5308      3774      5306      6389
 -1     29908    3    0    3
 -2      1277      6743      6427      1381
 -1     29909    3    0    3
 -2       901      3535      3944      5295
 -1     29910    3    0    3
 -2      6197      3931      3896      5295
 -1     29911    3    0    3
 -2      3669      2980      4296      2990
 -1     29912    3    0    3
 -2      1261      5300      6197      6425
 -1     29913    3    0    3
 -2      3535      3931      3944      5295
 -1     29914    3    0    3
 -2      3792      5418      4855      3849
 -1     29915    3    0    3
 -2      1336      1359      1114      6295
 -1     29916    3    0    3
 -2      1105       901      1051      6197
 -1     29917    3    0    3
 -2      3473      4013      4385      2995
 -1     29918    3    0    3
 -2      3473      4013      3500      5244
 -1     29919    3    0    3
 -2      5418      3792      4855      4337
 -1     29920    3    0    3
 -2      3869      3640      3900      5298
 -1     29921    3    0    3
 -2      5283      1276      6431      6430
 -1     29922    3    0    3
 -2      4237      5250      5247      6003
 -1     29923    3    0    3
 -2      4145      4514      5243      6164
 -1     29924    3    0    3
 -2      3473      4018      5245      5244
 -1     29925    3    0    3
 -2      5442       939      1145       940
 -1     29926    3    0    3
 -2      5250       899       716      5247
 -1     29927    3    0    3
 -2       806       898      1043      5246
 -1     29928    3    0    3
 -2      1043      5243       806      5246
 -1     29929    3    0    3
 -2      4237      4018      3990      5294
 -1     29930    3    0    3
 -2      3990      4732      5295      3953
 -1     29931    3    0    3
 -2      5283      4014      5281      6175
 -1     29932    3    0    3
 -2      4416      5280      3743      6177
 -1     29933    3    0    3
 -2      4731      4733      3953      4014
 -1     29934    3    0    3
 -2      4237      5295      6003      6195
 -1     29935    3    0    3
 -2      4345      4521      2991      3473
 -1     29936    3    0    3
 -2      6215      4056      4820      6681
 -1     29937    3    0    3
 -2      4040      5291      5283      3685
 -1     29938    3    0    3
 -2      5299      3869      5298      3640
 -1     29939    3    0    3
 -2      1043       909      5243      6164
 -1     29940    3    0    3
 -2      3743      5280      5281      6177
 -1     29941    3    0    3
 -2       909      4145      5243      6164
 -1     29942    3    0    3
 -2      5289      4215      5287      3685
 -1     29943    3    0    3
 -2      5287      4358      5289      3685
 -1     29944    3    0    3
 -2      5302      1290      5303      6406
 -1     29945    3    0    3
 -2      3857      4679      4678      4078
 -1     29946    3    0    3
 -2      4102      4717      3857      4078
 -1     29947    3    0    3
 -2      5242       199      2931       844
 -1     29948    3    0    3
 -2      4014      4514      4078      5281
 -1     29949    3    0    3
 -2      3931      4735      3896      4732
 -1     29950    3    0    3
 -2      4679      3857      4248      4078
 -1     29951    3    0    3
 -2      4717      4248      3857      4078
 -1     29952    3    0    3
 -2       964      5291      1193      6402
 -1     29953    3    0    3
 -2      1432      1258      1260      5296
 -1     29954    3    0    3
 -2      5303      3925      5302      6406
 -1     29955    3    0    3
 -2      3925      3984      5302      5296
 -1     29956    3    0    3
 -2       964      1193      1190      6402
 -1     29957    3    0    3
 -2      6425       952      6411      5298
 -1     29958    3    0    3
 -2      1261      1359      5300      6425
 -1     29959    3    0    3
 -2      6407      6195      5296      6423
 -1     29960    3    0    3
 -2       789       909      5243      1043
 -1     29961    3    0    3
 -2       789      5243       806      1043
 -1     29962    3    0    3
 -2      1381      1277      1276      6427
 -1     29963    3    0    3
 -2      1277      1381      1125      6426
 -1     29964    3    0    3
 -2      5248      2996      4109      4488
 -1     29965    3    0    3
 -2      1259      1276      1277      6427
 -1     29966    3    0    3
 -2      5289      3812      5290      5288
 -1     29967    3    0    3
 -2      3207      4119      4152      4271
 -1     29968    3    0    3
 -2      4156      4674      3617      5236
 -1     29969    3    0    3
 -2      2983      5238       197      2984
 -1     29970    3    0    3
 -2      4514      4078      4145      5241
 -1     29971    3    0    3
 -2      4018      5294      3840      4514
 -1     29972    3    0    3
 -2      4514      5294      3840      6164
 -1     29973    3    0    3
 -2      5281      4078      4145      4514
 -1     29974    3    0    3
 -2      4014      6164      4514      5281
 -1     29975    3    0    3
 -2      4078      4679      3529      5241
 -1     29976    3    0    3
 -2      5296      3953      5294      6195
 -1     29977    3    0    3
 -2      5245      4385      3840      5247
 -1     29978    3    0    3
 -2       844      6177      5239      5242
 -1     29979    3    0    3
 -2       844      6177      5242       909
 -1     29980    3    0    3
 -2      4514      4014      4078      4046
 -1     29981    3    0    3
 -2      4237      3710      5245      5247
 -1     29982    3    0    3
 -2      5251      3535       901      5250
 -1     29983    3    0    3
 -2       717      5251       901      5250
 -1     29984    3    0    3
 -2       901       899       717      5250
 -1     29985    3    0    3
 -2      3535       899       901      5250
 -1     29986    3    0    3
 -2      5250      3710      4237      5247
 -1     29987    3    0    3
 -2       717       899       716      5250
 -1     29988    3    0    3
 -2      1154      1043       898      6164
 -1     29989    3    0    3
 -2      3529      4678      4078      5240
 -1     29990    3    0    3
 -2      4682      4679      4248      4046
 -1     29991    3    0    3
 -2      4385      3473      5245      5244
 -1     29992    3    0    3
 -2      4014      6164      5281      6175
 -1     29993    3    0    3
 -2       716       899       898      5247
 -1     29994    3    0    3
 -2      3840      5246       898      5247
 -1     29995    3    0    3
 -2      5246       716       898      5247
 -1     29996    3    0    3
 -2      5295       899      3535      6003
 -1     29997    3    0    3
 -2      5295      3535      4237      6003
 -1     29998    3    0    3
 -2      5466      1138       950       865
 -1     29999    3    0    3
 -2      4678      3560      4102      5240
 -1     30000    3    0    3
 -2      4014      6164      6175      5294
 -1     30001    3    0    3
 -2      5242       199       789      2949
 -1     30002    3    0    3
 -2      6583      4561      2016      6174
 -1     30003    3    0    3
 -2      4678      4102      4078      5240
 -1     30004    3    0    3
 -2      3840      4018      4514      5244
 -1     30005    3    0    3
 -2      1071      6414      1079      1080
 -1     30006    3    0    3
 -2      4514      5246      5243      6164
 -1     30007    3    0    3
 -2      5246       898      1043      6164
 -1     30008    3    0    3
 -2      4145      5281      4514      6164
 -1     30009    3    0    3
 -2      4682      3473      3500      5244
 -1     30010    3    0    3
 -2      3473      4682      4018      5244
 -1     30011    3    0    3
 -2      4102      4126      4416      5237
 -1     30012    3    0    3
 -2      4514      4013      5244      5241
 -1     30013    3    0    3
 -2      4018      4682      4248      4046
 -1     30014    3    0    3
 -2      4248      4679      4078      4046
 -1     30015    3    0    3
 -2      3710      5250      4237      5248
 -1     30016    3    0    3
 -2      3535      4237      5250      5248
 -1     30017    3    0    3
 -2      6402      5296      1258      5302
 -1     30018    3    0    3
 -2      6402      5296      5302      3984
 -1     30019    3    0    3
 -2      3990      5245      4237      5248
 -1     30020    3    0    3
 -2      3710      4237      5245      5248
 -1     30021    3    0    3
 -2      5242       199      2949      2931
 -1     30022    3    0    3
 -2      5242       199       844       789
 -1     30023    3    0    3
 -2      5244      4013      3500      5241
 -1     30024    3    0    3
 -2      3500      4682      5244      4046
 -1     30025    3    0    3
 -2      3500      4679      4682      4046
 -1     30026    3    0    3
 -2      5244      4018      4514      4046
 -1     30027    3    0    3
 -2      5244      4682      4018      4046
 -1     30028    3    0    3
 -2      4514      5243      4013      5241
 -1     30029    3    0    3
 -2      4514      4145      5243      5241
 -1     30030    3    0    3
 -2      4046      3500      4679      5241
 -1     30031    3    0    3
 -2      4046      4679      4078      5241
 -1     30032    3    0    3
 -2      5244      3500      4046      5241
 -1     30033    3    0    3
 -2      4514      5244      4046      5241
 -1     30034    3    0    3
 -2      5238      4416      5236      3914
 -1     30035    3    0    3
 -2      5280       910      1119      6177
 -1     30036    3    0    3
 -2      6417      1121      1175      6433
 -1     30037    3    0    3
 -2      3617      3586      2950      5236
 -1     30038    3    0    3
 -2      5236      4156      4052      5233
 -1     30039    3    0    3
 -2      4416       910      1024      5280
 -1     30040    3    0    3
 -2      4102      3560      4675      5237
 -1     30041    3    0    3
 -2       910      5238      4416      1024
 -1     30042    3    0    3
 -2      3914      5238      4416      5239
 -1     30043    3    0    3
 -2      5236      3586      2950      3914
 -1     30044    3    0    3
 -2      5238      5236      3503      3914
 -1     30045    3    0    3
 -2      5237      3743      4301      5239
 -1     30046    3    0    3
 -2      6414      1071      1075      6153
 -1     30047    3    0    3
 -2      4145       909      5243      5242
 -1     30048    3    0    3
 -2       910      5238       714      5239
 -1     30049    3    0    3
 -2      2951      5241      3529      3500
 -1     30050    3    0    3
 -2      4301      3743      5240      5242
 -1     30051    3    0    3
 -2      3644       978      5277      6413
 -1     30052    3    0    3
 -2      1024       714      5238       713
 -1     30053    3    0    3
 -2      5233      3617      3650      2889
 -1     30054    3    0    3
 -2      3644      4187      5232      5233
 -1     30055    3    0    3
 -2      4156      4187      4052      5233
 -1     30056    3    0    3
 -2      4187      5277      4156      4052
 -1     30057    3    0    3
 -2      5235      5238      4052      3503
 -1     30058    3    0    3
 -2      1119      5280      6177      6412
 -1     30059    3    0    3
 -2      4126      4416      4156      5280
 -1     30060    3    0    3
 -2      3912      1699      3162      6149
 -1     30061    3    0    3
 -2      4126      4102      4416      5280
 -1     30062    3    0    3
 -2      2959      3020      3477      3506
 -1     30063    3    0    3
 -2      1699      3912      3162      4720
 -1     30064    3    0    3
 -2      5107       183       694       184
 -1     30065    3    0    3
 -2      4075      4716      4121      5280
 -1     30066    3    0    3
 -2      5234       983       977       746
 -1     30067    3    0    3
 -2      5281      4102      4075      5280
 -1     30068    3    0    3
 -2      5289      5290       845      5288
 -1     30069    3    0    3
 -2      6180      6183      2278      6187
 -1     30070    3    0    3
 -2      4718      4040      5282      4073
 -1     30071    3    0    3
 -2      4718      4075      4121      5282
 -1     30072    3    0    3
 -2      6175      1259      1277      6427
 -1     30073    3    0    3
 -2      5280      4416       910      6177
 -1     30074    3    0    3
 -2      5239      4416      3743      6177
 -1     30075    3    0    3
 -2      6418      3865      5300      6035
 -1     30076    3    0    3
 -2      5240      4145      3608      5242
 -1     30077    3    0    3
 -2      1290      5302      5303      6401
 -1     30078    3    0    3
 -2      6779      1380      6420      5297
 -1     30079    3    0    3
 -2      6779      1380      1358      1194
 -1     30080    3    0    3
 -2      4924       100      1771        99
 -1     30081    3    0    3
 -2       943      1241      5282      1120
 -1     30082    3    0    3
 -2      5282      4099      4073      4358
 -1     30083    3    0    3
 -2      3812      3221      5288      5286
 -1     30084    3    0    3
 -2      3988      4119      5284      3579
 -1     30085    3    0    3
 -2      5282      4358      5288      3988
 -1     30086    3    0    3
 -2       122       715       845      5288
 -1     30087    3    0    3
 -2      3220       122      3174      5288
 -1     30088    3    0    3
 -2      1007       700      1065      3579
 -1     30089    3    0    3
 -2      3207      3270      3251      4271
 -1     30090    3    0    3
 -2      3251       123      3220      5285
 -1     30091    3    0    3
 -2      4014      3984      5296      5283
 -1     30092    3    0    3
 -2      4014      5281      4075      5283
 -1     30093    3    0    3
 -2      4040      4358      5287      3685
 -1     30094    3    0    3
 -2      4719      4075      4040      5283
 -1     30095    3    0    3
 -2      4014      4719      3984      5283
 -1     30096    3    0    3
 -2      4014      4075      4719      5283
 -1     30097    3    0    3
 -2      1007      3988      3579      5279
 -1     30098    3    0    3
 -2      3220       123       715      5285
 -1     30099    3    0    3
 -2       123      3251       700      5285
 -1     30100    3    0    3
 -2       123       700       715      5285
 -1     30101    3    0    3
 -2      6757      2142      5770      2256
 -1     30102    3    0    3
 -2      5287      3812      4358      5286
 -1     30103    3    0    3
 -2      6586      3186      3975      3564
 -1     30104    3    0    3
 -2       715      1007      5288      5285
 -1     30105    3    0    3
 -2      1007       715       700      5285
 -1     30106    3    0    3
 -2      5284      3221      5288      5285
 -1     30107    3    0    3
 -2      5288      3221      3220      5285
 -1     30108    3    0    3
 -2      3220      3277      3251      5285
 -1     30109    3    0    3
 -2      3579      3988      4119      5279
 -1     30110    3    0    3
 -2      3221      5284      3277      5285
 -1     30111    3    0    3
 -2      3221      3277      3220      5285
 -1     30112    3    0    3
 -2      3500      4345      4682      3721
 -1     30113    3    0    3
 -2      3685      5283      1241      6431
 -1     30114    3    0    3
 -2      3685      5291      5283      6431
 -1     30115    3    0    3
 -2      4140      1978      4735      6143
 -1     30116    3    0    3
 -2       964      1190       949      6402
 -1     30117    3    0    3
 -2      5287      4358      4073      5286
 -1     30118    3    0    3
 -2      3221      5284      5288      5286
 -1     30119    3    0    3
 -2      4099      4358      3988      5286
 -1     30120    3    0    3
 -2      1065       702       971      6419
 -1     30121    3    0    3
 -2      4119      5284      4099      3988
 -1     30122    3    0    3
 -2      3462      4726      3495      5287
 -1     30123    3    0    3
 -2      4040      4726      3462      5287
 -1     30124    3    0    3
 -2      4040      4073      4726      5287
 -1     30125    3    0    3
 -2      5291      4040      4215      3685
 -1     30126    3    0    3
 -2      1193      5291       942      6431
 -1     30127    3    0    3
 -2      5283      1241      5282      3685
 -1     30128    3    0    3
 -2      5282      1241      5289      3685
 -1     30129    3    0    3
 -2      1241      1276      1193      6431
 -1     30130    3    0    3
 -2      3988      5288      5284      5286
 -1     30131    3    0    3
 -2      3988      5284      4099      5286
 -1     30132    3    0    3
 -2      3988      4358      5288      5286
 -1     30133    3    0    3
 -2      5288      4358      3812      5286
 -1     30134    3    0    3
 -2      3988      5285      1007      3579
 -1     30135    3    0    3
 -2      4271      3270      3251      6403
 -1     30136    3    0    3
 -2       700      1007      5285      3579
 -1     30137    3    0    3
 -2       700      3251       124      6403
 -1     30138    3    0    3
 -2      3175      4271      3225      6051
 -1     30139    3    0    3
 -2       999      4320      5189      6475
 -1     30140    3    0    3
 -2      5278      5276      4183      3731
 -1     30141    3    0    3
 -2       972      5198      1074      6153
 -1     30142    3    0    3
 -2      3251      3207      4271      3579
 -1     30143    3    0    3
 -2      3251      3277      3207      3579
 -1     30144    3    0    3
 -2      5276      4183      5277      6415
 -1     30145    3    0    3
 -2      4121      5277      5279      6417
 -1     30146    3    0    3
 -2      1970      6664      5712      2469
 -1     30147    3    0    3
 -2      3988      1007      5282      5279
 -1     30148    3    0    3
 -2       840      5218      3908      5219
 -1     30149    3    0    3
 -2      1120      5282      1007      6433
 -1     30150    3    0    3
 -2      4018      4514      4014      5294
 -1     30151    3    0    3
 -2      4715      4718      6176      4121
 -1     30152    3    0    3
 -2      6187      4676      2020      6180
 -1     30153    3    0    3
 -2      4119      4271      3579      5279
 -1     30154    3    0    3
 -2      4689      1978      1867      1977
 -1     30155    3    0    3
 -2      4121      4183      4715      5279
 -1     30156    3    0    3
 -2      4102      4716      5280      4126
 -1     30157    3    0    3
 -2      1527      6016      6035      5306
 -1     30158    3    0    3
 -2      4271      4119      4152      5279
 -1     30159    3    0    3
 -2      4716      4102      5280      4075
 -1     30160    3    0    3
 -2      5229      3947      4482      5228
 -1     30161    3    0    3
 -2      1119      1381      1120      6412
 -1     30162    3    0    3
 -2      1241      6427      5283      6743
 -1     30163    3    0    3
 -2      1119      1120      1121      6412
 -1     30164    3    0    3
 -2      5248      2996      4521      3710
 -1     30165    3    0    3
 -2      6430      5291      3984      6402
 -1     30166    3    0    3
 -2      6417      5282      6412      6433
 -1     30167    3    0    3
 -2      3032      5875      3083      5878
 -1     30168    3    0    3
 -2      1173      1121      5277       978
 -1     30169    3    0    3
 -2      6403       702      1065      6419
 -1     30170    3    0    3
 -2      5232      5229      4212      4327
 -1     30171    3    0    3
 -2      4327      5232      5229      3807
 -1     30172    3    0    3
 -2      1074      1129      1128      6769
 -1     30173    3    0    3
 -2      5280      6417      1121      6413
 -1     30174    3    0    3
 -2      3731      5278      5276      6153
 -1     30175    3    0    3
 -2      3787      5198      4634      3731
 -1     30176    3    0    3
 -2      5127      5126      3658       863
 -1     30177    3    0    3
 -2      5198       862       972      1074
 -1     30178    3    0    3
 -2      4212      5229      3947      4327
 -1     30179    3    0    3
 -2      3644      5234      5232      4327
 -1     30180    3    0    3
 -2       983       985      5230      6414
 -1     30181    3    0    3
 -2      6524      6563      5147      6517
 -1     30182    3    0    3
 -2      5277       977      4327      6170
 -1     30183    3    0    3
 -2      5232      4212      3644      4327
 -1     30184    3    0    3
 -2      3947      5230      5228      4063
 -1     30185    3    0    3
 -2      4482      5230      3947      5231
 -1     30186    3    0    3
 -2       977      5277      4327      3644
 -1     30187    3    0    3
 -2      5229      4236      4212      3947
 -1     30188    3    0    3
 -2      3761      3947      5228      4063
 -1     30189    3    0    3
 -2      3820      5416      4452      3325
 -1     30190    3    0    3
 -2      4152      6587      3181      3702
 -1     30191    3    0    3
 -2      3683      3485      4667      3709
 -1     30192    3    0    3
 -2      5234      5235      3644      4210
 -1     30193    3    0    3
 -2      4052      4187      5277      3644
 -1     30194    3    0    3
 -2      5234      4327      5231      3807
 -1     30195    3    0    3
 -2      2950      3617      5236      3503
 -1     30196    3    0    3
 -2      4187      4156      4671      5233
 -1     30197    3    0    3
 -2      1024      1121       978      6413
 -1     30198    3    0    3
 -2      3644      5235       978      6413
 -1     30199    3    0    3
 -2      3644      4212      5277      4327
 -1     30200    3    0    3
 -2       978      5277       977      3644
 -1     30201    3    0    3
 -2      6524       842      6559      6540
 -1     30202    3    0    3
 -2      3947      5276      4212      4327
 -1     30203    3    0    3
 -2      6170      5276      5277      6415
 -1     30204    3    0    3
 -2      4666      4311      3761      5228
 -1     30205    3    0    3
 -2      5276      4236      3761      3947
 -1     30206    3    0    3
 -2      3709      4311      4666      5228
 -1     30207    3    0    3
 -2      3683      3485      3709      3003
 -1     30208    3    0    3
 -2      1079       983      1080      6414
 -1     30209    3    0    3
 -2      4063      5276      3947      6414
 -1     30210    3    0    3
 -2      4187      4212      3644      5232
 -1     30211    3    0    3
 -2      4187      4671      3650      5233
 -1     30212    3    0    3
 -2      3683      4212      4670      5232
 -1     30213    3    0    3
 -2      3650      3683      4670      5232
 -1     30214    3    0    3
 -2      4670      4212      4187      5232
 -1     30215    3    0    3
 -2      4187      3650      4670      5232
 -1     30216    3    0    3
 -2      4327      5229      3947      5231
 -1     30217    3    0    3
 -2      3947      5229      4482      5231
 -1     30218    3    0    3
 -2      5230       847       983      5231
 -1     30219    3    0    3
 -2       746       983       847      5231
 -1     30220    3    0    3
 -2      5228      5230      4482      3517
 -1     30221    3    0    3
 -2      5121      5124      3813      4360
 -1     30222    3    0    3
 -2      3978      3570      3761      4563
 -1     30223    3    0    3
 -2      1080       983      5276      6414
 -1     30224    3    0    3
 -2      3517      5127      5125      4063
 -1     30225    3    0    3
 -2      5228      4311      3761      5125
 -1     30226    3    0    3
 -2      5228      3517      4311      5125
 -1     30227    3    0    3
 -2      2984      2950      3503      2889
 -1     30228    3    0    3
 -2      2954      2939      4482      3004
 -1     30229    3    0    3
 -2      6177      1124      1125      6426
 -1     30230    3    0    3
 -2      4676       444      1720      2903
 -1     30231    3    0    3
 -2      6435      6447      3760      5180
 -1     30232    3    0    3
 -2      5233      3503      3617      2889
 -1     30233    3    0    3
 -2      4671      4156      3617      5233
 -1     30234    3    0    3
 -2      3617      3650      4671      5233
 -1     30235    3    0    3
 -2      3617      4156      5236      5233
 -1     30236    3    0    3
 -2      5235      4052      3644      5233
 -1     30237    3    0    3
 -2      5235       196       713      2984
 -1     30238    3    0    3
 -2      4705      1897      2113      4704
 -1     30239    3    0    3
 -2      3807      4210      2891      2890
 -1     30240    3    0    3
 -2      3650      4210      5233      2889
 -1     30241    3    0    3
 -2      2947      3650      3617      2889
 -1     30242    3    0    3
 -2      3503      5236      4052      5233
 -1     30243    3    0    3
 -2      3503      3617      5236      5233
 -1     30244    3    0    3
 -2      4210      5232      3650      5233
 -1     30245    3    0    3
 -2      4210      3644      5232      5233
 -1     30246    3    0    3
 -2      4210      3503      5235      5233
 -1     30247    3    0    3
 -2      4210      5235      3644      5233
 -1     30248    3    0    3
 -2      5239       714       198      2983
 -1     30249    3    0    3
 -2      5240      4102      3743      5237
 -1     30250    3    0    3
 -2      3743      4301      5240      5237
 -1     30251    3    0    3
 -2      5234       983      4327       977
 -1     30252    3    0    3
 -2      3743      4102      4416      5237
 -1     30253    3    0    3
 -2      3914      5236      3586      5237
 -1     30254    3    0    3
 -2      3914      4416      5236      5237
 -1     30255    3    0    3
 -2      2950      3914      3011      2983
 -1     30256    3    0    3
 -2       909       789      5243      5242
 -1     30257    3    0    3
 -2      2952      5240      3529      3608
 -1     30258    3    0    3
 -2      2952      3529      2951      3608
 -1     30259    3    0    3
 -2      4145      5241      5240      3608
 -1     30260    3    0    3
 -2      5240      3529      3560      2952
 -1     30261    3    0    3
 -2      4301      5240      3560      2952
 -1     30262    3    0    3
 -2      3011      4301      3560      2952
 -1     30263    3    0    3
 -2      3608      4301      5240      5242
 -1     30264    3    0    3
 -2      2952      4301      5240      3608
 -1     30265    3    0    3
 -2      3608      5243      2949      5242
 -1     30266    3    0    3
 -2       789      2949      5243      5242
 -1     30267    3    0    3
 -2      2995      3710      3473      2996
 -1     30268    3    0    3
 -2       714       844       910      5239
 -1     30269    3    0    3
 -2       714       198       844      5239
 -1     30270    3    0    3
 -2      5237      3914      4416      5239
 -1     30271    3    0    3
 -2      6426      6177      5281      6412
 -1     30272    3    0    3
 -2      3914      5237      4301      5239
 -1     30273    3    0    3
 -2       197      5238       714       713
 -1     30274    3    0    3
 -2      5235      4210      2890      2984
 -1     30275    3    0    3
 -2      3683      5229      5232      3807
 -1     30276    3    0    3
 -2      5276       983      3947      6414
 -1     30277    3    0    3
 -2      4327      5234      5232      3807
 -1     30278    3    0    3
 -2      6501      4064      4096      5172
 -1     30279    3    0    3
 -2      6501      4064      5171      4096
 -1     30280    3    0    3
 -2      6583      4561      6174      3978
 -1     30281    3    0    3
 -2      6501      4064      5172      6488
 -1     30282    3    0    3
 -2       977      1080       983      6170
 -1     30283    3    0    3
 -2      6583      4561      4664      2016
 -1     30284    3    0    3
 -2      4327      5276      5277      6170
 -1     30285    3    0    3
 -2       713       196       197      2984
 -1     30286    3    0    3
 -2      3914      2950      3503      2983
 -1     30287    3    0    3
 -2      4482      2938      5231      3807
 -1     30288    3    0    3
 -2      3517      2929      2954      3004
 -1     30289    3    0    3
 -2       847      2929       193      2954
 -1     30290    3    0    3
 -2       847       193       194      2954
 -1     30291    3    0    3
 -2      6435      6447      5180      1122
 -1     30292    3    0    3
 -2      4332      3819      4219      3006
 -1     30293    3    0    3
 -2      4332      5125      4219      5124
 -1     30294    3    0    3
 -2       199       844       198      2931
 -1     30295    3    0    3
 -2      2984      4210      2890      2889
 -1     30296    3    0    3
 -2      2890      4210      2891      2889
 -1     30297    3    0    3
 -2       713       197      5238      2984
 -1     30298    3    0    3
 -2      3503      5238      3914      2983
 -1     30299    3    0    3
 -2      2983      2950      3503      2984
 -1     30300    3    0    3
 -2      5238       714      5239      2983
 -1     30301    3    0    3
 -2      3011      3914      4301      2983
 -1     30302    3    0    3
 -2      2949      2952      3608      2931
 -1     30303    3    0    3
 -2      5239      5242      4301      2931
 -1     30304    3    0    3
 -2      2996      3473      4521      3710
 -1     30305    3    0    3
 -2       844      5242      5239      2931
 -1     30306    3    0    3
 -2      5239       198       844      2931
 -1     30307    3    0    3
 -2      5239      4301      2983      2931
 -1     30308    3    0    3
 -2       198      5239      2983      2931
 -1     30309    3    0    3
 -2      5229      3683      3709      2939
 -1     30310    3    0    3
 -2      5229      3709      4482      2939
 -1     30311    3    0    3
 -2      3807      3683      5229      2939
 -1     30312    3    0    3
 -2      3807      5229      4482      2939
 -1     30313    3    0    3
 -2      1091      6456      5192      5905
 -1     30314    3    0    3
 -2      3819      4219      5126      5124
 -1     30315    3    0    3
 -2      4311      4666      3761      4563
 -1     30316    3    0    3
 -2      6774      5718      6773      1865
 -1     30317    3    0    3
 -2      5147      5132      6524      4290
 -1     30318    3    0    3
 -2      3003      3709      2939      3004
 -1     30319    3    0    3
 -2      3003      2887      3485      2888
 -1     30320    3    0    3
 -2      6173      2027      6030      4714
 -1     30321    3    0    3
 -2      6521      5163      6518      4209
 -1     30322    3    0    3
 -2      6521      5163      4209      5153
 -1     30323    3    0    3
 -2      5197       697      6457       963
 -1     30324    3    0    3
 -2      5278      4714      3702      3731
 -1     30325    3    0    3
 -2      4553      2081      3692      4552
 -1     30326    3    0    3
 -2      3813      5124      4562      4360
 -1     30327    3    0    3
 -2      1746      6584      2044      4556
 -1     30328    3    0    3
 -2      5120      5122      4120      3554
 -1     30329    3    0    3
 -2      5122       922      3961      5123
 -1     30330    3    0    3
 -2      4562      4036      3813      4559
 -1     30331    3    0    3
 -2      2899      5113      4496      4471
 -1     30332    3    0    3
 -2      4160      3223      4638      4637
 -1     30333    3    0    3
 -2      5113      5112      4027      4496
 -1     30334    3    0    3
 -2      2898      4496      4302      4551
 -1     30335    3    0    3
 -2      4496      2897      2899      2898
 -1     30336    3    0    3
 -2       660      2977       181       182
 -1     30337    3    0    3
 -2      5111      2970      5110       695
 -1     30338    3    0    3
 -2      5117      3554      3906      3875
 -1     30339    3    0    3
 -2      5123      4492      3819      5121
 -1     30340    3    0    3
 -2      5119       930       797       839
 -1     30341    3    0    3
 -2      4664      1875      2016      4561
 -1     30342    3    0    3
 -2      5114      5112      3451      4158
 -1     30343    3    0    3
 -2      1004      5111       695       750
 -1     30344    3    0    3
 -2      3843      5195      4336      3961
 -1     30345    3    0    3
 -2      6474      4072      4443      5206
 -1     30346    3    0    3
 -2      5125      5127      3658      4063
 -1     30347    3    0    3
 -2      2899      2961      3015      4397
 -1     30348    3    0    3
 -2      4220      3595      3823      3017
 -1     30349    3    0    3
 -2      4554      3613      2962      4247
 -1     30350    3    0    3
 -2       129      5208      3184       696
 -1     30351    3    0    3
 -2      1356      6159      1589      1316
 -1     30352    3    0    3
 -2      1029      5118      5115       829
 -1     30353    3    0    3
 -2      4553      2081      4552      1756
 -1     30354    3    0    3
 -2      3005      3004      3006      4332
 -1     30355    3    0    3
 -2      3002       806      5246       716
 -1     30356    3    0    3
 -2      5230      5127       985       848
 -1     30357    3    0    3
 -2       182      5106      2993       183
 -1     30358    3    0    3
 -2      5203      5208      3487      6155
 -1     30359    3    0    3
 -2      3621      3870      4639      3835
 -1     30360    3    0    3
 -2      3813      4036      3570      4632
 -1     30361    3    0    3
 -2      3819      5123      5121      4336
 -1     30362    3    0    3
 -2       930      4251      5119      6449
 -1     30363    3    0    3
 -2      4336      3813      3658      5196
 -1     30364    3    0    3
 -2      3658      3761      5125      4063
 -1     30365    3    0    3
 -2      3761      5228      5125      4063
 -1     30366    3    0    3
 -2      3006      4219      2929      2930
 -1     30367    3    0    3
 -2      4219      5126      2929      2930
 -1     30368    3    0    3
 -2      4139      4508      4563      4561
 -1     30369    3    0    3
 -2      4332      3819      3006      4360
 -1     30370    3    0    3
 -2      2929       847       193       848
 -1     30371    3    0    3
 -2       190       804      2885       191
 -1     30372    3    0    3
 -2      2930      4219      5126      3819
 -1     30373    3    0    3
 -2      5119      2918      2884      4120
 -1     30374    3    0    3
 -2      3991      3932      5182      5188
 -1     30375    3    0    3
 -2      3554      5120      3843      3875
 -1     30376    3    0    3
 -2      3724      2918      5119      4120
 -1     30377    3    0    3
 -2      2921      2897      2899      4027
 -1     30378    3    0    3
 -2      2899      3015      2921      4027
 -1     30379    3    0    3
 -2      1192      1029      1092      6456
 -1     30380    3    0    3
 -2      3554      4251      5117      3906
 -1     30381    3    0    3
 -2      5116      4397      2961      4471
 -1     30382    3    0    3
 -2      4055      3506      5108      4546
 -1     30383    3    0    3
 -2      6199      3908       840      6204
 -1     30384    3    0    3
 -2      4549      3748      4548      6166
 -1     30385    3    0    3
 -2      2921      4027      5115      5114
 -1     30386    3    0    3
 -2      3895      3487      5208      6155
 -1     30387    3    0    3
 -2      3858      5115      5113      3451
 -1     30388    3    0    3
 -2      3621      3870      4091      4639
 -1     30389    3    0    3
 -2      5115      2921      5114       828
 -1     30390    3    0    3
 -2      2961      2898      2962      4471
 -1     30391    3    0    3
 -2      2918      3015      2961      4397
 -1     30392    3    0    3
 -2      5121      5123      4492      3961
 -1     30393    3    0    3
 -2      3015      2918      5118      4397
 -1     30394    3    0    3
 -2      4158      5111      5114      3618
 -1     30395    3    0    3
 -2      4548      4302      2945      3676
 -1     30396    3    0    3
 -2      4158      5111      3760      6435
 -1     30397    3    0    3
 -2      5115      4027      3015      4397
 -1     30398    3    0    3
 -2      5113      4027      5115      4397
 -1     30399    3    0    3
 -2      2918      5119      5118      3724
 -1     30400    3    0    3
 -2      2930      5126      5123      3819
 -1     30401    3    0    3
 -2      4397      2918      5118      3724
 -1     30402    3    0    3
 -2      3676      4548      4302      4550
 -1     30403    3    0    3
 -2      1746      6584      4556      4553
 -1     30404    3    0    3
 -2      5180      3962      5182      4021
 -1     30405    3    0    3
 -2      5106       660       182      5103
 -1     30406    3    0    3
 -2      4360      4197      4559      4386
 -1     30407    3    0    3
 -2      3004      4219      3006      4332
 -1     30408    3    0    3
 -2      5119      2884      5122      4120
 -1     30409    3    0    3
 -2      4302      2945      2898      2942
 -1     30410    3    0    3
 -2      4554      4444      3906      4555
 -1     30411    3    0    3
 -2      2044      4556      1706      1746
 -1     30412    3    0    3
 -2      3858      5113      4397      5116
 -1     30413    3    0    3
 -2      3965      5113      3858      3936
 -1     30414    3    0    3
 -2      4553      3692      4095      4555
 -1     30415    3    0    3
 -2      5196      3813      3658      3789
 -1     30416    3    0    3
 -2      6448      5110       893      6447
 -1     30417    3    0    3
 -2      3843      5121      5120      3961
 -1     30418    3    0    3
 -2      5117      2920      4120      4410
 -1     30419    3    0    3
 -2      2962      4444      2961      4471
 -1     30420    3    0    3
 -2      1091      6456      5905      1148
 -1     30421    3    0    3
 -2      3551      4553      4095      4555
 -1     30422    3    0    3
 -2      2929      3517      5230      5127
 -1     30423    3    0    3
 -2      5123      5122      4492      3961
 -1     30424    3    0    3
 -2      3517      5228      5230      4063
 -1     30425    3    0    3
 -2      3517      5230      5127      4063
 -1     30426    3    0    3
 -2      5127      4219      3517      5125
 -1     30427    3    0    3
 -2      5127      3658      4219      5125
 -1     30428    3    0    3
 -2      6524      6563      6540      5132
 -1     30429    3    0    3
 -2      4327       977      3644      5234
 -1     30430    3    0    3
 -2      4492      2885      5123      3819
 -1     30431    3    0    3
 -2      2930      5123      2885      3819
 -1     30432    3    0    3
 -2      4332      4311      5125      4563
 -1     30433    3    0    3
 -2      3570      3978      3761      4632
 -1     30434    3    0    3
 -2      5121      4559      4386      4360
 -1     30435    3    0    3
 -2      3789      4332      5125      4563
 -1     30436    3    0    3
 -2      3819      4492      2885      2964
 -1     30437    3    0    3
 -2      4492      2919      2885      2964
 -1     30438    3    0    3
 -2      5122      4120      4492      5120
 -1     30439    3    0    3
 -2      3658      3813      5124      3789
 -1     30440    3    0    3
 -2      4554      2962      4444      4247
 -1     30441    3    0    3
 -2      3731      5196      3761      4632
 -1     30442    3    0    3
 -2      2964      3819      4492      5121
 -1     30443    3    0    3
 -2      2158      2128      2129      6173
 -1     30444    3    0    3
 -2       709      6458       863       922
 -1     30445    3    0    3
 -2      4580      2240      6566      6570
 -1     30446    3    0    3
 -2      5120      3843      3961      3554
 -1     30447    3    0    3
 -2      4197      2963      3022      2956
 -1     30448    3    0    3
 -2      3875      4631      3839      4095
 -1     30449    3    0    3
 -2      4336      5123      5121      3961
 -1     30450    3    0    3
 -2      5124      5125      3658      3789
 -1     30451    3    0    3
 -2      4559      4558      3843      4386
 -1     30452    3    0    3
 -2      3875      5192      4628      3839
 -1     30453    3    0    3
 -2      1091      1191      1147      5905
 -1     30454    3    0    3
 -2      5117      4120      5120      4410
 -1     30455    3    0    3
 -2      3692      3875      4628      4095
 -1     30456    3    0    3
 -2       709      6458       922      5123
 -1     30457    3    0    3
 -2      5121      3819      5124      4360
 -1     30458    3    0    3
 -2      1091      6456      1148      1092
 -1     30459    3    0    3
 -2      5121      2964      3819      4360
 -1     30460    3    0    3
 -2      3006      3819      2964      4360
 -1     30461    3    0    3
 -2      3875      5117      5120      4410
 -1     30462    3    0    3
 -2      4558      5120      3843      4386
 -1     30463    3    0    3
 -2      4120      2919      4492      5120
 -1     30464    3    0    3
 -2      4302      2898      3613      2942
 -1     30465    3    0    3
 -2      3629      4558      4559      4197
 -1     30466    3    0    3
 -2      4063      3761      5276      5196
 -1     30467    3    0    3
 -2      4063      3658      3761      5196
 -1     30468    3    0    3
 -2      5126      3819      5124      4336
 -1     30469    3    0    3
 -2      3819      5121      5124      4336
 -1     30470    3    0    3
 -2      3843      3813      5121      4336
 -1     30471    3    0    3
 -2      5195      3813      3843      4336
 -1     30472    3    0    3
 -2       922      5195      3961      6458
 -1     30473    3    0    3
 -2      1075      1071      1074      6153
 -1     30474    3    0    3
 -2      5122      5119      4120      3554
 -1     30475    3    0    3
 -2      4492      5122      5120      3961
 -1     30476    3    0    3
 -2      5120      5121      4492      3961
 -1     30477    3    0    3
 -2      4120      5120      3554      5117
 -1     30478    3    0    3
 -2      5117      5120      3554      3875
 -1     30479    3    0    3
 -2      3961      3843      5195      3554
 -1     30480    3    0    3
 -2       863      3658      5196      6458
 -1     30481    3    0    3
 -2      4336      3658      5126      6458
 -1     30482    3    0    3
 -2      4553      2081      1756      1945
 -1     30483    3    0    3
 -2      4560      2886      4139      4561
 -1     30484    3    0    3
 -2      4072       704       900       989
 -1     30485    3    0    3
 -2      4194      5202      5203      1028
 -1     30486    3    0    3
 -2      4030      3564      4644      4643
 -1     30487    3    0    3
 -2      1071      5276      5278      6153
 -1     30488    3    0    3
 -2      4072       704      5206      6474
 -1     30489    3    0    3
 -2      1091      1147      1148      5905
 -1     30490    3    0    3
 -2      4282      3784      5197      3756
 -1     30491    3    0    3
 -2       312      1725      1724      4638
 -1     30492    3    0    3
 -2      3185      3756      3159      3158
 -1     30493    3    0    3
 -2       696      1028      5203       708
 -1     30494    3    0    3
 -2      4072       704       989      5206
 -1     30495    3    0    3
 -2       863      5126      3658      6458
 -1     30496    3    0    3
 -2      4553      2081      1945      3692
 -1     30497    3    0    3
 -2      1191       963      5197      6459
 -1     30498    3    0    3
 -2      3487      5208      5207      3895
 -1     30499    3    0    3
 -2      3784      3250      3895      5207
 -1     30500    3    0    3
 -2      5198      4634      3702      3756
 -1     30501    3    0    3
 -2      5197      3839      3787      4633
 -1     30502    3    0    3
 -2      3756      5198      4634      3787
 -1     30503    3    0    3
 -2      3784      3250      3185      3895
 -1     30504    3    0    3
 -2      6685      6106      2530      4810
 -1     30505    3    0    3
 -2      5673      1367      1338      5551
 -1     30506    3    0    3
 -2      5203      3487      4194      6155
 -1     30507    3    0    3
 -2      1147      1011      1028      6155
 -1     30508    3    0    3
 -2      1932      4633      1963      2215
 -1     30509    3    0    3
 -2      4444      2961      2920      2960
 -1     30510    3    0    3
 -2      3809      3487      5207      3895
 -1     30511    3    0    3
 -2      3487      3809      5197      3895
 -1     30512    3    0    3
 -2      4072       704      6474       900
 -1     30513    3    0    3
 -2       922      3961      5123      6458
 -1     30514    3    0    3
 -2      4336      5126      5123      6458
 -1     30515    3    0    3
 -2      5205      5206      3494      3192
 -1     30516    3    0    3
 -2      2748      4828      2740      4195
 -1     30517    3    0    3
 -2      4616      4254      3802      6591
 -1     30518    3    0    3
 -2      5208      3487      5207      5201
 -1     30519    3    0    3
 -2      2005      4650      6610      1835
 -1     30520    3    0    3
 -2      3487      3809      5207      5201
 -1     30521    3    0    3
 -2      5194      6456      6078      1148
 -1     30522    3    0    3
 -2      4160      4639      4379      4353
 -1     30523    3    0    3
 -2      3895      5208      5207      3250
 -1     30524    3    0    3
 -2      4631      5195      3813      3843
 -1     30525    3    0    3
 -2      2177      4631      2044      2174
 -1     30526    3    0    3
 -2      6608      1781      1950      4660
 -1     30527    3    0    3
 -2      3932      3962      5193      4629
 -1     30528    3    0    3
 -2      3867      3265      3192      3264
 -1     30529    3    0    3
 -2      5200      5201      4194      3627
 -1     30530    3    0    3
 -2      3794      5200      4194      5202
 -1     30531    3    0    3
 -2      3202       134      3191       719
 -1     30532    3    0    3
 -2      5114       186      2921      2922
 -1     30533    3    0    3
 -2      5204      3197      4315      3627
 -1     30534    3    0    3
 -2      5204      5202      5203      3627
 -1     30535    3    0    3
 -2      3731      3787      5196      4632
 -1     30536    3    0    3
 -2      3627      3281      5201      3184
 -1     30537    3    0    3
 -2      4715      4152      5279      4183
 -1     30538    3    0    3
 -2      5182      3962      5193      3932
 -1     30539    3    0    3
 -2      5199      4072       900      6471
 -1     30540    3    0    3
 -2      5119      4251      3554      6449
 -1     30541    3    0    3
 -2      2081      4628      3692      6168
 -1     30542    3    0    3
 -2      3477      2969      5109      3448
 -1     30543    3    0    3
 -2      5710      4047      4617      6618
 -1     30544    3    0    3
 -2      3932      6788      3962      4629
 -1     30545    3    0    3
 -2      4158      3760      5180      6435
 -1     30546    3    0    3
 -2      5197      3756      4633      3787
 -1     30547    3    0    3
 -2      4310      2969      2970      2922
 -1     30548    3    0    3
 -2      2377      6592      6788      2333
 -1     30549    3    0    3
 -2       989      5190      5188      4072
 -1     30550    3    0    3
 -2      4545      4350      4547      3676
 -1     30551    3    0    3
 -2      4628      5192      3906      3936
 -1     30552    3    0    3
 -2      4444      5117      5116      3906
 -1     30553    3    0    3
 -2      4397      5118      5115      3858
 -1     30554    3    0    3
 -2      5115      5113      4397      3858
 -1     30555    3    0    3
 -2      4021      3962      4618      4616
 -1     30556    3    0    3
 -2      5114      4027      5115      3451
 -1     30557    3    0    3
 -2      4027      5113      5115      3451
 -1     30558    3    0    3
 -2      5112      5113      4027      3451
 -1     30559    3    0    3
 -2      5112      4027      5114      3451
 -1     30560    3    0    3
 -2      3554      5122      5119      6449
 -1     30561    3    0    3
 -2      4444      3724      2961      5116
 -1     30562    3    0    3
 -2      4251      3724      5119      5117
 -1     30563    3    0    3
 -2      3961      5122      5120      3554
 -1     30564    3    0    3
 -2       923      5115       828       829
 -1     30565    3    0    3
 -2      6078      5193      1294      6434
 -1     30566    3    0    3
 -2      4627      3748      3965      3936
 -1     30567    3    0    3
 -2      5193      3962      5191      3905
 -1     30568    3    0    3
 -2      3906      5117      3875      4555
 -1     30569    3    0    3
 -2      3724      5119      5118      4251
 -1     30570    3    0    3
 -2      5120      4120      2919      4410
 -1     30571    3    0    3
 -2      5119      3724      4120      5117
 -1     30572    3    0    3
 -2      2920      3724      4444      5117
 -1     30573    3    0    3
 -2      3724      2920      4120      5117
 -1     30574    3    0    3
 -2      5116      5117      4251      3906
 -1     30575    3    0    3
 -2      4558      3875      5120      4410
 -1     30576    3    0    3
 -2      3629      4036      4557      4559
 -1     30577    3    0    3
 -2      3692      4628      3936      4147
 -1     30578    3    0    3
 -2      4627      3936      4628      4147
 -1     30579    3    0    3
 -2      3813      4036      3843      4559
 -1     30580    3    0    3
 -2      3936      4627      3748      4147
 -1     30581    3    0    3
 -2      3858      4397      5118      5116
 -1     30582    3    0    3
 -2      5118      4397      3724      5116
 -1     30583    3    0    3
 -2      4251      3858      5118      5116
 -1     30584    3    0    3
 -2      5118      3724      4251      5116
 -1     30585    3    0    3
 -2      5117      3724      4444      5116
 -1     30586    3    0    3
 -2      5117      4251      3724      5116
 -1     30587    3    0    3
 -2      3618      5112      5109      3448
 -1     30588    3    0    3
 -2      3451      5112      5113      3965
 -1     30589    3    0    3
 -2      5191      3451      3965      4158
 -1     30590    3    0    3
 -2      3451      3858      5191      3965
 -1     30591    3    0    3
 -2      5113      3858      3451      3965
 -1     30592    3    0    3
 -2      6603      4202      6659      6212
 -1     30593    3    0    3
 -2      3936      5113      4471      4551
 -1     30594    3    0    3
 -2      5116      3858      5113      3936
 -1     30595    3    0    3
 -2      4550      3965      3748      4551
 -1     30596    3    0    3
 -2      5116      4251      3858      3906
 -1     30597    3    0    3
 -2      5192      3858      4251      3906
 -1     30598    3    0    3
 -2      3748      4302      4548      4550
 -1     30599    3    0    3
 -2      4055      3802      4022      4616
 -1     30600    3    0    3
 -2      3995      5191      4158      6768
 -1     30601    3    0    3
 -2      2897      5112      3618      3448
 -1     30602    3    0    3
 -2      4027      5112      5114      3618
 -1     30603    3    0    3
 -2      3519      4065      5105      5107
 -1     30604    3    0    3
 -2      5187      5188      3991      6452
 -1     30605    3    0    3
 -2      5106      4065      3660      5104
 -1     30606    3    0    3
 -2      3016      3730      4350      3477
 -1     30607    3    0    3
 -2      5112      4027      2897      3618
 -1     30608    3    0    3
 -2      4338      5103       984      6444
 -1     30609    3    0    3
 -2      5109      5108      4022      3760
 -1     30610    3    0    3
 -2      4547      5109      4022      3995
 -1     30611    3    0    3
 -2      3448      2969      2897      3016
 -1     30612    3    0    3
 -2      1280      1118      1095      5724
 -1     30613    3    0    3
 -2      5112      3965      4158      3995
 -1     30614    3    0    3
 -2      3448      5109      4547      3995
 -1     30615    3    0    3
 -2      5657      4742      3891      6731
 -1     30616    3    0    3
 -2      4158      5112      5109      3618
 -1     30617    3    0    3
 -2      5179      4105      4080      6129
 -1     30618    3    0    3
 -2      3932      6788      4629      6469
 -1     30619    3    0    3
 -2      2305      2211      2043      6575
 -1     30620    3    0    3
 -2      6479      4076      4620      6513
 -1     30621    3    0    3
 -2      4310      5108      2959      3477
 -1     30622    3    0    3
 -2      3760      5111      5109      4310
 -1     30623    3    0    3
 -2      4655      3923      4427      4231
 -1     30624    3    0    3
 -2      3862      4055      4543      4082
 -1     30625    3    0    3
 -2      3760      5108      4022      4432
 -1     30626    3    0    3
 -2      6199      3908      6204      5213
 -1     30627    3    0    3
 -2      4158      5114      5112      3618
 -1     30628    3    0    3
 -2      6144      4239      4580      6566
 -1     30629    3    0    3
 -2      5122      3961       970      6449
 -1     30630    3    0    3
 -2      3554      3961      5122      6449
 -1     30631    3    0    3
 -2       225         9       801       477
 -1     30632    3    0    3
 -2      3995      3962      5191      6768
 -1     30633    3    0    3
 -2      1030      5114       828       923
 -1     30634    3    0    3
 -2      5112      4158      5109      3995
 -1     30635    3    0    3
 -2      3191      5206      3242      3192
 -1     30636    3    0    3
 -2      1095      6441      6448      1096
 -1     30637    3    0    3
 -2      4055      5108      4022      4546
 -1     30638    3    0    3
 -2      1312      1299      1298      6452
 -1     30639    3    0    3
 -2      1095      6441      1096      1355
 -1     30640    3    0    3
 -2      4022      5109      3760      4158
 -1     30641    3    0    3
 -2       750      1004      5111      1030
 -1     30642    3    0    3
 -2      6482      3561      6607      1864
 -1     30643    3    0    3
 -2      2511      6504      2509      2686
 -1     30644    3    0    3
 -2      1317      6159      1316      1520
 -1     30645    3    0    3
 -2      1317      6159      1520      5174
 -1     30646    3    0    3
 -2      4432      5179      5180      6447
 -1     30647    3    0    3
 -2      4432      4065      5179      6448
 -1     30648    3    0    3
 -2      1312      5188      5187      6452
 -1     30649    3    0    3
 -2      5191      6780      5193      6434
 -1     30650    3    0    3
 -2      6436      3954      4135      4626
 -1     30651    3    0    3
 -2      4752       295      1885      3187
 -1     30652    3    0    3
 -2      4536      3837      4533      4354
 -1     30653    3    0    3
 -2      5099      5098      3557       980
 -1     30654    3    0    3
 -2      4581      4292      4579      6571
 -1     30655    3    0    3
 -2      4432      5108      4022      4055
 -1     30656    3    0    3
 -2      6605      2579      2581      4619
 -1     30657    3    0    3
 -2      5182      1285      1299      1298
 -1     30658    3    0    3
 -2      6064      4080      6129      5178
 -1     30659    3    0    3
 -2      5691       690       925       992
 -1     30660    3    0    3
 -2      3954      4625      4623      6439
 -1     30661    3    0    3
 -2      4612      4129      4611      6154
 -1     30662    3    0    3
 -2      1096      1286      1355      6441
 -1     30663    3    0    3
 -2      3506      5108      5105      4055
 -1     30664    3    0    3
 -2      6462      2674      2700      6463
 -1     30665    3    0    3
 -2      4047      5181      4080      5178
 -1     30666    3    0    3
 -2      4622      4017      4625      6479
 -1     30667    3    0    3
 -2      2240      6139      6144      2239
 -1     30668    3    0    3
 -2      1280      1442      1314      6443
 -1     30669    3    0    3
 -2      4617      2312      2539      2547
 -1     30670    3    0    3
 -2      3862      4105      4615      4082
 -1     30671    3    0    3
 -2      4080      4047      5178      4614
 -1     30672    3    0    3
 -2      4105      5104      4065      4082
 -1     30673    3    0    3
 -2      4157      5177      5183      4103
 -1     30674    3    0    3
 -2      5105      5108      4432      4055
 -1     30675    3    0    3
 -2      4458      4538      4536      3922
 -1     30676    3    0    3
 -2      4536      4537      4458      3922
 -1     30677    3    0    3
 -2      2958      3519      3929      2957
 -1     30678    3    0    3
 -2      4080      5181      5179      6129
 -1     30679    3    0    3
 -2      2133      2362      2210      6439
 -1     30680    3    0    3
 -2      5177      4157      5183      6163
 -1     30681    3    0    3
 -2      4338      4220      3660      5101
 -1     30682    3    0    3
 -2      5175      3557       980      6193
 -1     30683    3    0    3
 -2      4190      5096      3655      4534
 -1     30684    3    0    3
 -2      5099      3963      5102      6193
 -1     30685    3    0    3
 -2      5714      5178      5177      6070
 -1     30686    3    0    3
 -2      5176      4338       984      6444
 -1     30687    3    0    3
 -2      2905      5099      4494      2974
 -1     30688    3    0    3
 -2      3557      5099       980      6193
 -1     30689    3    0    3
 -2      3180      6607      3561      3178
 -1     30690    3    0    3
 -2      5175      3963      3557      6193
 -1     30691    3    0    3
 -2      5110      4432      3760      6447
 -1     30692    3    0    3
 -2      2240      6139      2239      2037
 -1     30693    3    0    3
 -2      4494      3655      3623      5097
 -1     30694    3    0    3
 -2      4494      3655      5097      4125
 -1     30695    3    0    3
 -2      1217      6498      6184      1392
 -1     30696    3    0    3
 -2      5179      3660      4105      6129
 -1     30697    3    0    3
 -2      6064      5176      5175      6193
 -1     30698    3    0    3
 -2      4614      4047      5178      4103
 -1     30699    3    0    3
 -2      4264      4464      4038      4580
 -1     30700    3    0    3
 -2      1491      1591      5183      6188
 -1     30701    3    0    3
 -2      4580      1985      2037      2240
 -1     30702    3    0    3
 -2      1457      1652      1458      5714
 -1     30703    3    0    3
 -2      5100      5102      4338      3823
 -1     30704    3    0    3
 -2      4612      4305      4131      4105
 -1     30705    3    0    3
 -2       980      5099      5098       850
 -1     30706    3    0    3
 -2      5724      1280      1118      6129
 -1     30707    3    0    3
 -2      4542      4539      4305      4105
 -1     30708    3    0    3
 -2      3660      5106      5104      4220
 -1     30709    3    0    3
 -2      3929      3533      5105      3519
 -1     30710    3    0    3
 -2      6520      1665      1407      6516
 -1     30711    3    0    3
 -2      1922      5043      2026      3466
 -1     30712    3    0    3
 -2      5106       984      5103      6444
 -1     30713    3    0    3
 -2      4253      5093      5096      4216
 -1     30714    3    0    3
 -2      4253      5175      5144      4216
 -1     30715    3    0    3
 -2      4190      4216      5096      4534
 -1     30716    3    0    3
 -2      4494      3595      3823      5100
 -1     30717    3    0    3
 -2      4494      3595      5100      3623
 -1     30718    3    0    3
 -2      1170      5175       980      6193
 -1     30719    3    0    3
 -2      2975      5093      3688      3728
 -1     30720    3    0    3
 -2      4233      6521      5153      6122
 -1     30721    3    0    3
 -2      4253      3861      5093      4216
 -1     30722    3    0    3
 -2      3786      3533      4401      3023
 -1     30723    3    0    3
 -2       984      5102      5103      4338
 -1     30724    3    0    3
 -2      3660      5176      4338      4131
 -1     30725    3    0    3
 -2      3557      5099      3963      5097
 -1     30726    3    0    3
 -2      3206      6149      3198      4348
 -1     30727    3    0    3
 -2      2987      2977      2974      3823
 -1     30728    3    0    3
 -2      3533      5104      4542      4082
 -1     30729    3    0    3
 -2      2993      5106      5103      4220
 -1     30730    3    0    3
 -2      4543      5105      3533      4082
 -1     30731    3    0    3
 -2      2975      5093      3728      4400
 -1     30732    3    0    3
 -2      3786      4458      2972      4537
 -1     30733    3    0    3
 -2      5105      3533      5104      3519
 -1     30734    3    0    3
 -2      4539      4131      4538      3922
 -1     30735    3    0    3
 -2      5099       180      2974      2905
 -1     30736    3    0    3
 -2      5103      5106      3660      4220
 -1     30737    3    0    3
 -2      2975      5093      3713      3688
 -1     30738    3    0    3
 -2      4253      5144      3861      4216
 -1     30739    3    0    3
 -2      3007      2989      3655      4510
 -1     30740    3    0    3
 -2       424      3018      4532      3019
 -1     30741    3    0    3
 -2      3837      4458      2985      4538
 -1     30742    3    0    3
 -2      3565      3519      3533      2958
 -1     30743    3    0    3
 -2      2993      3017      4220      2977
 -1     30744    3    0    3
 -2      1846      3018      4529      4532
 -1     30745    3    0    3
 -2       427      1850      2972       426
 -1     30746    3    0    3
 -2      2972      2985      2968      4458
 -1     30747    3    0    3
 -2      3552      3134      3098      3124
 -1     30748    3    0    3
 -2      3623      2985      3595      4538
 -1     30749    3    0    3
 -2      3623      3837      2985      4538
 -1     30750    3    0    3
 -2      2152      2211      4615      2042
 -1     30751    3    0    3
 -2      5176      3963      4131      4162
 -1     30752    3    0    3
 -2      3786      2900      4401      4540
 -1     30753    3    0    3
 -2      4458      2985      2968      3837
 -1     30754    3    0    3
 -2      1029      5119      4251      5118
 -1     30755    3    0    3
 -2      5097      5096      3655      4190
 -1     30756    3    0    3
 -2      3546      6543      3842      1027
 -1     30757    3    0    3
 -2      5096      3557      5097      4125
 -1     30758    3    0    3
 -2      2989      2988      3008      3655
 -1     30759    3    0    3
 -2      4131      4354      4612      4162
 -1     30760    3    0    3
 -2      4220      3595      3565      5101
 -1     30761    3    0    3
 -2      3093      3552      3960      3098
 -1     30762    3    0    3
 -2       956      1408      1066      6142
 -1     30763    3    0    3
 -2       923      3451      3858      5191
 -1     30764    3    0    3
 -2      6788      2377      2370      6469
 -1     30765    3    0    3
 -2      6788      2377      2333      2370
 -1     30766    3    0    3
 -2      4229      6511      5160      6119
 -1     30767    3    0    3
 -2      2969      3618      5109      3448
 -1     30768    3    0    3
 -2      1845       424      4532      3019
 -1     30769    3    0    3
 -2      2977      2987      3017      3823
 -1     30770    3    0    3
 -2      5103      4338      5102      3823
 -1     30771    3    0    3
 -2      3206      6149      4348      3912
 -1     30772    3    0    3
 -2      5104      5106      4065      3519
 -1     30773    3    0    3
 -2      3017      3519      2958      2993
 -1     30774    3    0    3
 -2      3016      3730      3020      2893
 -1     30775    3    0    3
 -2      3519      5106      4065      5107
 -1     30776    3    0    3
 -2      3477      3020      3730      3506
 -1     30777    3    0    3
 -2       184      2970       185       695
 -1     30778    3    0    3
 -2      3021      2897      3448      4496
 -1     30779    3    0    3
 -2      3862      4542      4105      4082
 -1     30780    3    0    3
 -2      4310      3618      2969      2922
 -1     30781    3    0    3
 -2      5110      3760      5108      4310
 -1     30782    3    0    3
 -2      3618      2969      5109      4310
 -1     30783    3    0    3
 -2      6474      4072       900      5199
 -1     30784    3    0    3
 -2      4339      5142      5141      4314
 -1     30785    3    0    3
 -2      3929      4432      5110      5107
 -1     30786    3    0    3
 -2      5108      4432      5110      3929
 -1     30787    3    0    3
 -2      5108      5105      4432      3929
 -1     30788    3    0    3
 -2      5110      5108      3929      4310
 -1     30789    3    0    3
 -2      3070      6599      5155      6531
 -1     30790    3    0    3
 -2      3070      6599      3064      3033
 -1     30791    3    0    3
 -2       659      5106       694       892
 -1     30792    3    0    3
 -2       179      5098       834      2906
 -1     30793    3    0    3
 -2      5104      3533      4542      3565
 -1     30794    3    0    3
 -2      5099       180      2905       850
 -1     30795    3    0    3
 -2      5099       180       664      2974
 -1     30796    3    0    3
 -2      4533      2968      4536      1878
 -1     30797    3    0    3
 -2      5107      3929      3519      2957
 -1     30798    3    0    3
 -2      3519      3929      3533      2958
 -1     30799    3    0    3
 -2      3016      3730      2893      4350
 -1     30800    3    0    3
 -2      3730      4401      4541      4543
 -1     30801    3    0    3
 -2      4220      3595      3017      3565
 -1     30802    3    0    3
 -2      4220      3595      5101      3823
 -1     30803    3    0    3
 -2      4905      2751      2755      4907
 -1     30804    3    0    3
 -2      3017      3519      2993      4220
 -1     30805    3    0    3
 -2      2988      3595      4494      3623
 -1     30806    3    0    3
 -2      2993      3519      2958      2957
 -1     30807    3    0    3
 -2      3929      2970      2959      2957
 -1     30808    3    0    3
 -2      4105      5176      4612      4080
 -1     30809    3    0    3
 -2      3929      2959      2958      2957
 -1     30810    3    0    3
 -2      5180      3760      4432      6447
 -1     30811    3    0    3
 -2      6448      5110      6447      4432
 -1     30812    3    0    3
 -2      5114      2921      4027      3618
 -1     30813    3    0    3
 -2      4027      2921      2897      3618
 -1     30814    3    0    3
 -2       893      1004      1096      6447
 -1     30815    3    0    3
 -2      5176      4105      4612      4131
 -1     30816    3    0    3
 -2      3760      5110      5111      4310
 -1     30817    3    0    3
 -2      5105      3929      3519      5107
 -1     30818    3    0    3
 -2      3929      5105      4432      5107
 -1     30819    3    0    3
 -2      5105      4065      4432      5107
 -1     30820    3    0    3
 -2      5110      3929      2970      4310
 -1     30821    3    0    3
 -2      2970      3929      2959      4310
 -1     30822    3    0    3
 -2      2959      2969      2970      4310
 -1     30823    3    0    3
 -2      5108      2959      3929      4310
 -1     30824    3    0    3
 -2       184       694      5107       695
 -1     30825    3    0    3
 -2      5179      5180      4055      4432
 -1     30826    3    0    3
 -2      3618      5111      5114      2922
 -1     30827    3    0    3
 -2      3618      5114      2921      2922
 -1     30828    3    0    3
 -2      4310      2970      5111      2922
 -1     30829    3    0    3
 -2      5111      3618      4310      2922
 -1     30830    3    0    3
 -2       750      5111      5114      1030
 -1     30831    3    0    3
 -2      3195      4443      3197      3265
 -1     30832    3    0    3
 -2      1029      5115       923       829
 -1     30833    3    0    3
 -2      5098      5099      3557      4125
 -1     30834    3    0    3
 -2      4611      5175      4162      4190
 -1     30835    3    0    3
 -2      5175      4611      4162      4129
 -1     30836    3    0    3
 -2      5218      5212      3498      4043
 -1     30837    3    0    3
 -2      5099      2905      4494      4125
 -1     30838    3    0    3
 -2      5096      5097      3655      4125
 -1     30839    3    0    3
 -2      5097      5099      3963      4494
 -1     30840    3    0    3
 -2      2988      2905      4494      2974
 -1     30841    3    0    3
 -2       984      5102      4338       891
 -1     30842    3    0    3
 -2      5102      4494      2974      3823
 -1     30843    3    0    3
 -2      5102      5103      2977       660
 -1     30844    3    0    3
 -2      3565      3519      4220      5104
 -1     30845    3    0    3
 -2      5100      5097      3963      4494
 -1     30846    3    0    3
 -2      5100      3963      5102      4494
 -1     30847    3    0    3
 -2      4494      5097      5099      4125
 -1     30848    3    0    3
 -2      6788      2377      6469      4618
 -1     30849    3    0    3
 -2      5097      3557      5099      4125
 -1     30850    3    0    3
 -2      4233      6521      4209      5153
 -1     30851    3    0    3
 -2      4338      5101      5100      3823
 -1     30852    3    0    3
 -2      4220      5103      2977      3823
 -1     30853    3    0    3
 -2      4494      5099      5102      2974
 -1     30854    3    0    3
 -2      2977      3017      4220      3823
 -1     30855    3    0    3
 -2      5098      3728      2905      4125
 -1     30856    3    0    3
 -2      3017      2987      3595      3823
 -1     30857    3    0    3
 -2      3728      5098      2905      2906
 -1     30858    3    0    3
 -2       179      5098      2905       850
 -1     30859    3    0    3
 -2      5100      5101      3595      3823
 -1     30860    3    0    3
 -2      2905      2988      4494      4125
 -1     30861    3    0    3
 -2      2905      3008      2988      4125
 -1     30862    3    0    3
 -2      1808      1985      4528      3846
 -1     30863    3    0    3
 -2       422      4525       473      3093
 -1     30864    3    0    3
 -2      2715      6640      6553      4587
 -1     30865    3    0    3
 -2       980      5175      1172       979
 -1     30866    3    0    3
 -2      5102      4338       891      6193
 -1     30867    3    0    3
 -2      5102      3963      4338      6193
 -1     30868    3    0    3
 -2      1491      5177      1395      1456
 -1     30869    3    0    3
 -2      2974      5099      5102       664
 -1     30870    3    0    3
 -2      3557      5175       980       979
 -1     30871    3    0    3
 -2       980      5098      3557       979
 -1     30872    3    0    3
 -2      5095      3728      5098      4253
 -1     30873    3    0    3
 -2      6221      2078      4807      1744
 -1     30874    3    0    3
 -2      1118      1095      5179       892
 -1     30875    3    0    3
 -2       893      1096      1095      6448
 -1     30876    3    0    3
 -2      5106      5103      3660      6444
 -1     30877    3    0    3
 -2      1474      6443      1442      1280
 -1     30878    3    0    3
 -2      3017      3519      3565      2958
 -1     30879    3    0    3
 -2       850       980      5099       664
 -1     30880    3    0    3
 -2      6520      1665      6516      6543
 -1     30881    3    0    3
 -2       979       980      5098       850
 -1     30882    3    0    3
 -2      6221      2078      1958      4817
 -1     30883    3    0    3
 -2       664       891      5102       660
 -1     30884    3    0    3
 -2      3206      6149      3162      3198
 -1     30885    3    0    3
 -2      5180      5179      4055      4021
 -1     30886    3    0    3
 -2      4818      6271      2613      6632
 -1     30887    3    0    3
 -2      6271      4818      2613      2565
 -1     30888    3    0    3
 -2      2973      3017      3595      3565
 -1     30889    3    0    3
 -2      3017      2973      3595      2987
 -1     30890    3    0    3
 -2       181      2974       664       180
 -1     30891    3    0    3
 -2      6193       664       980       891
 -1     30892    3    0    3
 -2      3465       720      5220       933
 -1     30893    3    0    3
 -2      6448      5110      5107       893
 -1     30894    3    0    3
 -2      6193       664      5099       980
 -1     30895    3    0    3
 -2      5179      1095      6441      6448
 -1     30896    3    0    3
 -2      1095      5179      6441      5724
 -1     30897    3    0    3
 -2      6448      5110      4432      5107
 -1     30898    3    0    3
 -2      4752       295      3188      1886
 -1     30899    3    0    3
 -2       659       984      5106       892
 -1     30900    3    0    3
 -2      4443      3195      3197      5204
 -1     30901    3    0    3
 -2      6442      3991      6452      5187
 -1     30902    3    0    3
 -2       185      2922       186       750
 -1     30903    3    0    3
 -2      1474      6443      5181      6442
 -1     30904    3    0    3
 -2      2922      5111      5114       750
 -1     30905    3    0    3
 -2      1096       893      6447      6448
 -1     30906    3    0    3
 -2      4752       295      3187      3188
 -1     30907    3    0    3
 -2      3465       720       993      5227
 -1     30908    3    0    3
 -2       892       984      5106      6444
 -1     30909    3    0    3
 -2      1095      1355      1280      5724
 -1     30910    3    0    3
 -2      1192      3858      5191       923
 -1     30911    3    0    3
 -2       893       694      5107       892
 -1     30912    3    0    3
 -2       694      5106      5107       892
 -1     30913    3    0    3
 -2      3489      5720      4437      4359
 -1     30914    3    0    3
 -2      1123      1030       923      6453
 -1     30915    3    0    3
 -2       690      6009      6532       992
 -1     30916    3    0    3
 -2      3839      2174      4628      6584
 -1     30917    3    0    3
 -2      1660      5152      1632      5154
 -1     30918    3    0    3
 -2      5175       980      1172      1170
 -1     30919    3    0    3
 -2       891      5176       984      1171
 -1     30920    3    0    3
 -2      6674      4023      3966      4820
 -1     30921    3    0    3
 -2      4213      5151      5152      6450
 -1     30922    3    0    3
 -2       891      4338      5176      6193
 -1     30923    3    0    3
 -2      6768      5180      1122      6435
 -1     30924    3    0    3
 -2      4338      4220      5101      3823
 -1     30925    3    0    3
 -2      1171      1315      1170      6064
 -1     30926    3    0    3
 -2       891      1170       980      6193
 -1     30927    3    0    3
 -2      1314      5178      1315      6064
 -1     30928    3    0    3
 -2      6064      5178      1315      6070
 -1     30929    3    0    3
 -2      4103      5178      5177      5714
 -1     30930    3    0    3
 -2      1123      6435      1030      6453
 -1     30931    3    0    3
 -2      5714      1652      1458      6451
 -1     30932    3    0    3
 -2      4007      5210      5209      6118
 -1     30933    3    0    3
 -2      4590      4100      4153      4600
 -1     30934    3    0    3
 -2      4213      5145      4239      4581
 -1     30935    3    0    3
 -2      6521      1593      1567      6518
 -1     30936    3    0    3
 -2      1457      1458      1456      5714
 -1     30937    3    0    3
 -2      5178      5177      4129      4103
 -1     30938    3    0    3
 -2      5726      1312      5187      1264
 -1     30939    3    0    3
 -2      2587      2580      2586      4620
 -1     30940    3    0    3
 -2      6129      1280      1314      6443
 -1     30941    3    0    3
 -2      6578      2312      6094      4617
 -1     30942    3    0    3
 -2      1004      5110      3760      6447
 -1     30943    3    0    3
 -2      5973      5964      2198      2197
 -1     30944    3    0    3
 -2      5191      6780      6768      3962
 -1     30945    3    0    3
 -2      6129      1171      1118      6444
 -1     30946    3    0    3
 -2      5724      1118      5179      6129
 -1     30947    3    0    3
 -2      4494      3655      2988      3623
 -1     30948    3    0    3
 -2      6447      4432      5179      6448
 -1     30949    3    0    3
 -2      1122      1286      1096      6441
 -1     30950    3    0    3
 -2      3621      3870      4630      4091
 -1     30951    3    0    3
 -2      1095      1118      5179      5724
 -1     30952    3    0    3
 -2      6163      1545      1491      1476
 -1     30953    3    0    3
 -2      1294      1346      1285      6780
 -1     30954    3    0    3
 -2      3839      2174      6152      4628
 -1     30955    3    0    3
 -2      1192      1123      5191      6434
 -1     30956    3    0    3
 -2      6163      1545      5152      5183
 -1     30957    3    0    3
 -2      6674      4023      4820      6676
 -1     30958    3    0    3
 -2      4379      4315      3794      5199
 -1     30959    3    0    3
 -2      1346      5193      1184      6087
 -1     30960    3    0    3
 -2      5197       697      3895      6457
 -1     30961    3    0    3
 -2      3621      3870      3835      4630
 -1     30962    3    0    3
 -2      6441      5180      5179      6447
 -1     30963    3    0    3
 -2      3489      5720      4359      5721
 -1     30964    3    0    3
 -2      4752       295      1886      1885
 -1     30965    3    0    3
 -2      5191      1123       923      6453
 -1     30966    3    0    3
 -2      1474      1299      1461      6452
 -1     30967    3    0    3
 -2      1192      3858      1029      6456
 -1     30968    3    0    3
 -2      2511      6504      6601      6600
 -1     30969    3    0    3
 -2      6441      5182      5180      6446
 -1     30970    3    0    3
 -2      1285      5182      1299      1286
 -1     30971    3    0    3
 -2      3489      5720      5721      5140
 -1     30972    3    0    3
 -2      1184       976      1238      6087
 -1     30973    3    0    3
 -2      5197       697      1011      3895
 -1     30974    3    0    3
 -2      3875      4631      3843      5195
 -1     30975    3    0    3
 -2      3961      5195       970      6449
 -1     30976    3    0    3
 -2      3281      3627      3196      3184
 -1     30977    3    0    3
 -2      4828      2748      2740      2735
 -1     30978    3    0    3
 -2       923      1030      5114      6453
 -1     30979    3    0    3
 -2      6193       664       891      5102
 -1     30980    3    0    3
 -2      6454      5193      5182      6780
 -1     30981    3    0    3
 -2      6453      6435      4158      6768
 -1     30982    3    0    3
 -2      1286      1285      5182      6446
 -1     30983    3    0    3
 -2      5197       697       963      1011
 -1     30984    3    0    3
 -2      5691      6018       925       690
 -1     30985    3    0    3
 -2      6442      3991      5181      6452
 -1     30986    3    0    3
 -2       709      6458      5126       863
 -1     30987    3    0    3
 -2      1092      1148      1192      6456
 -1     30988    3    0    3
 -2      3184      3250      5208      3194
 -1     30989    3    0    3
 -2       838       849       127      6090
 -1     30990    3    0    3
 -2       128       697      3194       129
 -1     30991    3    0    3
 -2      5195      3839      5197      5905
 -1     30992    3    0    3
 -2      1147      1184      5194      1028
 -1     30993    3    0    3
 -2      1238      5199       900      6471
 -1     30994    3    0    3
 -2      1074      5196      1075      6153
 -1     30995    3    0    3
 -2      5188      5199      3932      6454
 -1     30996    3    0    3
 -2       755      3874      5537      3737
 -1     30997    3    0    3
 -2       129      3184       130       696
 -1     30998    3    0    3
 -2       214      6559       842      6540
 -1     30999    3    0    3
 -2      5673      1367      1490      1338
 -1     31000    3    0    3
 -2       127      3193       838      6090
 -1     31001    3    0    3
 -2      5673      1367      5557      1490
 -1     31002    3    0    3
 -2      3627      5203      3196      3184
 -1     31003    3    0    3
 -2       963      5197      1011      1191
 -1     31004    3    0    3
 -2      3193       128       838      6457
 -1     31005    3    0    3
 -2      4282       963      5197      6457
 -1     31006    3    0    3
 -2      5197      5195      5905      6079
 -1     31007    3    0    3
 -2      6180      1720      2061      4673
 -1     31008    3    0    3
 -2      5192      5194      3839      5905
 -1     31009    3    0    3
 -2      4157      6549      5146      6163
 -1     31010    3    0    3
 -2      3658      4336      5196      6458
 -1     31011    3    0    3
 -2      6416      5198      3702      6472
 -1     31012    3    0    3
 -2       755      3874      5540       934
 -1     31013    3    0    3
 -2      2929      5230       848      5127
 -1     31014    3    0    3
 -2       863      5196      1075      1128
 -1     31015    3    0    3
 -2       755      3874      3737      5540
 -1     31016    3    0    3
 -2      4063      3947      5230      6414
 -1     31017    3    0    3
 -2      3895      1011      5208       697
 -1     31018    3    0    3
 -2      1091       930       970      6449
 -1     31019    3    0    3
 -2      4152      4715      5279      4119
 -1     31020    3    0    3
 -2      5195      3961      3554      6449
 -1     31021    3    0    3
 -2      3787      5195      5197      6079
 -1     31022    3    0    3
 -2      1128       922       863      6458
 -1     31023    3    0    3
 -2      4634      2114      6585      6125
 -1     31024    3    0    3
 -2      3961      4336      5123      6458
 -1     31025    3    0    3
 -2       862       849       838      6090
 -1     31026    3    0    3
 -2      3547       147      3328       852
 -1     31027    3    0    3
 -2      3875      4631      4095      3843
 -1     31028    3    0    3
 -2       804      5123       709       922
 -1     31029    3    0    3
 -2       804      2885      5122       190
 -1     31030    3    0    3
 -2       839       189      2918       188
 -1     31031    3    0    3
 -2      2930       709       192       191
 -1     31032    3    0    3
 -2      4360      4197      3491      4559
 -1     31033    3    0    3
 -2      2918      5119      2884       189
 -1     31034    3    0    3
 -2      5691      6018      3665      5516
 -1     31035    3    0    3
 -2      5691      6018      5516       925
 -1     31036    3    0    3
 -2      6460      1633      5166      1580
 -1     31037    3    0    3
 -2      4320       999      5189      6199
 -1     31038    3    0    3
 -2      5114      5115       828       923
 -1     31039    3    0    3
 -2      5114       750      1030       828
 -1     31040    3    0    3
 -2      3858      1029      5115       923
 -1     31041    3    0    3
 -2      6482      3561      1864      4658
 -1     31042    3    0    3
 -2      5119       797       189       839
 -1     31043    3    0    3
 -2      2918      3015      5118       188
 -1     31044    3    0    3
 -2       797       970      5122       804
 -1     31045    3    0    3
 -2      2885      2884      5122       190
 -1     31046    3    0    3
 -2      2885      5122      5123       804
 -1     31047    3    0    3
 -2      4629      3870      4630      3905
 -1     31048    3    0    3
 -2       863      5127      5126       848
 -1     31049    3    0    3
 -2       709       863      5126       848
 -1     31050    3    0    3
 -2      3002       806       716       201
 -1     31051    3    0    3
 -2      3002       806       201      3014
 -1     31052    3    0    3
 -2      2929      5126      5127       848
 -1     31053    3    0    3
 -2      5122       797       804       190
 -1     31054    3    0    3
 -2      5122      2884       797       190
 -1     31055    3    0    3
 -2       829       188      3015       187
 -1     31056    3    0    3
 -2      5118       839       188       829
 -1     31057    3    0    3
 -2       839      2918      5118       188
 -1     31058    3    0    3
 -2       189      2918      5119       839
 -1     31059    3    0    3
 -2      5119      2918      5118       839
 -1     31060    3    0    3
 -2      6460      1633      1580      1421
 -1     31061    3    0    3
 -2       188      3015      5118       829
 -1     31062    3    0    3
 -2      5115      5118      3015       829
 -1     31063    3    0    3
 -2      6460      1633      5164      5166
 -1     31064    3    0    3
 -2      6460      1633      1421      5164
 -1     31065    3    0    3
 -2      2921       186       828       187
 -1     31066    3    0    3
 -2       670       671       223      5087
 -1     31067    3    0    3
 -2      5088      3134      4526      3157
 -1     31068    3    0    3
 -2      5554      1480      5818      1482
 -1     31069    3    0    3
 -2      4494      3655      4125      2988
 -1     31070    3    0    3
 -2      1525      1442      1474      6442
 -1     31071    3    0    3
 -2       703      5204      3195      6474
 -1     31072    3    0    3
 -2      6163      1319      1368      6549
 -1     31073    3    0    3
 -2      6442      1474      1461      6452
 -1     31074    3    0    3
 -2      3756      6769      5198      3787
 -1     31075    3    0    3
 -2      3184      3281      5207      3250
 -1     31076    3    0    3
 -2      3195      3197      5204      3196
 -1     31077    3    0    3
 -2      4443      5204      3197      4315
 -1     31078    3    0    3
 -2       131      5204      3195       703
 -1     31079    3    0    3
 -2      6222      4873      4879      3729
 -1     31080    3    0    3
 -2      5203       130       696       708
 -1     31081    3    0    3
 -2      1184      5202      1028       976
 -1     31082    3    0    3
 -2       976      5202      1028       708
 -1     31083    3    0    3
 -2      5215       725       766       135
 -1     31084    3    0    3
 -2      1040      5762      1477      1033
 -1     31085    3    0    3
 -2      4430      3771      4320      5213
 -1     31086    3    0    3
 -2      1317      5174      1452      4005
 -1     31087    3    0    3
 -2      3954      5188      5187      5726
 -1     31088    3    0    3
 -2      1279      1158      1157      5210
 -1     31089    3    0    3
 -2      1421      1419      5209      5164
 -1     31090    3    0    3
 -2      1279      1278      1158      5210
 -1     31091    3    0    3
 -2      5726      1312      1264      1094
 -1     31092    3    0    3
 -2      6622       321      3179       322
 -1     31093    3    0    3
 -2      1591      1545      1491      5183
 -1     31094    3    0    3
 -2      6437      2572      4614      6462
 -1     31095    3    0    3
 -2      4017      4047      4620      5184
 -1     31096    3    0    3
 -2      3951      3908      5216      3923
 -1     31097    3    0    3
 -2      3315      1701      4092      4862
 -1     31098    3    0    3
 -2      1981      4808      6660      1982
 -1     31099    3    0    3
 -2      1419      5209      1420      1421
 -1     31100    3    0    3
 -2      1451      6460      5211      5166
 -1     31101    3    0    3
 -2      1456      1491      5177      6188
 -1     31102    3    0    3
 -2      1451      6460      1580      1566
 -1     31103    3    0    3
 -2      2366      2572      4614      6437
 -1     31104    3    0    3
 -2      1174       999      1000      6199
 -1     31105    3    0    3
 -2      3191      3190      3494      3192
 -1     31106    3    0    3
 -2      4648      4646      2267      6481
 -1     31107    3    0    3
 -2      5189      5190      6475      4320
 -1     31108    3    0    3
 -2      4651      4650      3170      3566
 -1     31109    3    0    3
 -2      5206      3494      3191       719
 -1     31110    3    0    3
 -2      1497      1265      5186      6480
 -1     31111    3    0    3
 -2       132      3242       133       704
 -1     31112    3    0    3
 -2       989       719      5206       704
 -1     31113    3    0    3
 -2      2017      4641      4110      6120
 -1     31114    3    0    3
 -2      4315      5204      5202       976
 -1     31115    3    0    3
 -2      5187      1264      5189      5726
 -1     31116    3    0    3
 -2      1474      6442      5181      6452
 -1     31117    3    0    3
 -2      3213       491      3260      6467
 -1     31118    3    0    3
 -2      4602      4096      5166      4118
 -1     31119    3    0    3
 -2      4512      5222      5224      6465
 -1     31120    3    0    3
 -2       138       139       720      3214
 -1     31121    3    0    3
 -2      5217      4409      5216      4043
 -1     31122    3    0    3
 -2       141      3260       732      6465
 -1     31123    3    0    3
 -2      1817      6703      1857      4869
 -1     31124    3    0    3
 -2      3887      5224      4660      6620
 -1     31125    3    0    3
 -2       137      5219      3267      3266
 -1     31126    3    0    3
 -2      3908      3771      3923      5213
 -1     31127    3    0    3
 -2      5222      3465      3921      5212
 -1     31128    3    0    3
 -2      5222      3979      5221      6200
 -1     31129    3    0    3
 -2      6313      5224      5222      6465
 -1     31130    3    0    3
 -2      6500      1634      1667      6501
 -1     31131    3    0    3
 -2      6184      5169      5167      6498
 -1     31132    3    0    3
 -2      1620      1667      1634      6501
 -1     31133    3    0    3
 -2      5174      1425      1452      5172
 -1     31134    3    0    3
 -2      1594      1633      5163      1631
 -1     31135    3    0    3
 -2      2669      2428      4582      5723
 -1     31136    3    0    3
 -2      1480      6613      5554      5553
 -1     31137    3    0    3
 -2      5220       673       933       720
 -1     31138    3    0    3
 -2      5416      4452      3325      6148
 -1     31139    3    0    3
 -2      1970      6238      5703      1919
 -1     31140    3    0    3
 -2       730      5422       799       144
 -1     31141    3    0    3
 -2      5190      5205      3494      4404
 -1     31142    3    0    3
 -2      3892      4135      4651      3926
 -1     31143    3    0    3
 -2      5221      1223      1224      1288
 -1     31144    3    0    3
 -2      5711      4309      6644      6648
 -1     31145    3    0    3
 -2      1420      5209      1566      1421
 -1     31146    3    0    3
 -2      2240      6139      4580      6144
 -1     31147    3    0    3
 -2      1634      5166      1633      1580
 -1     31148    3    0    3
 -2      5209      1322      1279      1420
 -1     31149    3    0    3
 -2      3892      4135      4626      3682
 -1     31150    3    0    3
 -2       937       821       732      6465
 -1     31151    3    0    3
 -2      3213      3260      4512      6467
 -1     31152    3    0    3
 -2      5217      5216      4457      4043
 -1     31153    3    0    3
 -2      5226      4010      3887      4512
 -1     31154    3    0    3
 -2      5209      5164      4100      4069
 -1     31155    3    0    3
 -2      4010      3887      5222      4425
 -1     31156    3    0    3
 -2      3217      3887      3213      4512
 -1     31157    3    0    3
 -2      3498      3908      5213      6204
 -1     31158    3    0    3
 -2      4320      5214      5215      3771
 -1     31159    3    0    3
 -2      4430      3771      3923      3274
 -1     31160    3    0    3
 -2       137       673      5219      3266
 -1     31161    3    0    3
 -2      5212      5211      1225      6118
 -1     31162    3    0    3
 -2      5215      3771      3203      3268
 -1     31163    3    0    3
 -2      6774      6330      5036      5713
 -1     31164    3    0    3
 -2      4409      5216      4427      5217
 -1     31165    3    0    3
 -2      2340      4645      4647      6481
 -1     31166    3    0    3
 -2      3190      3219      3280      4404
 -1     31167    3    0    3
 -2      3185      6472      3193      3159
 -1     31168    3    0    3
 -2      3193      6472      4282      6090
 -1     31169    3    0    3
 -2      5215      5214      3632      3203
 -1     31170    3    0    3
 -2      5217      3465      5220      4043
 -1     31171    3    0    3
 -2      1710      6774      1709      5713
 -1     31172    3    0    3
 -2      5114       186       828      2921
 -1     31173    3    0    3
 -2      5202      5204      5203       708
 -1     31174    3    0    3
 -2      3986      5189      5186      6205
 -1     31175    3    0    3
 -2      3264      4638      3653      3511
 -1     31176    3    0    3
 -2      5061       536      3775      4176
 -1     31177    3    0    3
 -2      3926      4651      4430      4135
 -1     31178    3    0    3
 -2      3269      3923      3274      4430
 -1     31179    3    0    3
 -2      6734      1146      5415      6147
 -1     31180    3    0    3
 -2      3215      3217      5226      3216
 -1     31181    3    0    3
 -2      3239      3216      4662      3236
 -1     31182    3    0    3
 -2      6698      2356      4852      4814
 -1     31183    3    0    3
 -2      4721      3161      4725      3208
 -1     31184    3    0    3
 -2      3242      5206       133       704
 -1     31185    3    0    3
 -2      1265      1264      1093      5189
 -1     31186    3    0    3
 -2      5219      3771       840      3267
 -1     31187    3    0    3
 -2      5218      5219       673      5220
 -1     31188    3    0    3
 -2      3281      3197      4353      3283
 -1     31189    3    0    3
 -2      2133      6120      6439      2018
 -1     31190    3    0    3
 -2      3192      3242      3265      4443
 -1     31191    3    0    3
 -2       130      5203      3196       708
 -1     31192    3    0    3
 -2      5188      4072      5199      6471
 -1     31193    3    0    3
 -2      5571      5683      5568      6763
 -1     31194    3    0    3
 -2      4379      5200      3627      4353
 -1     31195    3    0    3
 -2      4635      2022      2302      6198
 -1     31196    3    0    3
 -2      3264      4638      3511      3283
 -1     31197    3    0    3
 -2      3257      5225      3239      3216
 -1     31198    3    0    3
 -2      6608      1781      2008      1950
 -1     31199    3    0    3
 -2       999       725       766      5215
 -1     31200    3    0    3
 -2      5215       725      3202      3632
 -1     31201    3    0    3
 -2      3203      3771      5214      3274
 -1     31202    3    0    3
 -2      3951      3706      4649      3923
 -1     31203    3    0    3
 -2      3954      5187      5189      5726
 -1     31204    3    0    3
 -2      3192      4642      3219      4404
 -1     31205    3    0    3
 -2      1566      5209      1322      5211
 -1     31206    3    0    3
 -2      6685      6106      4810      4606
 -1     31207    3    0    3
 -2      3784      3250      5207      4644
 -1     31208    3    0    3
 -2       963       838       697      6457
 -1     31209    3    0    3
 -2      3547      5431      3401      3716
 -1     31210    3    0    3
 -2      3192      5206      3242      4443
 -1     31211    3    0    3
 -2       725       719      3202      3632
 -1     31212    3    0    3
 -2      3627      3197      3281      3196
 -1     31213    3    0    3
 -2      3627      5204      3197      3196
 -1     31214    3    0    3
 -2      1264      6480      5189      1265
 -1     31215    3    0    3
 -2      4282      3784      3756      3185
 -1     31216    3    0    3
 -2      5202      3794      5200      4315
 -1     31217    3    0    3
 -2      5202      4194      5203      3627
 -1     31218    3    0    3
 -2      6597      2525      4584      2657
 -1     31219    3    0    3
 -2       719       134      3191       133
 -1     31220    3    0    3
 -2      3274      3203      3771      3268
 -1     31221    3    0    3
 -2      4579      4580      4264      4239
 -1     31222    3    0    3
 -2      5201      5203      3627      3184
 -1     31223    3    0    3
 -2      5203      5204      3627      3196
 -1     31224    3    0    3
 -2      4635      3653      3897      4110
 -1     31225    3    0    3
 -2      2132      2133      2017      4624
 -1     31226    3    0    3
 -2      5213      3771      4320      6199
 -1     31227    3    0    3
 -2      3511      3283      4379      3264
 -1     31228    3    0    3
 -2      3219      3538      3280      4404
 -1     31229    3    0    3
 -2      3494      5206      3191      3192
 -1     31230    3    0    3
 -2      1074      5196      1128      1075
 -1     31231    3    0    3
 -2       900      5199       976      6474
 -1     31232    3    0    3
 -2      5204      3195      3196       131
 -1     31233    3    0    3
 -2      3784      3250      4644      3185
 -1     31234    3    0    3
 -2      4157      6549      6163      5177
 -1     31235    3    0    3
 -2      3250      3895      5208      3194
 -1     31236    3    0    3
 -2      3756      4634      3702      3158
 -1     31237    3    0    3
 -2      3271      6090      6416      6472
 -1     31238    3    0    3
 -2      3185      3895      3250      3194
 -1     31239    3    0    3
 -2      4157      6549      4188      5146
 -1     31240    3    0    3
 -2      3756      3702      3159      3158
 -1     31241    3    0    3
 -2      3271      6051      6416      6470
 -1     31242    3    0    3
 -2      5194      5905      1148      1147
 -1     31243    3    0    3
 -2       701       702       125      6051
 -1     31244    3    0    3
 -2      3159      3702      3160      3158
 -1     31245    3    0    3
 -2      3756      3975      4634      3158
 -1     31246    3    0    3
 -2      4282       963      6090      6459
 -1     31247    3    0    3
 -2      4644      5207      5201      3281
 -1     31248    3    0    3
 -2      1844       310      4643      3230
 -1     31249    3    0    3
 -2      3250      5208      5207      3184
 -1     31250    3    0    3
 -2      5199      4315      3794      6087
 -1     31251    3    0    3
 -2      5202      5200      4194      3627
 -1     31252    3    0    3
 -2      3195      3265      3242      4443
 -1     31253    3    0    3
 -2       214      6559      6540      3099
 -1     31254    3    0    3
 -2      3242      3195      4443      6474
 -1     31255    3    0    3
 -2       900       976       703      6474
 -1     31256    3    0    3
 -2      5683      4486      5571      5568
 -1     31257    3    0    3
 -2      3813      5196      3787      4632
 -1     31258    3    0    3
 -2      5188      3897      5199      4072
 -1     31259    3    0    3
 -2      4315      3794      5200      4379
 -1     31260    3    0    3
 -2      3564      1932      4030      4633
 -1     31261    3    0    3
 -2      1298      1346      1238      6454
 -1     31262    3    0    3
 -2      4379      4160      4353      3283
 -1     31263    3    0    3
 -2      1184      5193      3794      6087
 -1     31264    3    0    3
 -2      3756      5197      4633      3784
 -1     31265    3    0    3
 -2       840      6199      6204      1000
 -1     31266    3    0    3
 -2      3284      3281      4353      3283
 -1     31267    3    0    3
 -2      4443      5199      4379      3867
 -1     31268    3    0    3
 -2      3192      5205      5206      4443
 -1     31269    3    0    3
 -2      4443      3197      3265      3867
 -1     31270    3    0    3
 -2      3897      5188      5199      3932
 -1     31271    3    0    3
 -2      4157      6549      5177      4188
 -1     31272    3    0    3
 -2       131      3195       132       703
 -1     31273    3    0    3
 -2      5199      4379      4315      4443
 -1     31274    3    0    3
 -2      5207      5208      5201      3184
 -1     31275    3    0    3
 -2      6471       989       900      1216
 -1     31276    3    0    3
 -2      5193      5182      3932      6454
 -1     31277    3    0    3
 -2      6471       989      5188      4072
 -1     31278    3    0    3
 -2      4624      4635      3897      4110
 -1     31279    3    0    3
 -2      4379      3197      4443      3867
 -1     31280    3    0    3
 -2      3197      4315      4379      4443
 -1     31281    3    0    3
 -2      1074      5196      6769      1128
 -1     31282    3    0    3
 -2      1000      6205      6199      6204
 -1     31283    3    0    3
 -2      1000      6205      6204      1158
 -1     31284    3    0    3
 -2      1724      2019      3653      4635
 -1     31285    3    0    3
 -2      1000      6205      1174      6199
 -1     31286    3    0    3
 -2      5208      5203      3184       696
 -1     31287    3    0    3
 -2      4282       963      6459      5197
 -1     31288    3    0    3
 -2       703       976      5204      6474
 -1     31289    3    0    3
 -2      3184      5203      3196       130
 -1     31290    3    0    3
 -2      5203      5201      5208      3184
 -1     31291    3    0    3
 -2      3197      3627      3281      4353
 -1     31292    3    0    3
 -2      4315      3197      4379      3627
 -1     31293    3    0    3
 -2      5200      4315      4379      3627
 -1     31294    3    0    3
 -2      5204      4315      5202      3627
 -1     31295    3    0    3
 -2      5200      5202      4315      3627
 -1     31296    3    0    3
 -2       130      3184      5203       696
 -1     31297    3    0    3
 -2      5208      3184      3194       129
 -1     31298    3    0    3
 -2       697      5208      3194       129
 -1     31299    3    0    3
 -2      3193      6472      6090      3271
 -1     31300    3    0    3
 -2      3895      4282      5197      6457
 -1     31301    3    0    3
 -2       719      6475       725       913
 -1     31302    3    0    3
 -2      3892      3954      4135      3926
 -1     31303    3    0    3
 -2       719      6475       913       989
 -1     31304    3    0    3
 -2      3494      3202       719      3632
 -1     31305    3    0    3
 -2      6172      4348      4714      6587
 -1     31306    3    0    3
 -2      3223       311      4637      3230
 -1     31307    3    0    3
 -2       976      4315      5204      6474
 -1     31308    3    0    3
 -2       126       849      3271       127
 -1     31309    3    0    3
 -2      5198      3702      5278      6416
 -1     31310    3    0    3
 -2       128      3193       838       127
 -1     31311    3    0    3
 -2      5278      3702      6051      6416
 -1     31312    3    0    3
 -2      3756      6769      3787      5197
 -1     31313    3    0    3
 -2       129       697      5208       696
 -1     31314    3    0    3
 -2       697      1011      5208       696
 -1     31315    3    0    3
 -2      3191      5206       719       133
 -1     31316    3    0    3
 -2      5206      3191      3242       133
 -1     31317    3    0    3
 -2       708       976      5204       703
 -1     31318    3    0    3
 -2      5199      1238       900       976
 -1     31319    3    0    3
 -2       976      5199      1238      6087
 -1     31320    3    0    3
 -2       976      5199      4315      6474
 -1     31321    3    0    3
 -2      1028      5202      5203       708
 -1     31322    3    0    3
 -2      3196      5203      5204       708
 -1     31323    3    0    3
 -2       976      5204      5202       708
 -1     31324    3    0    3
 -2      5204      4315      4443      6474
 -1     31325    3    0    3
 -2      3242       132      3195      6474
 -1     31326    3    0    3
 -2      3196       130       708       131
 -1     31327    3    0    3
 -2       704       132      3242      6474
 -1     31328    3    0    3
 -2      5190      5188      3954      5726
 -1     31329    3    0    3
 -2       133      5206       719       704
 -1     31330    3    0    3
 -2      5204      4443      3195      6474
 -1     31331    3    0    3
 -2       703      3195       132      6474
 -1     31332    3    0    3
 -2      6087      1238      1346      6454
 -1     31333    3    0    3
 -2      1312      1298      1216      5188
 -1     31334    3    0    3
 -2      4613      4582      2428      5723
 -1     31335    3    0    3
 -2      2587      2580      4620      2701
 -1     31336    3    0    3
 -2      4282      3784      3185      3895
 -1     31337    3    0    3
 -2      5187      1312      1461      1264
 -1     31338    3    0    3
 -2      4651      3170      3269      3566
 -1     31339    3    0    3
 -2      1094      1312      1216      5188
 -1     31340    3    0    3
 -2      4072      3897      5190      5188
 -1     31341    3    0    3
 -2      3632      3190      3202      3203
 -1     31342    3    0    3
 -2      5190      3632      4320      3892
 -1     31343    3    0    3
 -2       719      3202       134       725
 -1     31344    3    0    3
 -2       840      1000       766      6199
 -1     31345    3    0    3
 -2      3892      3190      3280      4404
 -1     31346    3    0    3
 -2       993      6489      5227       721
 -1     31347    3    0    3
 -2      3268       766      3771      3267
 -1     31348    3    0    3
 -2      4615      4617      6578      4021
 -1     31349    3    0    3
 -2       673       933      1067      5218
 -1     31350    3    0    3
 -2      5374      6656      5992      4087
 -1     31351    3    0    3
 -2      3632      5215       725      6475
 -1     31352    3    0    3
 -2       725      3202       134       135
 -1     31353    3    0    3
 -2      4043      3498      4457      5212
 -1     31354    3    0    3
 -2      5218       673       933      5220
 -1     31355    3    0    3
 -2      4409      5220      5218      4043
 -1     31356    3    0    3
 -2      1701      3315      4092      3316
 -1     31357    3    0    3
 -2      1634      1620      5166      1580
 -1     31358    3    0    3
 -2      6202      2577      4608      4610
 -1     31359    3    0    3
 -2      1298      5188      5182      6454
 -1     31360    3    0    3
 -2      1265      1497      5186      1278
 -1     31361    3    0    3
 -2      4153      5164      4100      5154
 -1     31362    3    0    3
 -2      1123      6435      1122      1030
 -1     31363    3    0    3
 -2      1819      4130      2025      4661
 -1     31364    3    0    3
 -2      1419      1592      1495      5185
 -1     31365    3    0    3
 -2      4239      5144      5143      6076
 -1     31366    3    0    3
 -2      1597      1443      1293      6022
 -1     31367    3    0    3
 -2       141       821      3177      6465
 -1     31368    3    0    3
 -2      1223      5221      1317      1288
 -1     31369    3    0    3
 -2      5185      5183      4122      6539
 -1     31370    3    0    3
 -2      3203      5214      3632      3892
 -1     31371    3    0    3
 -2      4457      4427      4655      5216
 -1     31372    3    0    3
 -2      3892      4135      3682      4651
 -1     31373    3    0    3
 -2      2240      6139      2037      4580
 -1     31374    3    0    3
 -2      2153      4597      2350      6598
 -1     31375    3    0    3
 -2      4620      6462      2701      6744
 -1     31376    3    0    3
 -2      4623      6595      4620      4047
 -1     31377    3    0    3
 -2      1315      1456      1395      6070
 -1     31378    3    0    3
 -2      4623      6595      4047      6618
 -1     31379    3    0    3
 -2      4651      4430      5214      3926
 -1     31380    3    0    3
 -2      1981      4808      5737      6666
 -1     31381    3    0    3
 -2      3203      3632      3190      3892
 -1     31382    3    0    3
 -2      1174      1093       999      5189
 -1     31383    3    0    3
 -2      1265      1093      1174      5189
 -1     31384    3    0    3
 -2      5178      1442      6442      6443
 -1     31385    3    0    3
 -2      1495      1419      5185      5209
 -1     31386    3    0    3
 -2      4076      5183      5185      6461
 -1     31387    3    0    3
 -2      1457      5178      6070      1315
 -1     31388    3    0    3
 -2      6188      1591      5183      6461
 -1     31389    3    0    3
 -2      5178      1457      6070      5714
 -1     31390    3    0    3
 -2      5154      5164      4100      6141
 -1     31391    3    0    3
 -2      4069      5211      5209      6460
 -1     31392    3    0    3
 -2      1495      1278      1279      5210
 -1     31393    3    0    3
 -2      1322      5209      1279      6118
 -1     31394    3    0    3
 -2      3487      3835      4194      5194
 -1     31395    3    0    3
 -2      1067      3498      3908      5218
 -1     31396    3    0    3
 -2      4010      3257      3176      3215
 -1     31397    3    0    3
 -2      5209      5211      4007      6118
 -1     31398    3    0    3
 -2      1225      5211      1322      6118
 -1     31399    3    0    3
 -2      1278      1497      5186      1495
 -1     31400    3    0    3
 -2      5213      5189      3986      6205
 -1     31401    3    0    3
 -2      5209      1566      1322      1420
 -1     31402    3    0    3
 -2      5185      5183      1592      6461
 -1     31403    3    0    3
 -2      3494      3202      3191       719
 -1     31404    3    0    3
 -2      5188      5187      3991      3954
 -1     31405    3    0    3
 -2      1000      1067      1158      6204
 -1     31406    3    0    3
 -2      6713      6701      4868      3512
 -1     31407    3    0    3
 -2      5374      6656      1389      5992
 -1     31408    3    0    3
 -2      6524      6563      6517      6540
 -1     31409    3    0    3
 -2      6524      6563      5132      5147
 -1     31410    3    0    3
 -2       676       683      3546       875
 -1     31411    3    0    3
 -2      6442      1461      5187      6452
 -1     31412    3    0    3
 -2      5838      4179      5762      4344
 -1     31413    3    0    3
 -2      3802      3995      4616      4205
 -1     31414    3    0    3
 -2      3494      3202      3632      3190
 -1     31415    3    0    3
 -2       725       999       913      6475
 -1     31416    3    0    3
 -2       993      6489       967      5222
 -1     31417    3    0    3
 -2      2107      6154      6576      2292
 -1     31418    3    0    3
 -2       989      1094      5188      5726
 -1     31419    3    0    3
 -2      1094      1216       989      5188
 -1     31420    3    0    3
 -2      3193      6472      3271      3159
 -1     31421    3    0    3
 -2      5188      3897      5190      3954
 -1     31422    3    0    3
 -2      5178      4047      5181      6442
 -1     31423    3    0    3
 -2      2580      2578      2586      6513
 -1     31424    3    0    3
 -2      4819      2264      6660      2265
 -1     31425    3    0    3
 -2      4624      4626      3954      6439
 -1     31426    3    0    3
 -2      6454      1238      5199      6087
 -1     31427    3    0    3
 -2      6713      6701      3512      1935
 -1     31428    3    0    3
 -2      4069      4041      5209      4007
 -1     31429    3    0    3
 -2       913       999      1093      6475
 -1     31430    3    0    3
 -2      1238      6454      5199      6471
 -1     31431    3    0    3
 -2      3632      5190      4320      6475
 -1     31432    3    0    3
 -2      4320      5215      3632      6475
 -1     31433    3    0    3
 -2      3261      3190      3280      3892
 -1     31434    3    0    3
 -2      5214      5215      3632      4320
 -1     31435    3    0    3
 -2      5215       999       725      6475
 -1     31436    3    0    3
 -2      6461      1497      5186      6480
 -1     31437    3    0    3
 -2      6461      1498      1497      6480
 -1     31438    3    0    3
 -2      3771      3274      3268      3267
 -1     31439    3    0    3
 -2      4122      5152      5154      6539
 -1     31440    3    0    3
 -2      6064      4080      5176      6129
 -1     31441    3    0    3
 -2      2454      2210      2362      4625
 -1     31442    3    0    3
 -2       287       381      6330      2840
 -1     31443    3    0    3
 -2      5210      5213      3951      3986
 -1     31444    3    0    3
 -2      5185      1497      5186      6461
 -1     31445    3    0    3
 -2      5189      5187      4017      6480
 -1     31446    3    0    3
 -2      6451      1498      6461      6480
 -1     31447    3    0    3
 -2      1495      1497      5186      5185
 -1     31448    3    0    3
 -2      1495      1592      1497      5185
 -1     31449    3    0    3
 -2      4007      4645      4041      4646
 -1     31450    3    0    3
 -2      5185      1495      5209      4041
 -1     31451    3    0    3
 -2      1279      1495      5210      5209
 -1     31452    3    0    3
 -2       840      1067      1000      6204
 -1     31453    3    0    3
 -2      4645      2340      2449      6481
 -1     31454    3    0    3
 -2       840       766      3771      6199
 -1     31455    3    0    3
 -2       673       840       137      5219
 -1     31456    3    0    3
 -2      4457      4655      3951      5216
 -1     31457    3    0    3
 -2      1000       999       766      6199
 -1     31458    3    0    3
 -2      3923      4655      4427      5216
 -1     31459    3    0    3
 -2      3951      4655      3923      5216
 -1     31460    3    0    3
 -2      3921      4043      5212      3465
 -1     31461    3    0    3
 -2      4103      6595      6462      4614
 -1     31462    3    0    3
 -2      3245      1819       320      4661
 -1     31463    3    0    3
 -2      3498       933      1157      5212
 -1     31464    3    0    3
 -2      4001      4816      4814      3941
 -1     31465    3    0    3
 -2      4457      3951      3498      5216
 -1     31466    3    0    3
 -2      5220      5219       673      3266
 -1     31467    3    0    3
 -2      3115      4571      4495      3639
 -1     31468    3    0    3
 -2      4662      4425      3921      4130
 -1     31469    3    0    3
 -2      4652      4655      4164      3593
 -1     31470    3    0    3
 -2      3867      3192      4443      5205
 -1     31471    3    0    3
 -2      5190      5205      4404      3897
 -1     31472    3    0    3
 -2      6608      1781      4660      6795
 -1     31473    3    0    3
 -2      5219      3274      3771      3267
 -1     31474    3    0    3
 -2      5216      4457      4427      5217
 -1     31475    3    0    3
 -2      5227      3465      5220      5225
 -1     31476    3    0    3
 -2      3498      1067       933      5218
 -1     31477    3    0    3
 -2       840      3908      1067      6204
 -1     31478    3    0    3
 -2      4069      4041      4007      4645
 -1     31479    3    0    3
 -2      4320      5215       999      6199
 -1     31480    3    0    3
 -2      5215      4320      3771      6199
 -1     31481    3    0    3
 -2      3771      4320      5214      4430
 -1     31482    3    0    3
 -2      3892      4651      5214      3926
 -1     31483    3    0    3
 -2      3892      5214      4320      3926
 -1     31484    3    0    3
 -2      5215       766      3771      3268
 -1     31485    3    0    3
 -2       136       766       135      3268
 -1     31486    3    0    3
 -2      3771      5214      5215      3203
 -1     31487    3    0    3
 -2       766      5215       135      3268
 -1     31488    3    0    3
 -2       135      5215      3202      3268
 -1     31489    3    0    3
 -2      3908      3498      5216      5218
 -1     31490    3    0    3
 -2      2204      6208      2317      2205
 -1     31491    3    0    3
 -2      3192      3190      3494      4404
 -1     31492    3    0    3
 -2       766       999      5215      6199
 -1     31493    3    0    3
 -2      3274      3771      3923      3908
 -1     31494    3    0    3
 -2      3923      3273      3274      3908
 -1     31495    3    0    3
 -2      3273      3923      4427      3908
 -1     31496    3    0    3
 -2      4427      3923      5216      3908
 -1     31497    3    0    3
 -2      3203      3202      5215      3268
 -1     31498    3    0    3
 -2      5218      3498      5216      4043
 -1     31499    3    0    3
 -2      3214      5220      3257      5227
 -1     31500    3    0    3
 -2      4427      3273      3908      4409
 -1     31501    3    0    3
 -2      5220      3214      3257      3275
 -1     31502    3    0    3
 -2      3921      4010      5222      4425
 -1     31503    3    0    3
 -2      3908      3274      3771      5219
 -1     31504    3    0    3
 -2      3908      3273      3274      5219
 -1     31505    3    0    3
 -2      3908      3771       840      5219
 -1     31506    3    0    3
 -2      3465      4010      5222      3921
 -1     31507    3    0    3
 -2      4427      3275      5217      3239
 -1     31508    3    0    3
 -2       766       840      3771      3267
 -1     31509    3    0    3
 -2      3268       136       766      3267
 -1     31510    3    0    3
 -2       136       840       766      3267
 -1     31511    3    0    3
 -2      5219       840       137      3267
 -1     31512    3    0    3
 -2       840       136       137      3267
 -1     31513    3    0    3
 -2      6064      4080      5178      4129
 -1     31514    3    0    3
 -2      4617      4615      6578      6165
 -1     31515    3    0    3
 -2      6202      2577      2690      2519
 -1     31516    3    0    3
 -2      4076      5184      4103      6461
 -1     31517    3    0    3
 -2      4650      3566      6610      6614
 -1     31518    3    0    3
 -2      3771      4430      3923      5213
 -1     31519    3    0    3
 -2      5189      5190      5726      6475
 -1     31520    3    0    3
 -2      5189      5190      3954      5726
 -1     31521    3    0    3
 -2      1652      6442      6451      5714
 -1     31522    3    0    3
 -2      5227       721       720       993
 -1     31523    3    0    3
 -2      5218      5216      4409      4043
 -1     31524    3    0    3
 -2      5166      4096      5172      6501
 -1     31525    3    0    3
 -2      5218      5212       933      3498
 -1     31526    3    0    3
 -2      5185      5209      4100      4041
 -1     31527    3    0    3
 -2      4621      2581      2668      2708
 -1     31528    3    0    3
 -2      4041      3986      5210      4646
 -1     31529    3    0    3
 -2      3979      5222      5212      6200
 -1     31530    3    0    3
 -2      4153      4184      5153      5154
 -1     31531    3    0    3
 -2      4164      2267      2032      4648
 -1     31532    3    0    3
 -2      2652      2661      2687      6499
 -1     31533    3    0    3
 -2      5209      1495      1419      1420
 -1     31534    3    0    3
 -2      5209      1279      1495      1420
 -1     31535    3    0    3
 -2      5211      5209      4007      4069
 -1     31536    3    0    3
 -2      3887      4010      5222      4512
 -1     31537    3    0    3
 -2      5379      5417      3911      3941
 -1     31538    3    0    3
 -2      5212      5211      4007      3979
 -1     31539    3    0    3
 -2      5225      4010      3465      3921
 -1     31540    3    0    3
 -2      1316      5223      5415      6159
 -1     31541    3    0    3
 -2      3257      4010      5227      5225
 -1     31542    3    0    3
 -2      4427      3275      3239      3273
 -1     31543    3    0    3
 -2      5219      3908      3273      4409
 -1     31544    3    0    3
 -2      5227      4010      3465      5225
 -1     31545    3    0    3
 -2      6482      4104      4660      6622
 -1     31546    3    0    3
 -2      3266       137       673       138
 -1     31547    3    0    3
 -2      2008      2285      2055      6790
 -1     31548    3    0    3
 -2      5224      5222      3887      3945
 -1     31549    3    0    3
 -2      5216      4427      3908      4409
 -1     31550    3    0    3
 -2      4427      3275      3273      4409
 -1     31551    3    0    3
 -2      5220      5218      5219      4409
 -1     31552    3    0    3
 -2      5190      5205      3897      4072
 -1     31553    3    0    3
 -2      5212      5210      4007      6118
 -1     31554    3    0    3
 -2      5178      1442      1314      1457
 -1     31555    3    0    3
 -2      5571      5683      6763      6368
 -1     31556    3    0    3
 -2      5415      1146      5417      6147
 -1     31557    3    0    3
 -2       140       821      3177       141
 -1     31558    3    0    3
 -2       721      5227       720       139
 -1     31559    3    0    3
 -2       721      3176      5227       139
 -1     31560    3    0    3
 -2      1322      1566      5211      1289
 -1     31561    3    0    3
 -2      3267      5219      3273      3266
 -1     31562    3    0    3
 -2      3176      3257      5227      3214
 -1     31563    3    0    3
 -2      5212      3465       933       993
 -1     31564    3    0    3
 -2      3239      5225      5217      4662
 -1     31565    3    0    3
 -2       139      3176      5227      3214
 -1     31566    3    0    3
 -2      5216      3908      5218      4409
 -1     31567    3    0    3
 -2      5220      3257      5225      5217
 -1     31568    3    0    3
 -2      5225      3465      5220      5217
 -1     31569    3    0    3
 -2      4409      3275      5220      5217
 -1     31570    3    0    3
 -2      3215      6489      4512      3177
 -1     31571    3    0    3
 -2      3215      6489      4010      4512
 -1     31572    3    0    3
 -2      5154      4153      4184      4590
 -1     31573    3    0    3
 -2      3465      5218      4043      5212
 -1     31574    3    0    3
 -2      1873       318      3209      4653
 -1     31575    3    0    3
 -2      3240      4231      3923      3706
 -1     31576    3    0    3
 -2      3923      3269      3274      3240
 -1     31577    3    0    3
 -2      3498      4457      5216      4043
 -1     31578    3    0    3
 -2      4094      6093      3641      5440
 -1     31579    3    0    3
 -2      3951      5210      5212      3498
 -1     31580    3    0    3
 -2      3257      5220      3275      5217
 -1     31581    3    0    3
 -2      3215      6489      3177      3176
 -1     31582    3    0    3
 -2      3215      6489      3176      4010
 -1     31583    3    0    3
 -2      5225      3257      3239      5217
 -1     31584    3    0    3
 -2      3257      3275      3239      5217
 -1     31585    3    0    3
 -2      6093      4094      3641      5439
 -1     31586    3    0    3
 -2      1067      3498       933      1157
 -1     31587    3    0    3
 -2      3951      4457      3498      5212
 -1     31588    3    0    3
 -2      1819      4130      4661      4654
 -1     31589    3    0    3
 -2      5210      3498      1157      5212
 -1     31590    3    0    3
 -2      5711      4309      6648      4591
 -1     31591    3    0    3
 -2      5217      5225      3465      3921
 -1     31592    3    0    3
 -2      5190      5205      4072      3494
 -1     31593    3    0    3
 -2      3921      4457      5217      4656
 -1     31594    3    0    3
 -2      3593      4655      4457      4656
 -1     31595    3    0    3
 -2      4653      4652      4231      3706
 -1     31596    3    0    3
 -2      2204      6208      6268      2317
 -1     31597    3    0    3
 -2      1652      6442      5714      1442
 -1     31598    3    0    3
 -2      1652      6442      1525      6451
 -1     31599    3    0    3
 -2      5183      4076      5185      4122
 -1     31600    3    0    3
 -2      1819      4130      4654      2032
 -1     31601    3    0    3
 -2      4069      5209      5164      6460
 -1     31602    3    0    3
 -2      5212      3921      4648      4457
 -1     31603    3    0    3
 -2      3921      3979      4648      4658
 -1     31604    3    0    3
 -2      2183      4648      4647      6484
 -1     31605    3    0    3
 -2      3979      5222      5221      3945
 -1     31606    3    0    3
 -2      4648      3979      4647      6484
 -1     31607    3    0    3
 -2      3215      4010      5226      4512
 -1     31608    3    0    3
 -2      1451      6460      5166      1580
 -1     31609    3    0    3
 -2      3417      4426      4870      4230
 -1     31610    3    0    3
 -2      5220       138       673       720
 -1     31611    3    0    3
 -2      6140       998       803      6158
 -1     31612    3    0    3
 -2      3792      3919      5420      4337
 -1     31613    3    0    3
 -2      5211      5212      1225      6200
 -1     31614    3    0    3
 -2      4001      4814      5377      3941
 -1     31615    3    0    3
 -2       936      6491       996      1100
 -1     31616    3    0    3
 -2      5231       194       847       746
 -1     31617    3    0    3
 -2      3465      5218       933      5220
 -1     31618    3    0    3
 -2      2055      1730      4853      6229
 -1     31619    3    0    3
 -2      3917      3856      5224      5416
 -1     31620    3    0    3
 -2      3465      5218      5220      4043
 -1     31621    3    0    3
 -2      6465      4512      5222      6489
 -1     31622    3    0    3
 -2      3257      5226      4010      5225
 -1     31623    3    0    3
 -2      4512      4010      5222      6489
 -1     31624    3    0    3
 -2      1029      4251      6456      3858
 -1     31625    3    0    3
 -2      6140      4452      5416      6158
 -1     31626    3    0    3
 -2      5220       138       720      3214
 -1     31627    3    0    3
 -2      1029      4251       930      6456
 -1     31628    3    0    3
 -2      3317      4857      3315      4865
 -1     31629    3    0    3
 -2      3260       491       492      6467
 -1     31630    3    0    3
 -2      3260      3177      3213      4512
 -1     31631    3    0    3
 -2      6467      3856      5224      6620
 -1     31632    3    0    3
 -2      1224       993      5222      6200
 -1     31633    3    0    3
 -2      3856       491      3213      6467
 -1     31634    3    0    3
 -2      6148       492       491      6467
 -1     31635    3    0    3
 -2      4032      5173      5376      6312
 -1     31636    3    0    3
 -2       966      5224       937       732
 -1     31637    3    0    3
 -2      3979      5212      5211      6200
 -1     31638    3    0    3
 -2      5212       933      1157      1225
 -1     31639    3    0    3
 -2      1289      1566      5211      1451
 -1     31640    3    0    3
 -2      4658      5222      3979      3945
 -1     31641    3    0    3
 -2      5222      3887      4512      5224
 -1     31642    3    0    3
 -2      1224       967      1223      6313
 -1     31643    3    0    3
 -2      1452      5221      1317      4005
 -1     31644    3    0    3
 -2      4609      4114      4064      4607
 -1     31645    3    0    3
 -2      4114      4064      5173      4609
 -1     31646    3    0    3
 -2       936      6491      1100      5161
 -1     31647    3    0    3
 -2      1146      5417      1356      5415
 -1     31648    3    0    3
 -2      3487      3835      5201      4194
 -1     31649    3    0    3
 -2      4657      4005      2320      4659
 -1     31650    3    0    3
 -2      4032      4610      4814      6483
 -1     31651    3    0    3
 -2      3260       492       141       732
 -1     31652    3    0    3
 -2      1246       937       966      6468
 -1     31653    3    0    3
 -2       732      5224       937      6465
 -1     31654    3    0    3
 -2      5221      5223      1223      1317
 -1     31655    3    0    3
 -2      5223      4005      4659      3976
 -1     31656    3    0    3
 -2      6148      5416       833      6157
 -1     31657    3    0    3
 -2       732       833       966      6157
 -1     31658    3    0    3
 -2      1243      1146      1356      5415
 -1     31659    3    0    3
 -2       966       833       998      5416
 -1     31660    3    0    3
 -2      4206      4171      4604      5168
 -1     31661    3    0    3
 -2      4647      2588      2359      2518
 -1     31662    3    0    3
 -2      4032      5376      4813      4001
 -1     31663    3    0    3
 -2      3941      4816      4814      6697
 -1     31664    3    0    3
 -2       821       140      3177      6489
 -1     31665    3    0    3
 -2      6785      3102      6526      6646
 -1     31666    3    0    3
 -2      6785      3102      6646      3143
 -1     31667    3    0    3
 -2      5211      5212      4007      6118
 -1     31668    3    0    3
 -2       933      5212       993      1225
 -1     31669    3    0    3
 -2      5212      5222      3465       993
 -1     31670    3    0    3
 -2      1288      1289      5221      1451
 -1     31671    3    0    3
 -2      1289      5221      1224      1288
 -1     31672    3    0    3
 -2      4427      3275      4409      5217
 -1     31673    3    0    3
 -2       139      5227       720      3214
 -1     31674    3    0    3
 -2      6698      2356      4814      2472
 -1     31675    3    0    3
 -2      6698      2356      2355      4852
 -1     31676    3    0    3
 -2      5220      3275      3266      3214
 -1     31677    3    0    3
 -2      6698      2356      2472      2355
 -1     31678    3    0    3
 -2      5220       720      5227      3214
 -1     31679    3    0    3
 -2      4452      3323      5421      5419
 -1     31680    3    0    3
 -2       732       966      5224      6157
 -1     31681    3    0    3
 -2       993      1224      5222       967
 -1     31682    3    0    3
 -2      6475      3632       719       725
 -1     31683    3    0    3
 -2       966      5416      5224      6157
 -1     31684    3    0    3
 -2       937      6313      5224      6468
 -1     31685    3    0    3
 -2       993      5212      5222      6200
 -1     31686    3    0    3
 -2      6313       937      5224      6465
 -1     31687    3    0    3
 -2      6465       821      3177      6489
 -1     31688    3    0    3
 -2      5220       138      3214      3266
 -1     31689    3    0    3
 -2      3177      4512      6465      6489
 -1     31690    3    0    3
 -2       888       998      6140      6147
 -1     31691    3    0    3
 -2      3235      4727      4361      3237
 -1     31692    3    0    3
 -2       141       492         6       732
 -1     31693    3    0    3
 -2      5223      1246      1317      1316
 -1     31694    3    0    3
 -2      2472      2355      2608      6698
 -1     31695    3    0    3
 -2      1589      5174      1520      6159
 -1     31696    3    0    3
 -2      1288      5221      1317      1452
 -1     31697    3    0    3
 -2      5171      4064      5173      4114
 -1     31698    3    0    3
 -2      1582      1283      1552      6019
 -1     31699    3    0    3
 -2      5141      4363      4577      4314
 -1     31700    3    0    3
 -2      1586      1596      1392      6203
 -1     31701    3    0    3
 -2      6524       683      6541      5131
 -1     31702    3    0    3
 -2      5166      1634      1633      6512
 -1     31703    3    0    3
 -2      5161      4206      5167      4255
 -1     31704    3    0    3
 -2      5976      5169      5158      6502
 -1     31705    3    0    3
 -2      2137      5005      5773      2392
 -1     31706    3    0    3
 -2      6626      1596      5170      6466
 -1     31707    3    0    3
 -2      5807      5901      5850      2049
 -1     31708    3    0    3
 -2      5155       945       705       668
 -1     31709    3    0    3
 -2      1100      5161      1101       936
 -1     31710    3    0    3
 -2       682       911       912      5977
 -1     31711    3    0    3
 -2      3453      6409      6747      5563
 -1     31712    3    0    3
 -2      4409      3266      3273      5219
 -1     31713    3    0    3
 -2      2592      6370      2558      4787
 -1     31714    3    0    3
 -2      5378      1656      5376      6006
 -1     31715    3    0    3
 -2      1936      2138      1937      6603
 -1     31716    3    0    3
 -2      6184      1197      5167      6503
 -1     31717    3    0    3
 -2       683      6541      3546       875
 -1     31718    3    0    3
 -2      1101      5167      1262      1197
 -1     31719    3    0    3
 -2      6524       683       674      1063
 -1     31720    3    0    3
 -2      4588      2678      6640      2488
 -1     31721    3    0    3
 -2      6524       683      5131       674
 -1     31722    3    0    3
 -2       996       945      6491      6533
 -1     31723    3    0    3
 -2      3120      3113       213      6111
 -1     31724    3    0    3
 -2      4577      4583      4314      4363
 -1     31725    3    0    3
 -2      6108      1531      5162      1263
 -1     31726    3    0    3
 -2      3033      5155       705       668
 -1     31727    3    0    3
 -2      1480      6613      1364      1481
 -1     31728    3    0    3
 -2      1289      5211      5221      1451
 -1     31729    3    0    3
 -2      4657      3979      4647      4037
 -1     31730    3    0    3
 -2      1531      5162      6505      6495
 -1     31731    3    0    3
 -2      1511      1512      5379      1449
 -1     31732    3    0    3
 -2      5169      1220      1217      5976
 -1     31733    3    0    3
 -2      1392      5167      1262      6498
 -1     31734    3    0    3
 -2      4206      5167      5168      6108
 -1     31735    3    0    3
 -2      1337      1396      1465      6119
 -1     31736    3    0    3
 -2      1587      5377      1589      1449
 -1     31737    3    0    3
 -2      5087      3155      3136      3137
 -1     31738    3    0    3
 -2      1211      6496      1198      5839
 -1     31739    3    0    3
 -2      5164      5163      1633      1631
 -1     31740    3    0    3
 -2      5153      1569      5163      1631
 -1     31741    3    0    3
 -2      5221      1288      1451      1452
 -1     31742    3    0    3
 -2      5376      5173      4093      6493
 -1     31743    3    0    3
 -2      1424      1423      1597      6466
 -1     31744    3    0    3
 -2      4814      3976      4032      5377
 -1     31745    3    0    3
 -2      4171      5169      4225      4605
 -1     31746    3    0    3
 -2      2582      4795      4998      6373
 -1     31747    3    0    3
 -2      5167      1392      1262      1197
 -1     31748    3    0    3
 -2      2695      2635      2601      6634
 -1     31749    3    0    3
 -2      3849      5417      5423      6151
 -1     31750    3    0    3
 -2      1634      5165      1635      6512
 -1     31751    3    0    3
 -2      6161      3856       489      6606
 -1     31752    3    0    3
 -2      6466      5170      5173      6493
 -1     31753    3    0    3
 -2      4064      5171      5173      6488
 -1     31754    3    0    3
 -2      5087      3155      3137      5086
 -1     31755    3    0    3
 -2      2612      6691      4812      6667
 -1     31756    3    0    3
 -2      3048      3052      3051      6270
 -1     31757    3    0    3
 -2      1553      5376      1423      1588
 -1     31758    3    0    3
 -2      1293      1443      1284      6022
 -1     31759    3    0    3
 -2      4597      4255      4279      4592
 -1     31760    3    0    3
 -2      4814      4813      4032      6483
 -1     31761    3    0    3
 -2      5174      1452      4005      5172
 -1     31762    3    0    3
 -2      1896      3029      4593      6651
 -1     31763    3    0    3
 -2      1443      5373      1284      6022
 -1     31764    3    0    3
 -2      3065      5158      3089      3074
 -1     31765    3    0    3
 -2       917      1197      1217      6184
 -1     31766    3    0    3
 -2      5169      1220      5976      6497
 -1     31767    3    0    3
 -2      5173      5171      4114      6626
 -1     31768    3    0    3
 -2      3487      3835      3809      5201
 -1     31769    3    0    3
 -2      3763      4292      6142      5140
 -1     31770    3    0    3
 -2      2592      6370      4787      4793
 -1     31771    3    0    3
 -2      5169      4171      4225      5167
 -1     31772    3    0    3
 -2      2143      4618      4616      6578
 -1     31773    3    0    3
 -2      1217      1197      1392      6184
 -1     31774    3    0    3
 -2      1101      5161      1263      6108
 -1     31775    3    0    3
 -2      2385      2311      2208      4811
 -1     31776    3    0    3
 -2      3763      4292      5143      6142
 -1     31777    3    0    3
 -2      6210      4225      5157      6538
 -1     31778    3    0    3
 -2      1218      5144      6551      1042
 -1     31779    3    0    3
 -2      1226       911      1220      5976
 -1     31780    3    0    3
 -2      5372      5169      4202      5976
 -1     31781    3    0    3
 -2      1098      5598      6699      5730
 -1     31782    3    0    3
 -2      5368       682       912      5977
 -1     31783    3    0    3
 -2      1959      6792      2084      1815
 -1     31784    3    0    3
 -2      5169      4605      4143      4202
 -1     31785    3    0    3
 -2      2530      6106      2487      2353
 -1     31786    3    0    3
 -2      5173      1426      1422      6488
 -1     31787    3    0    3
 -2      4591      4592      6649      6096
 -1     31788    3    0    3
 -2      5174      4064      4610      4032
 -1     31789    3    0    3
 -2      5377      1356      1589      1449
 -1     31790    3    0    3
 -2      6655      6116      4594      6652
 -1     31791    3    0    3
 -2      1317      5221      5223      4005
 -1     31792    3    0    3
 -2      5172      5174      1425      6488
 -1     31793    3    0    3
 -2      2518      4608      4602      2519
 -1     31794    3    0    3
 -2      4005      1452      5221      5172
 -1     31795    3    0    3
 -2      4005      4064      5174      5172
 -1     31796    3    0    3
 -2      4660      3856      5224      3917
 -1     31797    3    0    3
 -2      4064      4610      4005      5174
 -1     31798    3    0    3
 -2      2472      4610      2496      6483
 -1     31799    3    0    3
 -2      3494      3202      3190      3191
 -1     31800    3    0    3
 -2      3217      4512      3215      5226
 -1     31801    3    0    3
 -2      1520      1425      1452      5174
 -1     31802    3    0    3
 -2      4114      5171      5168      6626
 -1     31803    3    0    3
 -2      1451      5221      1452      5172
 -1     31804    3    0    3
 -2      2993      5103       182      2977
 -1     31805    3    0    3
 -2      4118      6627      4599      6499
 -1     31806    3    0    3
 -2      5172      4005      4064      4608
 -1     31807    3    0    3
 -2      6586       310      4643      1889
 -1     31808    3    0    3
 -2      2246      2319      2320      4657
 -1     31809    3    0    3
 -2      5165      5162      6495      6505
 -1     31810    3    0    3
 -2      5155      5156      6491      6533
 -1     31811    3    0    3
 -2      6501      1425      5172      1620
 -1     31812    3    0    3
 -2      6203      5168      5170      6498
 -1     31813    3    0    3
 -2      1426      6500      6501      5171
 -1     31814    3    0    3
 -2      1426      1667      1620      6501
 -1     31815    3    0    3
 -2      5161      1101      5167      6108
 -1     31816    3    0    3
 -2      4148      5165      5171      4096
 -1     31817    3    0    3
 -2      4178      5162      4229      4598
 -1     31818    3    0    3
 -2      5142      1410      1662      6508
 -1     31819    3    0    3
 -2      1621      1634      1667      6500
 -1     31820    3    0    3
 -2      1101      5161      5167      6503
 -1     31821    3    0    3
 -2      2652      2687      2520      6643
 -1     31822    3    0    3
 -2      5147      6563      6506      6517
 -1     31823    3    0    3
 -2      5172      1425      1452      1620
 -1     31824    3    0    3
 -2      5171      5165      6500      6501
 -1     31825    3    0    3
 -2      1620      1634      5166      6501
 -1     31826    3    0    3
 -2      4607      4609      2696      6202
 -1     31827    3    0    3
 -2      4069      5164      4100      4600
 -1     31828    3    0    3
 -2      5976      5158       997      6502
 -1     31829    3    0    3
 -2      4595      1983      2266      6537
 -1     31830    3    0    3
 -2      5162      4206      5161      4229
 -1     31831    3    0    3
 -2      2687      2679      4601      6499
 -1     31832    3    0    3
 -2      4604      4148      4206      5168
 -1     31833    3    0    3
 -2      3058       812      5157      6534
 -1     31834    3    0    3
 -2      4409      3266      5219      5220
 -1     31835    3    0    3
 -2      6531      3069      5156      6533
 -1     31836    3    0    3
 -2      4255      5161      4279      5156
 -1     31837    3    0    3
 -2       945      5159      1107      6491
 -1     31838    3    0    3
 -2      2350      2407      2509      6181
 -1     31839    3    0    3
 -2      5167      4171      4225      4603
 -1     31840    3    0    3
 -2      5156       996       669       936
 -1     31841    3    0    3
 -2       936      5161      1101      6503
 -1     31842    3    0    3
 -2      6502      6184      5167      6503
 -1     31843    3    0    3
 -2      1101       935       936      6503
 -1     31844    3    0    3
 -2      4318      3139      5086      3157
 -1     31845    3    0    3
 -2      4577      4583      3496      6630
 -1     31846    3    0    3
 -2      2684      6601      2683      6628
 -1     31847    3    0    3
 -2      2684      6601      4601      2511
 -1     31848    3    0    3
 -2      6502      5157       935      6503
 -1     31849    3    0    3
 -2      5167      5161      4255      6503
 -1     31850    3    0    3
 -2      6505      6119      1465      6511
 -1     31851    3    0    3
 -2      1263      5161      1100      6103
 -1     31852    3    0    3
 -2      5142      1410      1603      1662
 -1     31853    3    0    3
 -2      1337      1263      1100      6103
 -1     31854    3    0    3
 -2      4206      5162      5161      6108
 -1     31855    3    0    3
 -2      6505      6119      6511      5162
 -1     31856    3    0    3
 -2      5171      5173      1426      6626
 -1     31857    3    0    3
 -2      4093      5170      5173      4114
 -1     31858    3    0    3
 -2      6600      2511      4601      6601
 -1     31859    3    0    3
 -2      6203      1519      1427      6626
 -1     31860    3    0    3
 -2      5170      5168      4171      6498
 -1     31861    3    0    3
 -2      5162      4148      5165      6495
 -1     31862    3    0    3
 -2      6119      5160      1465      6511
 -1     31863    3    0    3
 -2       179      5098       850       834
 -1     31864    3    0    3
 -2      5172      4064      5174      6488
 -1     31865    3    0    3
 -2      4148      4601      5165      4096
 -1     31866    3    0    3
 -2      1621      5165      1634      6500
 -1     31867    3    0    3
 -2      4118      5165      5166      6512
 -1     31868    3    0    3
 -2      1426      6500      1667      6501
 -1     31869    3    0    3
 -2      6505      5165      5162      6511
 -1     31870    3    0    3
 -2      5165      1621      1634      1635
 -1     31871    3    0    3
 -2      4178      5162      5165      6511
 -1     31872    3    0    3
 -2      2661      2652      4599      6499
 -1     31873    3    0    3
 -2      5153      5154      1660      1631
 -1     31874    3    0    3
 -2      1211      6496      5550      1339
 -1     31875    3    0    3
 -2      5209      1421      5164      6460
 -1     31876    3    0    3
 -2      4178      4148      5162      4598
 -1     31877    3    0    3
 -2      1466      1337      1465      6119
 -1     31878    3    0    3
 -2      5159      1106       945      1107
 -1     31879    3    0    3
 -2      5155      4279      5159      6491
 -1     31880    3    0    3
 -2      4258      6518      6178      5160
 -1     31881    3    0    3
 -2       778       661      6111      6519
 -1     31882    3    0    3
 -2      1068      1310       991      6506
 -1     31883    3    0    3
 -2      5142      4314      4260      5148
 -1     31884    3    0    3
 -2       991      5133      1048       661
 -1     31885    3    0    3
 -2       409      6791       478      3043
 -1     31886    3    0    3
 -2      4607      2683      6628      6202
 -1     31887    3    0    3
 -2       668      5155       945      6533
 -1     31888    3    0    3
 -2       705       668       239      3033
 -1     31889    3    0    3
 -2      6450      1462      5145      6552
 -1     31890    3    0    3
 -2      2107      6154      2292      2305
 -1     31891    3    0    3
 -2      6136      2485      4584      6510
 -1     31892    3    0    3
 -2      6136      2485      2503      2657
 -1     31893    3    0    3
 -2       662      6523      5133      1048
 -1     31894    3    0    3
 -2      2475      6246      4874      4872
 -1     31895    3    0    3
 -2      4597      4229      4206      4598
 -1     31896    3    0    3
 -2      4389      3110      3154      4203
 -1     31897    3    0    3
 -2      1396      1593      5160      1398
 -1     31898    3    0    3
 -2      4229      4258      5159      5160
 -1     31899    3    0    3
 -2      1593      5160      1465      1396
 -1     31900    3    0    3
 -2      5161      5162      4229      6103
 -1     31901    3    0    3
 -2      4577      4583      6630      4314
 -1     31902    3    0    3
 -2      5160      5163      1465      6511
 -1     31903    3    0    3
 -2      4646      4007      4645      6481
 -1     31904    3    0    3
 -2      1635      1465      1594      5163
 -1     31905    3    0    3
 -2      4589      4586      4233      6597
 -1     31906    3    0    3
 -2      4178      5165      5163      6511
 -1     31907    3    0    3
 -2      1633      1635      1594      5163
 -1     31908    3    0    3
 -2      5165      4178      5163      4118
 -1     31909    3    0    3
 -2       705      5155       944       945
 -1     31910    3    0    3
 -2      4118      5166      5164      6512
 -1     31911    3    0    3
 -2      5165      4601      4178      4118
 -1     31912    3    0    3
 -2      6605      4619      4076      6744
 -1     31913    3    0    3
 -2      1040      4179      5762      1033
 -1     31914    3    0    3
 -2      1317      5174      1520      1452
 -1     31915    3    0    3
 -2      5211      1566      5209      6460
 -1     31916    3    0    3
 -2      1317      5174      4005      5223
 -1     31917    3    0    3
 -2      4598      2509      2510      6600
 -1     31918    3    0    3
 -2      4096      5165      5166      4118
 -1     31919    3    0    3
 -2      2670      2579      4619      2704
 -1     31920    3    0    3
 -2      1652      6442      1442      1525
 -1     31921    3    0    3
 -2      5185      4100      5154      4122
 -1     31922    3    0    3
 -2      4647      4657      2359      6484
 -1     31923    3    0    3
 -2      4366      5141      3852      4577
 -1     31924    3    0    3
 -2      4157      4613      4103      4619
 -1     31925    3    0    3
 -2      2520      2641      2652      6643
 -1     31926    3    0    3
 -2      4037      5211      5166      6515
 -1     31927    3    0    3
 -2      5140      6557      6142      6771
 -1     31928    3    0    3
 -2       727      3842      5138      5139
 -1     31929    3    0    3
 -2      2671      2706      4589      6597
 -1     31930    3    0    3
 -2      4582      2488      4588      6640
 -1     31931    3    0    3
 -2      4260      5142      5148      6508
 -1     31932    3    0    3
 -2      4590      4153      4184      4589
 -1     31933    3    0    3
 -2      4209      5163      4153      5153
 -1     31934    3    0    3
 -2      1040      4179      1033       752
 -1     31935    3    0    3
 -2      3049      1741      4592      6494
 -1     31936    3    0    3
 -2      5154      5185      1419      6141
 -1     31937    3    0    3
 -2      5185      1419      1632      5154
 -1     31938    3    0    3
 -2      3569      4280      4847      3651
 -1     31939    3    0    3
 -2      5152      1545      1632      6539
 -1     31940    3    0    3
 -2      5152      1632      5154      6539
 -1     31941    3    0    3
 -2      3115      3639      3117      3116
 -1     31942    3    0    3
 -2      6520      6541      6543      6784
 -1     31943    3    0    3
 -2      1569      5163      1594      1593
 -1     31944    3    0    3
 -2      1327      1310      5149      1196
 -1     31945    3    0    3
 -2      4581      4578      4292      6569
 -1     31946    3    0    3
 -2      6113      3064      6599      3090
 -1     31947    3    0    3
 -2      4891      1891      2063      4265
 -1     31948    3    0    3
 -2      4034      5136      3489      4339
 -1     31949    3    0    3
 -2      4260      4314      4578      4584
 -1     31950    3    0    3
 -2      1455      1068       941      6517
 -1     31951    3    0    3
 -2      5148      4233      5151      6122
 -1     31952    3    0    3
 -2      5129      3156      4567      4389
 -1     31953    3    0    3
 -2      3964      1901      4572      2098
 -1     31954    3    0    3
 -2       991      5133       661      6519
 -1     31955    3    0    3
 -2      4074      4172      3852      4577
 -1     31956    3    0    3
 -2      4317      4391      3769      5128
 -1     31957    3    0    3
 -2      5710      2377      4624      2361
 -1     31958    3    0    3
 -2      1327      5150      1567      6178
 -1     31959    3    0    3
 -2      3676      3477      3448      3016
 -1     31960    3    0    3
 -2      5163      5160      1465      1593
 -1     31961    3    0    3
 -2      1593      6178      1398      1567
 -1     31962    3    0    3
 -2      4977      5794      2290      5790
 -1     31963    3    0    3
 -2      5133      5155      4309      6523
 -1     31964    3    0    3
 -2      1310      1048       991      6506
 -1     31965    3    0    3
 -2       778       991       661      6519
 -1     31966    3    0    3
 -2      3496      6561      4389      4568
 -1     31967    3    0    3
 -2      1593      5163      5160      6518
 -1     31968    3    0    3
 -2      5107       695      2970       184
 -1     31969    3    0    3
 -2      5150      1327      1567      1568
 -1     31970    3    0    3
 -2      6528      6645      6526      1733
 -1     31971    3    0    3
 -2      1665      1662      1407      6516
 -1     31972    3    0    3
 -2      1545      5152      5183      6539
 -1     31973    3    0    3
 -2      1545      1632      1546      5152
 -1     31974    3    0    3
 -2      5153      5163      4153      1631
 -1     31975    3    0    3
 -2      5153      4153      5154      1631
 -1     31976    3    0    3
 -2      1660      1661      5153      1569
 -1     31977    3    0    3
 -2      6122      1661      1568      6521
 -1     31978    3    0    3
 -2      1661      1569      1568      6521
 -1     31979    3    0    3
 -2      2576      4823      4835      2568
 -1     31980    3    0    3
 -2      5163      1465      1594      1593
 -1     31981    3    0    3
 -2      4178      6600      4598      6627
 -1     31982    3    0    3
 -2      6675      1302      5412      1444
 -1     31983    3    0    3
 -2      1106      1398      1396      6522
 -1     31984    3    0    3
 -2      5164      1633      1421      1631
 -1     31985    3    0    3
 -2      3099      3147      5132      6527
 -1     31986    3    0    3
 -2      3114      3137      3133      5087
 -1     31987    3    0    3
 -2      5164      1421      1419      1631
 -1     31988    3    0    3
 -2      5154      5164      1419      1631
 -1     31989    3    0    3
 -2      1327      1567      1398      6178
 -1     31990    3    0    3
 -2      1593      6178      1567      6518
 -1     31991    3    0    3
 -2      1466      1465      1635      6505
 -1     31992    3    0    3
 -2      1398      1106      1196      6522
 -1     31993    3    0    3
 -2      1313      5439      5441      6105
 -1     31994    3    0    3
 -2      6113      3064      3087      6531
 -1     31995    3    0    3
 -2      5156      4279      5155      6491
 -1     31996    3    0    3
 -2      1196      1310      5149      6523
 -1     31997    3    0    3
 -2      4573      4570      4149      4045
 -1     31998    3    0    3
 -2      6559      5132      6540      3099
 -1     31999    3    0    3
 -2      3069       669       238       237
 -1     32000    3    0    3
 -2      1337      5162      1263      6103
 -1     32001    3    0    3
 -2      1396      5160      1465      6119
 -1     32002    3    0    3
 -2      1106      5159      1396      1107
 -1     32003    3    0    3
 -2      3111      3147      5132      3101
 -1     32004    3    0    3
 -2      1048      5133       662       661
 -1     32005    3    0    3
 -2      3496      6561      6782      4363
 -1     32006    3    0    3
 -2      5774      1155      5545      6473
 -1     32007    3    0    3
 -2      6517       941      1063      6524
 -1     32008    3    0    3
 -2      6462      4076      4620      4103
 -1     32009    3    0    3
 -2      5149      4287      5147      6554
 -1     32010    3    0    3
 -2      4586      4258      4287      4585
 -1     32011    3    0    3
 -2      3113       778       213      6111
 -1     32012    3    0    3
 -2      3033       668       239      3070
 -1     32013    3    0    3
 -2      6096      1858      3057      6649
 -1     32014    3    0    3
 -2      3035       682      5368      3066
 -1     32015    3    0    3
 -2      3993      5692      4832      4834
 -1     32016    3    0    3
 -2       662        10       661       482
 -1     32017    3    0    3
 -2       661       213       778      6111
 -1     32018    3    0    3
 -2       778       213       214      3113
 -1     32019    3    0    3
 -2      6638      6112       481      6789
 -1     32020    3    0    3
 -2      4595      4591      4279      4309
 -1     32021    3    0    3
 -2      1068       842       941      6540
 -1     32022    3    0    3
 -2       778       842      1068      6540
 -1     32023    3    0    3
 -2      6096      1956      1741      1957
 -1     32024    3    0    3
 -2       662       240       482      3080
 -1     32025    3    0    3
 -2      6112       662      3080      6507
 -1     32026    3    0    3
 -2      6096      1956      6537      4592
 -1     32027    3    0    3
 -2      6514      2518      2588      4647
 -1     32028    3    0    3
 -2       482       213       661      6111
 -1     32029    3    0    3
 -2       482      3120       213      6111
 -1     32030    3    0    3
 -2      5132      3099      6527      6540
 -1     32031    3    0    3
 -2       778      1068       991      6519
 -1     32032    3    0    3
 -2       674      3119      5131      3100
 -1     32033    3    0    3
 -2      2035      1703      2118      6209
 -1     32034    3    0    3
 -2      3120      3118      3147      6527
 -1     32035    3    0    3
 -2      3147      3113      3120      6527
 -1     32036    3    0    3
 -2      4389      4290      5132      4363
 -1     32037    3    0    3
 -2      4203      3496      4389      4568
 -1     32038    3    0    3
 -2      3033      6789      3080      6507
 -1     32039    3    0    3
 -2      6117      6209      4568      6782
 -1     32040    3    0    3
 -2      3131      6209      6526      1703
 -1     32041    3    0    3
 -2      6528      4569      6117      6646
 -1     32042    3    0    3
 -2      5155      6113      6531      6599
 -1     32043    3    0    3
 -2      4279      4597      4592      6537
 -1     32044    3    0    3
 -2      3082      6531      6535      3081
 -1     32045    3    0    3
 -2      3044      3043      3078      6525
 -1     32046    3    0    3
 -2      6535      3087      6113      6649
 -1     32047    3    0    3
 -2      1957      1983      6096      6537
 -1     32048    3    0    3
 -2      6789      5155      5133      6507
 -1     32049    3    0    3
 -2       812       237       669      6534
 -1     32050    3    0    3
 -2       705       239       240      3033
 -1     32051    3    0    3
 -2      3033      6789      6599      3030
 -1     32052    3    0    3
 -2      6651       406      1829       405
 -1     32053    3    0    3
 -2      4583      4333      4363      6782
 -1     32054    3    0    3
 -2      6044      6046      4741      6731
 -1     32055    3    0    3
 -2      3033      5155       668      3070
 -1     32056    3    0    3
 -2       238       239       668      3070
 -1     32057    3    0    3
 -2      6534      5156      5157      6536
 -1     32058    3    0    3
 -2       996       669       668      6533
 -1     32059    3    0    3
 -2      3055      3082      3058      6536
 -1     32060    3    0    3
 -2      5322      3279      5323      5314
 -1     32061    3    0    3
 -2       705       662       944      6507
 -1     32062    3    0    3
 -2       991      5133      6519      6506
 -1     32063    3    0    3
 -2       991      5133      6506      1048
 -1     32064    3    0    3
 -2      6116      1988      1896      4593
 -1     32065    3    0    3
 -2       945       996       668      6533
 -1     32066    3    0    3
 -2      5156      3069      3082      6534
 -1     32067    3    0    3
 -2      4309      4279      5155      6749
 -1     32068    3    0    3
 -2      2137      5005      2136      5828
 -1     32069    3    0    3
 -2       669       936       812      6745
 -1     32070    3    0    3
 -2      1226      1293      1284      6022
 -1     32071    3    0    3
 -2      3058      3082      3069      6534
 -1     32072    3    0    3
 -2      6163      1467      5152      1476
 -1     32073    3    0    3
 -2       936       935       812      6745
 -1     32074    3    0    3
 -2      6534       812      5157      6745
 -1     32075    3    0    3
 -2      3055      3056      3038      6210
 -1     32076    3    0    3
 -2      5142      5140      4034      5721
 -1     32077    3    0    3
 -2      6113      5156      5155      6531
 -1     32078    3    0    3
 -2      2452      4875      4877      6088
 -1     32079    3    0    3
 -2      2209      2167      2034      6212
 -1     32080    3    0    3
 -2      3763      4292      5140      4318
 -1     32081    3    0    3
 -2      6114      1763      4203      6209
 -1     32082    3    0    3
 -2      4317      3153      3145      5135
 -1     32083    3    0    3
 -2      1741      1957      1858      6096
 -1     32084    3    0    3
 -2      4593      1896      6116      6652
 -1     32085    3    0    3
 -2      3054       827       236       235
 -1     32086    3    0    3
 -2       235      3074      3054      6490
 -1     32087    3    0    3
 -2      5412      1366      1483      1303
 -1     32088    3    0    3
 -2      1012       680       681      5998
 -1     32089    3    0    3
 -2      5158      3074       771       722
 -1     32090    3    0    3
 -2      1765       404       403      3037
 -1     32091    3    0    3
 -2      6370      3596      4788      5996
 -1     32092    3    0    3
 -2      3029      3038      3037      6652
 -1     32093    3    0    3
 -2       722      3074       771       234
 -1     32094    3    0    3
 -2       233       682       232      3066
 -1     32095    3    0    3
 -2      6655      5158      3089      5974
 -1     32096    3    0    3
 -2       827      3058      3054       236
 -1     32097    3    0    3
 -2      5158      6655      3089      6538
 -1     32098    3    0    3
 -2       237      3058       812       236
 -1     32099    3    0    3
 -2       827       812      3058       236
 -1     32100    3    0    3
 -2      1035      5700      1281      6073
 -1     32101    3    0    3
 -2       235       722      3074      6490
 -1     32102    3    0    3
 -2       771      3074      3065       234
 -1     32103    3    0    3
 -2       233      3066      3065      6728
 -1     32104    3    0    3
 -2      5163      1635      5165      6512
 -1     32105    3    0    3
 -2      4738      2424      4767      6042
 -1     32106    3    0    3
 -2       771       997      5158       722
 -1     32107    3    0    3
 -2      3035      3034      3039      5995
 -1     32108    3    0    3
 -2      1422      1588      1423      6312
 -1     32109    3    0    3
 -2      1588      5376      1423      6312
 -1     32110    3    0    3
 -2      5377      1587      1589      1588
 -1     32111    3    0    3
 -2      5377      3976      5174      6159
 -1     32112    3    0    3
 -2      4034      4366      5136      4339
 -1     32113    3    0    3
 -2      1458      1652      1498      6451
 -1     32114    3    0    3
 -2      1407      1655      1565      5148
 -1     32115    3    0    3
 -2      5141      4577      4339      4314
 -1     32116    3    0    3
 -2       748      3146       749       221
 -1     32117    3    0    3
 -2      6163      1467      1319      5146
 -1     32118    3    0    3
 -2      6136      2485      6510      2503
 -1     32119    3    0    3
 -2      1653      1661      1654      5151
 -1     32120    3    0    3
 -2      6508      5151      5145      6552
 -1     32121    3    0    3
 -2      6567      3964      3467      4572
 -1     32122    3    0    3
 -2      4233      5151      4260      5148
 -1     32123    3    0    3
 -2      5139      3096       727      5137
 -1     32124    3    0    3
 -2      1368      1319      1187      6549
 -1     32125    3    0    3
 -2      5720       671      6746       748
 -1     32126    3    0    3
 -2      1546      1467      1476      5152
 -1     32127    3    0    3
 -2      4292      5143      5145      4239
 -1     32128    3    0    3
 -2      6508      5142      5148      6516
 -1     32129    3    0    3
 -2      5087       670       671      6545
 -1     32130    3    0    3
 -2      1070      4359       749       884
 -1     32131    3    0    3
 -2      1462      1409      1318      6076
 -1     32132    3    0    3
 -2      3688      3008      3007      3024
 -1     32133    3    0    3
 -2      5098       979       850       834
 -1     32134    3    0    3
 -2      3133      3095      3094      3622
 -1     32135    3    0    3
 -2       748      3146       221      3138
 -1     32136    3    0    3
 -2      5144      4239      5146      6076
 -1     32137    3    0    3
 -2       488      6795      6161      6606
 -1     32138    3    0    3
 -2       884      4359       749       748
 -1     32139    3    0    3
 -2       915      1027       675      3842
 -1     32140    3    0    3
 -2      3024      3728      2907      2975
 -1     32141    3    0    3
 -2       488      6795      1781      1730
 -1     32142    3    0    3
 -2      4528       473      4525      3960
 -1     32143    3    0    3
 -2      5138       219       727      3096
 -1     32144    3    0    3
 -2      3114       670       223      5087
 -1     32145    3    0    3
 -2      1971      4525      1871      2126
 -1     32146    3    0    3
 -2      5138      4317      3097      3145
 -1     32147    3    0    3
 -2      3097      5138      3145      3096
 -1     32148    3    0    3
 -2      6541      5147      6520      6554
 -1     32149    3    0    3
 -2       222       748       221      3138
 -1     32150    3    0    3
 -2      3149      3097      4317      3145
 -1     32151    3    0    3
 -2      3024      3728      2975      3688
 -1     32152    3    0    3
 -2       218      3097       219       675
 -1     32153    3    0    3
 -2      4366      3852      4172      4577
 -1     32154    3    0    3
 -2      5153      4184      4233      5151
 -1     32155    3    0    3
 -2      4627      2300      6596      6166
 -1     32156    3    0    3
 -2       991      1068      6506      6519
 -1     32157    3    0    3
 -2      6492      3496      4583      6630
 -1     32158    3    0    3
 -2      3119       683       674      5131
 -1     32159    3    0    3
 -2      4290      5131      3904      6524
 -1     32160    3    0    3
 -2      4290      3904      5132      6524
 -1     32161    3    0    3
 -2       958      4291      3597      5525
 -1     32162    3    0    3
 -2      5138      3546       675      5130
 -1     32163    3    0    3
 -2      2975      3728      2933      4400
 -1     32164    3    0    3
 -2       216       683       674      3119
 -1     32165    3    0    3
 -2      5128      4391      3769      3852
 -1     32166    3    0    3
 -2      5128      3149      5130      4317
 -1     32167    3    0    3
 -2      5129      4566      4567      3156
 -1     32168    3    0    3
 -2      5426       960      4392      1140
 -1     32169    3    0    3
 -2       675       727       915      3842
 -1     32170    3    0    3
 -2      4359       749       727      1070
 -1     32171    3    0    3
 -2       675      3546       676      5130
 -1     32172    3    0    3
 -2       834      3728      2933      2906
 -1     32173    3    0    3
 -2      3496      6561      4568      6782
 -1     32174    3    0    3
 -2       676      3546      1027       875
 -1     32175    3    0    3
 -2      5139      3096      4196      5138
 -1     32176    3    0    3
 -2      3546       675       676      1027
 -1     32177    3    0    3
 -2      3842       675       727      5138
 -1     32178    3    0    3
 -2       218      5130       217      3140
 -1     32179    3    0    3
 -2      1703      2035      1763      6209
 -1     32180    3    0    3
 -2      1027      3546       675      3842
 -1     32181    3    0    3
 -2      4582      2389      6144      2393
 -1     32182    3    0    3
 -2      4258      6518      5160      4209
 -1     32183    3    0    3
 -2      5138       675      3097      5130
 -1     32184    3    0    3
 -2      4317      5138      3097      5130
 -1     32185    3    0    3
 -2      4366      4391      3769      3628
 -1     32186    3    0    3
 -2      2486      6553      6566      6571
 -1     32187    3    0    3
 -2      4400       477       476      4031
 -1     32188    3    0    3
 -2      4287      5149      6133      6554
 -1     32189    3    0    3
 -2      5721      3842      4034      6543
 -1     32190    3    0    3
 -2      5134      3117      3855      4196
 -1     32191    3    0    3
 -2      6524      5147      4290      6541
 -1     32192    3    0    3
 -2      1063       941       674      6524
 -1     32193    3    0    3
 -2      4831      6660      4819      2264
 -1     32194    3    0    3
 -2      5142      1665      1603      5721
 -1     32195    3    0    3
 -2      3622      3134      3772      5088
 -1     32196    3    0    3
 -2      2486      6553      2538      2537
 -1     32197    3    0    3
 -2      3622      3134      5088      3133
 -1     32198    3    0    3
 -2      1068      6517      6519      6540
 -1     32199    3    0    3
 -2      1665      1603      1662      5142
 -1     32200    3    0    3
 -2      1310      1564      1327      6133
 -1     32201    3    0    3
 -2      5374      6656      5375      1389
 -1     32202    3    0    3
 -2       834      2933      5095       835
 -1     32203    3    0    3
 -2      5136      4196      3489      5134
 -1     32204    3    0    3
 -2      4136      4056      4107      4817
 -1     32205    3    0    3
 -2      5177      1491      5183      6188
 -1     32206    3    0    3
 -2      3525      4366      4391      3852
 -1     32207    3    0    3
 -2      3628      4366      4391      5135
 -1     32208    3    0    3
 -2      6629      2450      2341      2194
 -1     32209    3    0    3
 -2      1407      1565      1405      5148
 -1     32210    3    0    3
 -2      5151      5145      4260      6508
 -1     32211    3    0    3
 -2      3109      4343      4149      3128
 -1     32212    3    0    3
 -2      1066       671       670      6545
 -1     32213    3    0    3
 -2      5142      4260      5145      6508
 -1     32214    3    0    3
 -2      6615      1873      6614      4652
 -1     32215    3    0    3
 -2      4178      6600      6627      4601
 -1     32216    3    0    3
 -2      3257      4010      3176      5227
 -1     32217    3    0    3
 -2      5721      3842      6543      1070
 -1     32218    3    0    3
 -2      4409      3266      5220      3275
 -1     32219    3    0    3
 -2      1661      1655      1654      5151
 -1     32220    3    0    3
 -2      3846      4097      4579      4464
 -1     32221    3    0    3
 -2      5146      1319      6163      6549
 -1     32222    3    0    3
 -2      1545      1546      1476      5152
 -1     32223    3    0    3
 -2      4157      5152      5146      4213
 -1     32224    3    0    3
 -2      1654      6508      1655      1662
 -1     32225    3    0    3
 -2      5296      5297      1432      6406
 -1     32226    3    0    3
 -2      4188      5144      5146      6549
 -1     32227    3    0    3
 -2      4525       422       473      1808
 -1     32228    3    0    3
 -2      1318      1409      1218      6076
 -1     32229    3    0    3
 -2      3134      5088      4526      3772
 -1     32230    3    0    3
 -2      5089      3772      3095      3741
 -1     32231    3    0    3
 -2       225       801       802      5091
 -1     32232    3    0    3
 -2      3861      3454      5144      6551
 -1     32233    3    0    3
 -2       884      1603      1070      5721
 -1     32234    3    0    3
 -2      1409      1408       956      6142
 -1     32235    3    0    3
 -2       924       802      5091      6548
 -1     32236    3    0    3
 -2      1408      1036      1066      6771
 -1     32237    3    0    3
 -2      3622      5091      3135      5090
 -1     32238    3    0    3
 -2      1185      5146      5144      6549
 -1     32239    3    0    3
 -2      5139      3096      5138       727
 -1     32240    3    0    3
 -2      1185      5146      6549      1319
 -1     32241    3    0    3
 -2      5086      3763      5087      4437
 -1     32242    3    0    3
 -2       222       671       748      6746
 -1     32243    3    0    3
 -2      1873      6610      6614      1835
 -1     32244    3    0    3
 -2      4437      3763      5087      6545
 -1     32245    3    0    3
 -2      5087      4437      6545      6746
 -1     32246    3    0    3
 -2      5137      4437      3138      6746
 -1     32247    3    0    3
 -2      2362      6479      2586      2454
 -1     32248    3    0    3
 -2       224      5090       802       670
 -1     32249    3    0    3
 -2       748      1036       884      5720
 -1     32250    3    0    3
 -2      3552      4525      3123      3093
 -1     32251    3    0    3
 -2      5087      3114       670      5090
 -1     32252    3    0    3
 -2      4464      4264      4038      4530
 -1     32253    3    0    3
 -2      5091       801       924      5094
 -1     32254    3    0    3
 -2      3453      5768      3482      5558
 -1     32255    3    0    3
 -2      3861      5093      4400      5095
 -1     32256    3    0    3
 -2       178      2906       179       834
 -1     32257    3    0    3
 -2      1185      5146      6076      5144
 -1     32258    3    0    3
 -2      5382      5371       916      6077
 -1     32259    3    0    3
 -2       802       225      5091      3135
 -1     32260    3    0    3
 -2      1660      5152      5154      6542
 -1     32261    3    0    3
 -2      5093      5096      3728      4253
 -1     32262    3    0    3
 -2      1042      1185      5144       986
 -1     32263    3    0    3
 -2      6142      6076      5143      6551
 -1     32264    3    0    3
 -2       802       801       924      5091
 -1     32265    3    0    3
 -2      4096      6601      4601      6628
 -1     32266    3    0    3
 -2      2905      2906      2907      3728
 -1     32267    3    0    3
 -2      3728      4400      5093      5095
 -1     32268    3    0    3
 -2      6543      3628      5141      3546
 -1     32269    3    0    3
 -2       956       924      1218      6551
 -1     32270    3    0    3
 -2      5094      5092      3861      3454
 -1     32271    3    0    3
 -2       477      5091      3094      4031
 -1     32272    3    0    3
 -2      4125      5096      5098      3728
 -1     32273    3    0    3
 -2      4400      3728      2933      5095
 -1     32274    3    0    3
 -2      1042       801       835      5094
 -1     32275    3    0    3
 -2      5144      3454      5143      6551
 -1     32276    3    0    3
 -2      3133      3094      3135      3622
 -1     32277    3    0    3
 -2      4522      3128      3107      4149
 -1     32278    3    0    3
 -2      4161      5090      3763      6548
 -1     32279    3    0    3
 -2      3454      3861      5144      4264
 -1     32280    3    0    3
 -2      5094      4031      5092      3454
 -1     32281    3    0    3
 -2      6543      3628      3546      3842
 -1     32282    3    0    3
 -2       748      3146      5137       749
 -1     32283    3    0    3
 -2      6543      3628      3842      4034
 -1     32284    3    0    3
 -2       834      2933       835       178
 -1     32285    3    0    3
 -2      4534      4405      4216      4531
 -1     32286    3    0    3
 -2       421      3123      1871       422
 -1     32287    3    0    3
 -2      2933       476      2975      4400
 -1     32288    3    0    3
 -2       748      3146      3138      5137
 -1     32289    3    0    3
 -2      4131      3963      5100      4162
 -1     32290    3    0    3
 -2      3622      5088      3772      5089
 -1     32291    3    0    3
 -2      5139      3096      5137      4196
 -1     32292    3    0    3
 -2      3493       473      4528      3960
 -1     32293    3    0    3
 -2      3493       473       474      2976
 -1     32294    3    0    3
 -2      4031      5091      3094      3622
 -1     32295    3    0    3
 -2       801         9       835       477
 -1     32296    3    0    3
 -2      2933       835       178       477
 -1     32297    3    0    3
 -2       835         9       178       477
 -1     32298    3    0    3
 -2      4031      3713      4400      5092
 -1     32299    3    0    3
 -2      3688      5096      5093      4216
 -1     32300    3    0    3
 -2      3622      4031      5091      5089
 -1     32301    3    0    3
 -2      4031      3713      5092      3741
 -1     32302    3    0    3
 -2      3493       473      2976      4528
 -1     32303    3    0    3
 -2      3094      5091      3135      3622
 -1     32304    3    0    3
 -2      5138      3097       219      3096
 -1     32305    3    0    3
 -2       223       671       222      3136
 -1     32306    3    0    3
 -2      3138      3155      4437      3151
 -1     32307    3    0    3
 -2      3136      3114       223      5087
 -1     32308    3    0    3
 -2      2988      3595      2985      2987
 -1     32309    3    0    3
 -2      4437      5086      4318      4343
 -1     32310    3    0    3
 -2       488      6795      1730      6161
 -1     32311    3    0    3
 -2      4437      5137      3138      3151
 -1     32312    3    0    3
 -2      3628      5138      4196      5135
 -1     32313    3    0    3
 -2      2486      6553      2537      6566
 -1     32314    3    0    3
 -2      4318      4343      4576      6556
 -1     32315    3    0    3
 -2      2126      1902      4524      1871
 -1     32316    3    0    3
 -2      5137      4196      3148      5134
 -1     32317    3    0    3
 -2      6545      1066      1036      6771
 -1     32318    3    0    3
 -2      4598      2328      2632      2351
 -1     32319    3    0    3
 -2      5094      1042       924      6551
 -1     32320    3    0    3
 -2      2976      2955       474      3493
 -1     32321    3    0    3
 -2      6545      5090      3763      5087
 -1     32322    3    0    3
 -2      3622      3772      3095      5089
 -1     32323    3    0    3
 -2      3095      4031      3622      5089
 -1     32324    3    0    3
 -2      5095      1042      5094      3861
 -1     32325    3    0    3
 -2       884      6771      1036      1603
 -1     32326    3    0    3
 -2      3763      5088      5086      5087
 -1     32327    3    0    3
 -2      2988      3823      4494      3595
 -1     32328    3    0    3
 -2      2988      3823      2987      2974
 -1     32329    3    0    3
 -2      4570      4572      4495      4470
 -1     32330    3    0    3
 -2      3133      3135      3114      5090
 -1     32331    3    0    3
 -2      3135      3133      3622      5090
 -1     32332    3    0    3
 -2      3133      3114      5087      5090
 -1     32333    3    0    3
 -2      5087      3763      5088      5090
 -1     32334    3    0    3
 -2      3024      3728      3008      2907
 -1     32335    3    0    3
 -2      3489      4196      5137      5134
 -1     32336    3    0    3
 -2      4575      5136      4366      4339
 -1     32337    3    0    3
 -2      4366      4172      4574      4575
 -1     32338    3    0    3
 -2      3741       474      3960      3098
 -1     32339    3    0    3
 -2      5213      3926      3986      5189
 -1     32340    3    0    3
 -2      5089      3622      5088      4161
 -1     32341    3    0    3
 -2      6142      1408      1066      6771
 -1     32342    3    0    3
 -2       802       924       956      6548
 -1     32343    3    0    3
 -2      4318      4519      4149      4523
 -1     32344    3    0    3
 -2      3094      3095       476      4031
 -1     32345    3    0    3
 -2      4531      5093      3688      3713
 -1     32346    3    0    3
 -2      3861      5094      3454      6551
 -1     32347    3    0    3
 -2      4031      3094      3095      3622
 -1     32348    3    0    3
 -2      3095      3772      3134      3098
 -1     32349    3    0    3
 -2       979      3557      5175      6546
 -1     32350    3    0    3
 -2      4031       477      5091      5094
 -1     32351    3    0    3
 -2       979       986      5095      6546
 -1     32352    3    0    3
 -2      5093      4216      4243      4531
 -1     32353    3    0    3
 -2      4190      4405      4216      4534
 -1     32354    3    0    3
 -2       835       801       477      5094
 -1     32355    3    0    3
 -2      3846      1985      2260      1971
 -1     32356    3    0    3
 -2      1597      5170      6493      6022
 -1     32357    3    0    3
 -2      4619      4621      4076      4122
 -1     32358    3    0    3
 -2      3008      3688      3007      3655
 -1     32359    3    0    3
 -2      3713      3960      3493      4530
 -1     32360    3    0    3
 -2      1985      1808      4528      1807
 -1     32361    3    0    3
 -2      3713      3960      4530      3741
 -1     32362    3    0    3
 -2      4530      4464      4264      4527
 -1     32363    3    0    3
 -2      6543      3628      4034      5141
 -1     32364    3    0    3
 -2      4400      3861      5095      5094
 -1     32365    3    0    3
 -2      5144      1042       986      3861
 -1     32366    3    0    3
 -2      1042       924       801      5094
 -1     32367    3    0    3
 -2      5095       835      2933      5094
 -1     32368    3    0    3
 -2      6545      5090      5087       670
 -1     32369    3    0    3
 -2       477      2933       835      5094
 -1     32370    3    0    3
 -2      2933      4400      5095      5094
 -1     32371    3    0    3
 -2      3493      4530      4531      3713
 -1     32372    3    0    3
 -2      5089      5088      3772      4294
 -1     32373    3    0    3
 -2      5089      4031      5092      3741
 -1     32374    3    0    3
 -2      5089      3095      4031      3741
 -1     32375    3    0    3
 -2       474       475      3741      3713
 -1     32376    3    0    3
 -2      4216      3861      5093      4243
 -1     32377    3    0    3
 -2      5090      3622      5091      4161
 -1     32378    3    0    3
 -2      4161      5143      4294      3454
 -1     32379    3    0    3
 -2      5091      3622      5089      4161
 -1     32380    3    0    3
 -2      3454      4161      5143      6551
 -1     32381    3    0    3
 -2      6546      5144      5175      6549
 -1     32382    3    0    3
 -2      4096      6601      4607      4148
 -1     32383    3    0    3
 -2      4253      5095      3861      6546
 -1     32384    3    0    3
 -2       835       834       986      5095
 -1     32385    3    0    3
 -2      2955      3688      2975      3713
 -1     32386    3    0    3
 -2      3688      2955      2975      3024
 -1     32387    3    0    3
 -2      4097      3846      4525      4464
 -1     32388    3    0    3
 -2      1218       924      1042      6551
 -1     32389    3    0    3
 -2       801      5091       477      5094
 -1     32390    3    0    3
 -2      4519      4579      3664      4097
 -1     32391    3    0    3
 -2        20      1807       423       473
 -1     32392    3    0    3
 -2      5092      5093      4400      3861
 -1     32393    3    0    3
 -2      6546      1185      6549      1187
 -1     32394    3    0    3
 -2      6548       956      6142      6551
 -1     32395    3    0    3
 -2      4294      4318      5088      4526
 -1     32396    3    0    3
 -2      4149      4519      3664      4522
 -1     32397    3    0    3
 -2      3664      4519      4524      4522
 -1     32398    3    0    3
 -2      3124      3157      4523      4526
 -1     32399    3    0    3
 -2      4579      4519      3664      4576
 -1     32400    3    0    3
 -2      3489      5140      4034      4339
 -1     32401    3    0    3
 -2      1218      5144      1042      1185
 -1     32402    3    0    3
 -2      4318      4294      5088      3763
 -1     32403    3    0    3
 -2      5143      4294      4318      3763
 -1     32404    3    0    3
 -2      4294      5089      5088      4161
 -1     32405    3    0    3
 -2      3137      5086      3155      3139
 -1     32406    3    0    3
 -2      4519      4294      4579      4097
 -1     32407    3    0    3
 -2      5091      5090      4161      6548
 -1     32408    3    0    3
 -2      4096      6601      6628      4607
 -1     32409    3    0    3
 -2      4233      6521      5150      4209
 -1     32410    3    0    3
 -2      3688      3903      4534      4531
 -1     32411    3    0    3
 -2      5095      1042      3861       986
 -1     32412    3    0    3
 -2      3861      5092      5093      4243
 -1     32413    3    0    3
 -2      4534      3903      4405      4531
 -1     32414    3    0    3
 -2       475      2975       476      3713
 -1     32415    3    0    3
 -2      2715      6640      2678      2537
 -1     32416    3    0    3
 -2      2715      6640      4587      2678
 -1     32417    3    0    3
 -2      6142       956      1218      6551
 -1     32418    3    0    3
 -2      5094      3861      1042      6551
 -1     32419    3    0    3
 -2      3861      5144      1042      6551
 -1     32420    3    0    3
 -2      5089      4031      5091      3454
 -1     32421    3    0    3
 -2      5088      3622      5090      4161
 -1     32422    3    0    3
 -2      4537      4540      2043      1723
 -1     32423    3    0    3
 -2      5095      3861      5093      4253
 -1     32424    3    0    3
 -2      3688      3655      5096      4534
 -1     32425    3    0    3
 -2       986       834       979      5095
 -1     32426    3    0    3
 -2       834      5098       979      5095
 -1     32427    3    0    3
 -2      5098      5096      3557      4253
 -1     32428    3    0    3
 -2      5093      3728      5095      4253
 -1     32429    3    0    3
 -2      1873      6610      2004      6615
 -1     32430    3    0    3
 -2       748       884      4359      5720
 -1     32431    3    0    3
 -2       727      3146       220       749
 -1     32432    3    0    3
 -2      4161      4294      5089      3454
 -1     32433    3    0    3
 -2      5721      5140      5720      6771
 -1     32434    3    0    3
 -2      2362      6479      4625      4623
 -1     32435    3    0    3
 -2       488      6795      6606      1781
 -1     32436    3    0    3
 -2       671      1066      1036      6545
 -1     32437    3    0    3
 -2      2715      6640      2537      6553
 -1     32438    3    0    3
 -2      6548       924       956      6551
 -1     32439    3    0    3
 -2      4031      5089      5092      3454
 -1     32440    3    0    3
 -2      5091      4031      5094      3454
 -1     32441    3    0    3
 -2      4400      5092      3861      5094
 -1     32442    3    0    3
 -2      4400      4031      5092      5094
 -1     32443    3    0    3
 -2      5090      5091       802      6548
 -1     32444    3    0    3
 -2      5090       802       670      6548
 -1     32445    3    0    3
 -2      6508      5145      1410      6552
 -1     32446    3    0    3
 -2       956       670       802      6548
 -1     32447    3    0    3
 -2      3763      4294      5088      4161
 -1     32448    3    0    3
 -2      3763      5143      4294      4161
 -1     32449    3    0    3
 -2      6076      1462      5145      6450
 -1     32450    3    0    3
 -2      5721      3842      5139      4034
 -1     32451    3    0    3
 -2      4539      2973      3595      3565
 -1     32452    3    0    3
 -2      1218      5144      1185      6076
 -1     32453    3    0    3
 -2       834      2933       178      2906
 -1     32454    3    0    3
 -2      1661      1660      5153      6542
 -1     32455    3    0    3
 -2      6122      1655      5151      5148
 -1     32456    3    0    3
 -2      5151      5153      4184      6542
 -1     32457    3    0    3
 -2      3557      4162      5097      3963
 -1     32458    3    0    3
 -2      5146      5152      1467      6450
 -1     32459    3    0    3
 -2      1546      1653      1467      5152
 -1     32460    3    0    3
 -2      1029      4251      3858      5118
 -1     32461    3    0    3
 -2      3546      3628      5138      3842
 -1     32462    3    0    3
 -2      4239      5143      5145      6076
 -1     32463    3    0    3
 -2      1318      1319      1467      5146
 -1     32464    3    0    3
 -2      5720      5140      6545      6771
 -1     32465    3    0    3
 -2      3964      6567      3467      6138
 -1     32466    3    0    3
 -2      6122      1655      5148      1565
 -1     32467    3    0    3
 -2      5720       671      6545      6746
 -1     32468    3    0    3
 -2      5720       671       748      1036
 -1     32469    3    0    3
 -2       979      1187       986      6546
 -1     32470    3    0    3
 -2      3557      4253      5175      6546
 -1     32471    3    0    3
 -2      4216      3688      5096      4534
 -1     32472    3    0    3
 -2      6630      2501      2483      6558
 -1     32473    3    0    3
 -2      4405      4216      4611      4190
 -1     32474    3    0    3
 -2      4253      3557      5175      4216
 -1     32475    3    0    3
 -2      4253      5096      3557      4216
 -1     32476    3    0    3
 -2      4184      5151      5152      4213
 -1     32477    3    0    3
 -2      1368      1491      1476      6163
 -1     32478    3    0    3
 -2      1368      5177      1491      6163
 -1     32479    3    0    3
 -2      5143      4579      4264      4239
 -1     32480    3    0    3
 -2      4213      5152      5146      6450
 -1     32481    3    0    3
 -2      5152      1653      1467      6450
 -1     32482    3    0    3
 -2      1654      6508      5151      1655
 -1     32483    3    0    3
 -2      5145      5151      4260      4213
 -1     32484    3    0    3
 -2      1653      1660      1661      6542
 -1     32485    3    0    3
 -2      1603      5142      5721      6771
 -1     32486    3    0    3
 -2      4575      4366      4172      3467
 -1     32487    3    0    3
 -2      1662      1665      5142      6516
 -1     32488    3    0    3
 -2      3489      5721      5139      4034
 -1     32489    3    0    3
 -2      3676      3477      4350      4547
 -1     32490    3    0    3
 -2      6122      5153      1661      6521
 -1     32491    3    0    3
 -2      3951      3908      3498      5216
 -1     32492    3    0    3
 -2      4598      2328      6598      4596
 -1     32493    3    0    3
 -2      4391      4366      3769      3852
 -1     32494    3    0    3
 -2      4292      5140      4318      6556
 -1     32495    3    0    3
 -2      6209      4565      3496      6492
 -1     32496    3    0    3
 -2       923      3451      5114      5115
 -1     32497    3    0    3
 -2      1310      1196      1048      6523
 -1     32498    3    0    3
 -2      4584      4586      4233      4287
 -1     32499    3    0    3
 -2      6163      1467      5146      5152
 -1     32500    3    0    3
 -2      5141      4290      3769      3852
 -1     32501    3    0    3
 -2      1066      6142      6545      6548
 -1     32502    3    0    3
 -2       416      3126      3142      4571
 -1     32503    3    0    3
 -2      4172      4366      4577      3467
 -1     32504    3    0    3
 -2      4575      3855      5136      3824
 -1     32505    3    0    3
 -2      4574      4172      3639      4575
 -1     32506    3    0    3
 -2      1491      5177      5183      6163
 -1     32507    3    0    3
 -2      5137      4359       727      5139
 -1     32508    3    0    3
 -2       915      1070      1665      6543
 -1     32509    3    0    3
 -2      4196      3489      5137      5139
 -1     32510    3    0    3
 -2      3628      3546      3769      5141
 -1     32511    3    0    3
 -2      5148      5151      4260      6508
 -1     32512    3    0    3
 -2       884      6771      5720      1036
 -1     32513    3    0    3
 -2      5721      3842      1070      5139
 -1     32514    3    0    3
 -2      4366      5136      3628      4034
 -1     32515    3    0    3
 -2      3769      4366      3628      5141
 -1     32516    3    0    3
 -2      5138      3628      4196      5139
 -1     32517    3    0    3
 -2      5129      3769      4290      3852
 -1     32518    3    0    3
 -2      5141      3769      4366      3852
 -1     32519    3    0    3
 -2      3467      4575      4366      4339
 -1     32520    3    0    3
 -2      3628      4366      4034      5141
 -1     32521    3    0    3
 -2      6657      3041      4806      5963
 -1     32522    3    0    3
 -2      1665      1406      1027      6543
 -1     32523    3    0    3
 -2      6492      4583      6558      6630
 -1     32524    3    0    3
 -2      6657      3041      3091      3061
 -1     32525    3    0    3
 -2      4389      4567      4363      3496
 -1     32526    3    0    3
 -2      3852      5141      4290      4363
 -1     32527    3    0    3
 -2      3904      3122      5129      4389
 -1     32528    3    0    3
 -2      2450      2409      2194      6636
 -1     32529    3    0    3
 -2      6112      5133       662      6507
 -1     32530    3    0    3
 -2      3842      4034      3628      5139
 -1     32531    3    0    3
 -2      5721      5142      1665      6543
 -1     32532    3    0    3
 -2       915       727      1070      3842
 -1     32533    3    0    3
 -2      4034      5136      3628      5139
 -1     32534    3    0    3
 -2      1665      1027       915      6543
 -1     32535    3    0    3
 -2      6516      5148      1407      6520
 -1     32536    3    0    3
 -2      3842       915      1027      6543
 -1     32537    3    0    3
 -2      6450      5151      5145      4213
 -1     32538    3    0    3
 -2      6566      2240      2260      6570
 -1     32539    3    0    3
 -2      5139      4359      1070      5721
 -1     32540    3    0    3
 -2      4598      2328      4596      2632
 -1     32541    3    0    3
 -2      4229      6491      5159      4279
 -1     32542    3    0    3
 -2      6142      1066      6545      6771
 -1     32543    3    0    3
 -2      3824      4343      5140      6556
 -1     32544    3    0    3
 -2      3136       222      3138      6746
 -1     32545    3    0    3
 -2      3138       222       748      6746
 -1     32546    3    0    3
 -2       671      3136      5087      6746
 -1     32547    3    0    3
 -2       675       219       727      5138
 -1     32548    3    0    3
 -2       675      3097       219      5138
 -1     32549    3    0    3
 -2       220       221       749      3146
 -1     32550    3    0    3
 -2      3842      3546       675      5138
 -1     32551    3    0    3
 -2       219       220       727      3096
 -1     32552    3    0    3
 -2       214      6540       778      3113
 -1     32553    3    0    3
 -2       214      6540      3113      3099
 -1     32554    3    0    3
 -2      2127      4569      6528      1912
 -1     32555    3    0    3
 -2      3024      3728      3688      3008
 -1     32556    3    0    3
 -2       749      4359       727      5137
 -1     32557    3    0    3
 -2       214      6540       842       778
 -1     32558    3    0    3
 -2      5134      3117      4196      3148
 -1     32559    3    0    3
 -2      4045      6567      4576      3467
 -1     32560    3    0    3
 -2      2486      6553      6571      2538
 -1     32561    3    0    3
 -2      5138      3842      3628      5139
 -1     32562    3    0    3
 -2      3628      5136      4196      5139
 -1     32563    3    0    3
 -2      5151      6450      5145      6552
 -1     32564    3    0    3
 -2      5721      1665      1070      6543
 -1     32565    3    0    3
 -2      4196      5136      3489      5139
 -1     32566    3    0    3
 -2      5136      4034      3489      5139
 -1     32567    3    0    3
 -2       493      1879       494        98
 -1     32568    3    0    3
 -2      1665      1070      1603      5721
 -1     32569    3    0    3
 -2      1066       956      6142      6548
 -1     32570    3    0    3
 -2      2718      6569      2517      6567
 -1     32571    3    0    3
 -2      3772      5089      4294      4527
 -1     32572    3    0    3
 -2      5086      4318      3763      4437
 -1     32573    3    0    3
 -2      3763      4318      5140      4437
 -1     32574    3    0    3
 -2      4437      3136      3138      6746
 -1     32575    3    0    3
 -2      5213      3926      4320      4430
 -1     32576    3    0    3
 -2      3155      3136      3138      4437
 -1     32577    3    0    3
 -2       218      3097      5130      3140
 -1     32578    3    0    3
 -2      4539      2973      3786      4458
 -1     32579    3    0    3
 -2      3964      4495      1806      4571
 -1     32580    3    0    3
 -2      2127      4569      1912      2086
 -1     32581    3    0    3
 -2      4343      3824      4045      4576
 -1     32582    3    0    3
 -2      3115      3144      3117      4573
 -1     32583    3    0    3
 -2      5136      4366      3628      5135
 -1     32584    3    0    3
 -2      5136      3628      4196      5135
 -1     32585    3    0    3
 -2       834      3728      5098      5095
 -1     32586    3    0    3
 -2      3639      3116      4571      4574
 -1     32587    3    0    3
 -2      4574      3639      3855      4575
 -1     32588    3    0    3
 -2      1474      5724      1280      1355
 -1     32589    3    0    3
 -2      3855      4366      4574      4575
 -1     32590    3    0    3
 -2      3148      5137      5134      3151
 -1     32591    3    0    3
 -2      3148      3146      5137      3151
 -1     32592    3    0    3
 -2      5137      3146      3138      3151
 -1     32593    3    0    3
 -2      4391      3628      5135      4317
 -1     32594    3    0    3
 -2      3628      4391      3769      4317
 -1     32595    3    0    3
 -2      4577      5141      4339      4366
 -1     32596    3    0    3
 -2       683       676      3546      5130
 -1     32597    3    0    3
 -2       683       217       676      5130
 -1     32598    3    0    3
 -2       216       217       683      3119
 -1     32599    3    0    3
 -2      3489      5721      4034      5140
 -1     32600    3    0    3
 -2      3125       413      1763      3130
 -1     32601    3    0    3
 -2      4318      3139      4523      4343
 -1     32602    3    0    3
 -2      4409      3266      3275      3273
 -1     32603    3    0    3
 -2      3769      4290      5131      5129
 -1     32604    3    0    3
 -2      5130      3121      5128      5131
 -1     32605    3    0    3
 -2       217      5130      3119      3140
 -1     32606    3    0    3
 -2      5710      2377      2361      2539
 -1     32607    3    0    3
 -2      3149      5130      3140      3121
 -1     32608    3    0    3
 -2      3904      3101      3100      3122
 -1     32609    3    0    3
 -2      5132      3904      6559      6524
 -1     32610    3    0    3
 -2      5128      3769      5130      5131
 -1     32611    3    0    3
 -2      3149      5130      4317      3097
 -1     32612    3    0    3
 -2       215       216       674      3100
 -1     32613    3    0    3
 -2       674       215      3100      6559
 -1     32614    3    0    3
 -2      5132      3101      3099      6529
 -1     32615    3    0    3
 -2      3119      5130       683      5131
 -1     32616    3    0    3
 -2      5135      5138      4196      3145
 -1     32617    3    0    3
 -2      4318      3139      4343      5086
 -1     32618    3    0    3
 -2      3769      4317      5128      5130
 -1     32619    3    0    3
 -2      3121      3119      5130      3140
 -1     32620    3    0    3
 -2      5129      4566      3156      5128
 -1     32621    3    0    3
 -2      6536      5156      4592      6535
 -1     32622    3    0    3
 -2      5131      4290      3904      5129
 -1     32623    3    0    3
 -2      3119      3121      5130      5131
 -1     32624    3    0    3
 -2      5130      3769      3546      5131
 -1     32625    3    0    3
 -2       958      4291      5522      3597
 -1     32626    3    0    3
 -2      3101      3147      5132      3099
 -1     32627    3    0    3
 -2      3113      6111      6527      6540
 -1     32628    3    0    3
 -2       674       216      3119      3100
 -1     32629    3    0    3
 -2      3101      5132      3904      6529
 -1     32630    3    0    3
 -2      6774      5718      5713      6773
 -1     32631    3    0    3
 -2      3149      5128      5130      3121
 -1     32632    3    0    3
 -2      5131      5128      3769      5129
 -1     32633    3    0    3
 -2      1873      6610      1835      2004
 -1     32634    3    0    3
 -2      5131      3119      3121      3122
 -1     32635    3    0    3
 -2      1912      1754       478        19
 -1     32636    3    0    3
 -2      3149      5130      3097      3140
 -1     32637    3    0    3
 -2      3122      3156      3121      5129
 -1     32638    3    0    3
 -2      3121      3156      5128      5129
 -1     32639    3    0    3
 -2      3121      5131      3122      5129
 -1     32640    3    0    3
 -2      3122      5131      3904      5129
 -1     32641    3    0    3
 -2      5131      3121      5128      5129
 -1     32642    3    0    3
 -2      3156      3122      3112      4389
 -1     32643    3    0    3
 -2      5156      6536      3082      6535
 -1     32644    3    0    3
 -2      5129      3122      3156      4389
 -1     32645    3    0    3
 -2      3112      3111      3110      4389
 -1     32646    3    0    3
 -2      3747      3103      3141      4564
 -1     32647    3    0    3
 -2      5147      5132      4290      4363
 -1     32648    3    0    3
 -2      1040      4179      3920      5762
 -1     32649    3    0    3
 -2      4213      6076      5145      6450
 -1     32650    3    0    3
 -2      5132      3101      3904      4389
 -1     32651    3    0    3
 -2      3101      3111      3112      4389
 -1     32652    3    0    3
 -2      5132      3111      3101      4389
 -1     32653    3    0    3
 -2      1040      4179       752      3920
 -1     32654    3    0    3
 -2      5129      4567      3852      4363
 -1     32655    3    0    3
 -2      4270      1806      3747      3964
 -1     32656    3    0    3
 -2      2718      6138      4578      6567
 -1     32657    3    0    3
 -2      1900      4470      1913      3694
 -1     32658    3    0    3
 -2      6117      6561      4568      6785
 -1     32659    3    0    3
 -2      5134      3117      3148      3144
 -1     32660    3    0    3
 -2      3145      4196      3148      3096
 -1     32661    3    0    3
 -2      5134      3148      3151      3144
 -1     32662    3    0    3
 -2       421      4524      1871      3123
 -1     32663    3    0    3
 -2      4270      3525      3747      4564
 -1     32664    3    0    3
 -2       421      4524      3132      1902
 -1     32665    3    0    3
 -2      4565      4074      4270      4564
 -1     32666    3    0    3
 -2      5131      3100      3122      3904
 -1     32667    3    0    3
 -2      5130       218       217       676
 -1     32668    3    0    3
 -2      5129      4566      3852      4567
 -1     32669    3    0    3
 -2      3146      3148      5137      3096
 -1     32670    3    0    3
 -2      4196      5137      3148      3096
 -1     32671    3    0    3
 -2      5128      4317      4391      3149
 -1     32672    3    0    3
 -2      3728      2975      2933      2907
 -1     32673    3    0    3
 -2      3145      5138      4196      3096
 -1     32674    3    0    3
 -2      5129      4566      5128      3852
 -1     32675    3    0    3
 -2       884      6771      1603      5721
 -1     32676    3    0    3
 -2       884      6771      5721      5720
 -1     32677    3    0    3
 -2      2127      4569      6565      6528
 -1     32678    3    0    3
 -2      4575      3639      3855      4573
 -1     32679    3    0    3
 -2      4495      3639      4571      4572
 -1     32680    3    0    3
 -2      3109      4343      3128      3129
 -1     32681    3    0    3
 -2      3824      4339      4045      4576
 -1     32682    3    0    3
 -2      5135      4366      4391      4574
 -1     32683    3    0    3
 -2      3145      5135      3153      3117
 -1     32684    3    0    3
 -2       834      3728      5095      2933
 -1     32685    3    0    3
 -2      4196      3145      3148      3117
 -1     32686    3    0    3
 -2      5135      4196      3855      3117
 -1     32687    3    0    3
 -2      4196      5135      3145      3117
 -1     32688    3    0    3
 -2      5151      1661      5153      6542
 -1     32689    3    0    3
 -2      5086      3129      4437      3155
 -1     32690    3    0    3
 -2       428      4540      1723      1749
 -1     32691    3    0    3
 -2      3922      4305      2043      4537
 -1     32692    3    0    3
 -2      4570      3694      1900      3106
 -1     32693    3    0    3
 -2      3109      4149      4570      3106
 -1     32694    3    0    3
 -2      1899      1900      3694       419
 -1     32695    3    0    3
 -2      3694      4570      4149      3106
 -1     32696    3    0    3
 -2      3747      1806       416      4571
 -1     32697    3    0    3
 -2      1010      5318      1179      1180
 -1     32698    3    0    3
 -2      4470      4572      1901      2098
 -1     32699    3    0    3
 -2      4495      3126       417       416
 -1     32700    3    0    3
 -2      1010      5318      1180      3788
 -1     32701    3    0    3
 -2      4571      4172      3964      4572
 -1     32702    3    0    3
 -2      3639      4172      4571      4572
 -1     32703    3    0    3
 -2      4573      4045      3639      4570
 -1     32704    3    0    3
 -2      3824      4575      3855      4573
 -1     32705    3    0    3
 -2      5795      3602      4990      6758
 -1     32706    3    0    3
 -2      3824      4045      4575      4573
 -1     32707    3    0    3
 -2       416      4495      3126      4571
 -1     32708    3    0    3
 -2      4391      3153      5135      4574
 -1     32709    3    0    3
 -2      4366      3525      4391      4574
 -1     32710    3    0    3
 -2      4366      5135      3855      4574
 -1     32711    3    0    3
 -2      3117      5135      3153      4574
 -1     32712    3    0    3
 -2      3117      3153      3116      4574
 -1     32713    3    0    3
 -2      3855      5135      3117      4574
 -1     32714    3    0    3
 -2      1698      3973      2106      2080
 -1     32715    3    0    3
 -2      4573      3115      3109      4570
 -1     32716    3    0    3
 -2      4570      3108      3109      3106
 -1     32717    3    0    3
 -2      5357      1619      5359      6663
 -1     32718    3    0    3
 -2      1902      1899      3664      4522
 -1     32719    3    0    3
 -2      4522      4149      4519      4523
 -1     32720    3    0    3
 -2      1902      3132       420      4522
 -1     32721    3    0    3
 -2       417      1901      4495       416
 -1     32722    3    0    3
 -2      4343      5140      3489      3824
 -1     32723    3    0    3
 -2      3126      4495       417      3108
 -1     32724    3    0    3
 -2      1763       413       412      3130
 -1     32725    3    0    3
 -2      3496      4389      4567      4203
 -1     32726    3    0    3
 -2      6657      3041      5963      3091
 -1     32727    3    0    3
 -2      6786      1995      2126      2516
 -1     32728    3    0    3
 -2      4571      3964      4495      4572
 -1     32729    3    0    3
 -2      4575      4172      3639      4572
 -1     32730    3    0    3
 -2      3142       416      3747       415
 -1     32731    3    0    3
 -2      6629      2450      6636      4586
 -1     32732    3    0    3
 -2       416      1901      4495      1806
 -1     32733    3    0    3
 -2      4495      1901      3964      1806
 -1     32734    3    0    3
 -2      4339      4045      4575      3824
 -1     32735    3    0    3
 -2      5028      4997      4388      4417
 -1     32736    3    0    3
 -2      4576      4292      4318      6556
 -1     32737    3    0    3
 -2      1806      1901      3964      2125
 -1     32738    3    0    3
 -2      4270      1806      3964      1952
 -1     32739    3    0    3
 -2      4389      5129      4290      4363
 -1     32740    3    0    3
 -2      4376      1676      1674      5037
 -1     32741    3    0    3
 -2      3964      1806      2125      1952
 -1     32742    3    0    3
 -2      4997      5028      4388      3523
 -1     32743    3    0    3
 -2      4567      5129      4389      4363
 -1     32744    3    0    3
 -2      3917      6468      6156       966
 -1     32745    3    0    3
 -2      5145      4292      4239      4581
 -1     32746    3    0    3
 -2      4339      3489      5140      3824
 -1     32747    3    0    3
 -2       413      3125      1763      1831
 -1     32748    3    0    3
 -2       478      1912        19       410
 -1     32749    3    0    3
 -2      3141      3747      1830       415
 -1     32750    3    0    3
 -2      3747      1806      1830       415
 -1     32751    3    0    3
 -2      4576      4578      3467      6567
 -1     32752    3    0    3
 -2      2300      4627      6596      6590
 -1     32753    3    0    3
 -2       413       414      3125      1831
 -1     32754    3    0    3
 -2      1918      2120      1831      4270
 -1     32755    3    0    3
 -2      4586      5150      4233      4287
 -1     32756    3    0    3
 -2      4287      5147      4314      4583
 -1     32757    3    0    3
 -2      1830      1831      2120      4270
 -1     32758    3    0    3
 -2      3728      2905      3008      2907
 -1     32759    3    0    3
 -2      3852      3525      4366      4172
 -1     32760    3    0    3
 -2      1217      6502      5169      5976
 -1     32761    3    0    3
 -2      1918      1831      1763      4565
 -1     32762    3    0    3
 -2      5132      4389      4363      6561
 -1     32763    3    0    3
 -2      2125      3964      1952      6138
 -1     32764    3    0    3
 -2      4287      4584      4586      6558
 -1     32765    3    0    3
 -2      4389      3110      4203      4568
 -1     32766    3    0    3
 -2      5905      1011      1147      6155
 -1     32767    3    0    3
 -2      6566      4213      4239      4581
 -1     32768    3    0    3
 -2      4568      3110      3131      3127
 -1     32769    3    0    3
 -2      3131      3130      3110      6114
 -1     32770    3    0    3
 -2      4391      3103      4574      3525
 -1     32771    3    0    3
 -2      4391      3525      3852      4566
 -1     32772    3    0    3
 -2      6650      3044      6649      6525
 -1     32773    3    0    3
 -2      4203      4568      6114      6209
 -1     32774    3    0    3
 -2      6566      4213      4581      6640
 -1     32775    3    0    3
 -2      4074      3525      4270      4564
 -1     32776    3    0    3
 -2      4376      1676      1686      1674
 -1     32777    3    0    3
 -2      4585      4333      4287      4583
 -1     32778    3    0    3
 -2      3451      6453      5114      4158
 -1     32779    3    0    3
 -2      6561      4363      4333      6782
 -1     32780    3    0    3
 -2      1831      3125      1763      4565
 -1     32781    3    0    3
 -2      5426       960      6134      4392
 -1     32782    3    0    3
 -2      5128      3121      3149      3105
 -1     32783    3    0    3
 -2      3964      1806      3747      4571
 -1     32784    3    0    3
 -2      1010      5318      3788      6400
 -1     32785    3    0    3
 -2      3142      3126      3116      4571
 -1     32786    3    0    3
 -2      5426       960      1140      1162
 -1     32787    3    0    3
 -2      4343      3489      5134      3824
 -1     32788    3    0    3
 -2      4519      4149      3664      4576
 -1     32789    3    0    3
 -2      6786      1995      2516      6572
 -1     32790    3    0    3
 -2      4391      3103      3525      4566
 -1     32791    3    0    3
 -2      4567      3496      4203      4565
 -1     32792    3    0    3
 -2      4391      5128      3149      3105
 -1     32793    3    0    3
 -2      3149      3153      4391      3105
 -1     32794    3    0    3
 -2      4391      3103      3153      4574
 -1     32795    3    0    3
 -2      3116      3639      3117      4574
 -1     32796    3    0    3
 -2      3117      3639      3855      4574
 -1     32797    3    0    3
 -2      6786      1995      6572      3664
 -1     32798    3    0    3
 -2      3103      3116      3153      4574
 -1     32799    3    0    3
 -2      6639       652       873      5754
 -1     32800    3    0    3
 -2      4343      4149      4318      4576
 -1     32801    3    0    3
 -2      4566      3105      3103      3104
 -1     32802    3    0    3
 -2      4565      2035      6492      6209
 -1     32803    3    0    3
 -2      3112      3156      4389      3154
 -1     32804    3    0    3
 -2      4389      3156      4567      3154
 -1     32805    3    0    3
 -2      4270      4172      4074      4577
 -1     32806    3    0    3
 -2      3130      4565      3154      4203
 -1     32807    3    0    3
 -2      4287      4585      4583      6558
 -1     32808    3    0    3
 -2      6668      4168      4136      4811
 -1     32809    3    0    3
 -2      4565      2035      6209      1763
 -1     32810    3    0    3
 -2      1831      1918      4270      4565
 -1     32811    3    0    3
 -2      5128      3156      3105      4566
 -1     32812    3    0    3
 -2      3100      5131      3122      3119
 -1     32813    3    0    3
 -2      3105      4391      5128      4566
 -1     32814    3    0    3
 -2      3852      5128      4391      4566
 -1     32815    3    0    3
 -2      4566      3156      3105      3104
 -1     32816    3    0    3
 -2      3747      3141      1830      4564
 -1     32817    3    0    3
 -2      6502      1217      5169      6184
 -1     32818    3    0    3
 -2      4567      3156      4566      3104
 -1     32819    3    0    3
 -2      3154      3156      4567      3104
 -1     32820    3    0    3
 -2      3496      4567      3852      4074
 -1     32821    3    0    3
 -2      4172      3852      3525      4074
 -1     32822    3    0    3
 -2      4172      3525      4270      4074
 -1     32823    3    0    3
 -2      4566      3852      4567      4074
 -1     32824    3    0    3
 -2      4363      4567      3852      3496
 -1     32825    3    0    3
 -2      4074      3496      4567      4565
 -1     32826    3    0    3
 -2      4270      3747      1830      4564
 -1     32827    3    0    3
 -2      4566      3525      3852      4074
 -1     32828    3    0    3
 -2      3125      3104      4565      4564
 -1     32829    3    0    3
 -2      3104      3125      3141      4564
 -1     32830    3    0    3
 -2      4074      4270      3496      4565
 -1     32831    3    0    3
 -2      4565      1831      3125      4564
 -1     32832    3    0    3
 -2      4270      4074      3496      4577
 -1     32833    3    0    3
 -2      2671      2678      2503      4587
 -1     32834    3    0    3
 -2      3852      3496      4074      4577
 -1     32835    3    0    3
 -2      4567      4564      4074      4565
 -1     32836    3    0    3
 -2      4292      4578      4576      6569
 -1     32837    3    0    3
 -2      3115      4495      3108      4570
 -1     32838    3    0    3
 -2      1010      5318      6400      1179
 -1     32839    3    0    3
 -2      3154      4567      4203      4565
 -1     32840    3    0    3
 -2      4567      3154      3104      4565
 -1     32841    3    0    3
 -2      4567      4564      3104      4566
 -1     32842    3    0    3
 -2      3104      3154      3125      4565
 -1     32843    3    0    3
 -2      3115      4495      3126      3108
 -1     32844    3    0    3
 -2      3115      4495      4570      3639
 -1     32845    3    0    3
 -2      3141      3103      3104      4564
 -1     32846    3    0    3
 -2      3103      4566      3104      4564
 -1     32847    3    0    3
 -2      4566      3103      3525      4564
 -1     32848    3    0    3
 -2      6666      1981      6660      6048
 -1     32849    3    0    3
 -2      2194      2409      4585      6636
 -1     32850    3    0    3
 -2      6558      2409      2525      6636
 -1     32851    3    0    3
 -2      4569      4585      2086      6565
 -1     32852    3    0    3
 -2      2718      1952      2484      6138
 -1     32853    3    0    3
 -2      3852      4363      3496      4577
 -1     32854    3    0    3
 -2      6657      3041      3061      4806
 -1     32855    3    0    3
 -2      1661      5151      5153      6122
 -1     32856    3    0    3
 -2      3151      3155      4437      3129
 -1     32857    3    0    3
 -2      4045      4575      4572      3467
 -1     32858    3    0    3
 -2      4572      4575      4172      3467
 -1     32859    3    0    3
 -2      3467      4045      4575      4339
 -1     32860    3    0    3
 -2      5175      5176      4162      3963
 -1     32861    3    0    3
 -2      4565      4270      3496      6492
 -1     32862    3    0    3
 -2      6558      4583      4584      6630
 -1     32863    3    0    3
 -2      5189      1265      5186      6205
 -1     32864    3    0    3
 -2      4572      1901      4495      4470
 -1     32865    3    0    3
 -2      1901      4495      3964      4572
 -1     32866    3    0    3
 -2      1900      4470      4570      1903
 -1     32867    3    0    3
 -2      3108      3109      3115      4570
 -1     32868    3    0    3
 -2      4270      1806      1952      1830
 -1     32869    3    0    3
 -2      4270      1806      1830      3747
 -1     32870    3    0    3
 -2      4573      3639      3115      4570
 -1     32871    3    0    3
 -2      4576      4149      3664      3694
 -1     32872    3    0    3
 -2      4045      4572      4570      4470
 -1     32873    3    0    3
 -2      4572      3964      2098      6567
 -1     32874    3    0    3
 -2      6569      6510      4581      4578
 -1     32875    3    0    3
 -2      3467      4578      6138      6567
 -1     32876    3    0    3
 -2      4572      4172      3964      3467
 -1     32877    3    0    3
 -2      4376      1676      5037      4186
 -1     32878    3    0    3
 -2      3467      4366      4577      4339
 -1     32879    3    0    3
 -2       421      4524      3123      3132
 -1     32880    3    0    3
 -2      6603      4202      4594      6659
 -1     32881    3    0    3
 -2      5141      4366      4034      4339
 -1     32882    3    0    3
 -2      3917      6468      5223      6156
 -1     32883    3    0    3
 -2      5142      4292      4260      4578
 -1     32884    3    0    3
 -2      4314      5142      4260      4578
 -1     32885    3    0    3
 -2      4339      5142      4314      4578
 -1     32886    3    0    3
 -2      6508      1654      1410      1662
 -1     32887    3    0    3
 -2      6569      6510      4578      2502
 -1     32888    3    0    3
 -2      4292      5142      4339      4578
 -1     32889    3    0    3
 -2      1654      6508      1410      6552
 -1     32890    3    0    3
 -2      4339      4578      4576      4292
 -1     32891    3    0    3
 -2      4891      1891      4890      1696
 -1     32892    3    0    3
 -2      4294      5088      3772      4526
 -1     32893    3    0    3
 -2      4524      3552      3124      4526
 -1     32894    3    0    3
 -2      4294      4097      4526      4527
 -1     32895    3    0    3
 -2      4318      4294      4579      4519
 -1     32896    3    0    3
 -2      4045      6567      4572      4470
 -1     32897    3    0    3
 -2      4519      3664      4524      4097
 -1     32898    3    0    3
 -2      1913      3664      4576      6572
 -1     32899    3    0    3
 -2      4524      3124      4523      4526
 -1     32900    3    0    3
 -2      3151      5134      3144      3129
 -1     32901    3    0    3
 -2      4573      3109      3144      3129
 -1     32902    3    0    3
 -2      4573      3144      5134      3129
 -1     32903    3    0    3
 -2      3489      5134      4437      4343
 -1     32904    3    0    3
 -2      5140      3489      4437      4343
 -1     32905    3    0    3
 -2      4339      5136      3489      3824
 -1     32906    3    0    3
 -2      4339      4575      5136      3824
 -1     32907    3    0    3
 -2      4045      6567      4470      4576
 -1     32908    3    0    3
 -2      4045      6567      3467      4572
 -1     32909    3    0    3
 -2      3115      3109      3144      4573
 -1     32910    3    0    3
 -2      5795      3602      6758      4979
 -1     32911    3    0    3
 -2      4343      5134      4437      3129
 -1     32912    3    0    3
 -2      3824      4343      4045      4573
 -1     32913    3    0    3
 -2       428      4540      2894      2900
 -1     32914    3    0    3
 -2      4149      4045      4343      4573
 -1     32915    3    0    3
 -2      6789      6525      6530      6647
 -1     32916    3    0    3
 -2      4343      4318      5140      6556
 -1     32917    3    0    3
 -2      4576      4339      4292      6556
 -1     32918    3    0    3
 -2      4339      3467      4045      4576
 -1     32919    3    0    3
 -2      4332      2888      3005      3004
 -1     32920    3    0    3
 -2       662      6523      6507      5133
 -1     32921    3    0    3
 -2      5175      1172      6549      6440
 -1     32922    3    0    3
 -2      6569      6510      6553      4581
 -1     32923    3    0    3
 -2      3713      3960       474      3493
 -1     32924    3    0    3
 -2      1985      4529      4038      2037
 -1     32925    3    0    3
 -2      1985      4529      1807      4528
 -1     32926    3    0    3
 -2      2098      4470      4572      6567
 -1     32927    3    0    3
 -2      4572      3639      4045      4570
 -1     32928    3    0    3
 -2      4572      4495      3639      4570
 -1     32929    3    0    3
 -2      4149      4576      4470      3694
 -1     32930    3    0    3
 -2      2098      2108      4470      6567
 -1     32931    3    0    3
 -2      4570      4149      4045      4470
 -1     32932    3    0    3
 -2      4576      4045      4149      4470
 -1     32933    3    0    3
 -2      3694      4470      4570      1900
 -1     32934    3    0    3
 -2      4097      3664      4524      2126
 -1     32935    3    0    3
 -2      3688      4125      3728      5096
 -1     32936    3    0    3
 -2      4579      2126      2260      2486
 -1     32937    3    0    3
 -2      5563      6409      6747      6326
 -1     32938    3    0    3
 -2      4216      5144      3861      4243
 -1     32939    3    0    3
 -2      4535      4190      4534      3980
 -1     32940    3    0    3
 -2      3741       475       476      3713
 -1     32941    3    0    3
 -2      4264      3861      5144      4243
 -1     32942    3    0    3
 -2      2260      2126      3846      1971
 -1     32943    3    0    3
 -2      4405      3903      4529      4531
 -1     32944    3    0    3
 -2      3903      3688      2955      4531
 -1     32945    3    0    3
 -2      4526      3552      3772      4527
 -1     32946    3    0    3
 -2      4529      3903      3493      4531
 -1     32947    3    0    3
 -2      2126      4097      4579      3846
 -1     32948    3    0    3
 -2      2126      4579      2260      3846
 -1     32949    3    0    3
 -2      4131      5100      3595      4538
 -1     32950    3    0    3
 -2      1029      5119       930      4251
 -1     32951    3    0    3
 -2      4097      4294      4579      4464
 -1     32952    3    0    3
 -2      3962      3991      3932      5182
 -1     32953    3    0    3
 -2      5710      2377      4618      4624
 -1     32954    3    0    3
 -2      4579      4294      5143      4264
 -1     32955    3    0    3
 -2      6567      1913      2108      4470
 -1     32956    3    0    3
 -2      6608      2246      4659      6623
 -1     32957    3    0    3
 -2      4103      6437      4129      4614
 -1     32958    3    0    3
 -2      2510      6627      6600      2679
 -1     32959    3    0    3
 -2      3454      5143      4294      4264
 -1     32960    3    0    3
 -2      4260      4292      5145      4581
 -1     32961    3    0    3
 -2      4216      5175      5144      4188
 -1     32962    3    0    3
 -2      4096      6601      4148      4601
 -1     32963    3    0    3
 -2      4578      4292      4260      4581
 -1     32964    3    0    3
 -2      4157      5146      4188      4582
 -1     32965    3    0    3
 -2       923      3451      5115      3858
 -1     32966    3    0    3
 -2      4464      4294      4579      4264
 -1     32967    3    0    3
 -2      3454      5144      5143      4264
 -1     32968    3    0    3
 -2      3454      5092      3861      4264
 -1     32969    3    0    3
 -2      3454      5089      5092      4264
 -1     32970    3    0    3
 -2      3772      4294      4526      4527
 -1     32971    3    0    3
 -2      3454      4294      5089      4264
 -1     32972    3    0    3
 -2      4525      4464      4528      3960
 -1     32973    3    0    3
 -2      3960      3552      4525      4527
 -1     32974    3    0    3
 -2      1846      1938      1845      4532
 -1     32975    3    0    3
 -2      4530      4243      4038      4531
 -1     32976    3    0    3
 -2      5095      1042       835      5094
 -1     32977    3    0    3
 -2      3552      4097      4525      4527
 -1     32978    3    0    3
 -2      4216      3557      5175      4190
 -1     32979    3    0    3
 -2      5175      4611      4216      4190
 -1     32980    3    0    3
 -2      4216      5096      3557      4190
 -1     32981    3    0    3
 -2      3557      5096      5097      4190
 -1     32982    3    0    3
 -2      2955      3493      3903      4531
 -1     32983    3    0    3
 -2      4530      3960      4464      4527
 -1     32984    3    0    3
 -2       475       474      2955      3713
 -1     32985    3    0    3
 -2      5092      4243      4530      3713
 -1     32986    3    0    3
 -2      4031      3713      3741       476
 -1     32987    3    0    3
 -2      2260      2486      2389      6566
 -1     32988    3    0    3
 -2      5196      1128      6079      6769
 -1     32989    3    0    3
 -2      5176      5175      4162      4129
 -1     32990    3    0    3
 -2      5175      4611      4129      4188
 -1     32991    3    0    3
 -2      1128      5196      6079      6458
 -1     32992    3    0    3
 -2      1938      4405      2037      6139
 -1     32993    3    0    3
 -2       984      5102       891       660
 -1     32994    3    0    3
 -2      4580      2037      4405      6139
 -1     32995    3    0    3
 -2      3979      4005      3945      5221
 -1     32996    3    0    3
 -2      2173      4628      6171      6588
 -1     32997    3    0    3
 -2      4038      4405      4216      4580
 -1     32998    3    0    3
 -2      4579      3846      4464      4580
 -1     32999    3    0    3
 -2      1900      3108      3106       418
 -1     33000    3    0    3
 -2      4260      5145      4213      4581
 -1     33001    3    0    3
 -2      4188      5177      4157      4613
 -1     33002    3    0    3
 -2      4188      4129      5177      4613
 -1     33003    3    0    3
 -2      4613      4129      5177      4103
 -1     33004    3    0    3
 -2      4103      6437      6462      4613
 -1     33005    3    0    3
 -2      1938      2037      2239      6139
 -1     33006    3    0    3
 -2      2579      2700      2674      6463
 -1     33007    3    0    3
 -2      2674      2366      2429      6437
 -1     33008    3    0    3
 -2      4239      4292      4579      4581
 -1     33009    3    0    3
 -2      4596      4598      2632      6627
 -1     33010    3    0    3
 -2      2486      4579      6571      6566
 -1     33011    3    0    3
 -2      4620      2580      2586      6513
 -1     33012    3    0    3
 -2      2393      2669      4582      2488
 -1     33013    3    0    3
 -2      4537       427      2900      1723
 -1     33014    3    0    3
 -2      4243      4038      4216      4580
 -1     33015    3    0    3
 -2      4188      4239      5144      4580
 -1     33016    3    0    3
 -2      4651      3280      3247      3682
 -1     33017    3    0    3
 -2      4587      4584      6510      6136
 -1     33018    3    0    3
 -2      4584      4587      6510      4260
 -1     33019    3    0    3
 -2      4243      4264      4038      4580
 -1     33020    3    0    3
 -2      6566      2260      4579      6570
 -1     33021    3    0    3
 -2      4580      1985      3846      4038
 -1     33022    3    0    3
 -2      4545      2000      3802      4544
 -1     33023    3    0    3
 -2      1985      4580      3846      6570
 -1     33024    3    0    3
 -2      2428      2669      4582      2393
 -1     33025    3    0    3
 -2      2240      4580      1985      6570
 -1     33026    3    0    3
 -2      2000      4545      3802      6596
 -1     33027    3    0    3
 -2      6144      2240      2389      6566
 -1     33028    3    0    3
 -2      6463      2579      2700      6744
 -1     33029    3    0    3
 -2      4613      2428      2670      5723
 -1     33030    3    0    3
 -2      4613      4157      4582      5723
 -1     33031    3    0    3
 -2      2580      2701      2700      6744
 -1     33032    3    0    3
 -2      6553      2537      6566      6640
 -1     33033    3    0    3
 -2      4584      4260      4233      4587
 -1     33034    3    0    3
 -2      5762      5838      5413      5841
 -1     33035    3    0    3
 -2      4579      2486      6571      6786
 -1     33036    3    0    3
 -2      4588      4587      4213      6640
 -1     33037    3    0    3
 -2      6566      6553      4581      6571
 -1     33038    3    0    3
 -2      1900      3108      1903      4570
 -1     33039    3    0    3
 -2      4580      4239      4579      6566
 -1     33040    3    0    3
 -2      4583      4314      4584      6630
 -1     33041    3    0    3
 -2      6558      4585      4586      4287
 -1     33042    3    0    3
 -2      4588      2678      2488      2672
 -1     33043    3    0    3
 -2      1985      4529      2037      1807
 -1     33044    3    0    3
 -2      4578      4577      3467      6138
 -1     33045    3    0    3
 -2      6567      4576      4578      6569
 -1     33046    3    0    3
 -2      2673      2633      2660      4589
 -1     33047    3    0    3
 -2      4333      5149      5147      6506
 -1     33048    3    0    3
 -2      3713      3960      3741       474
 -1     33049    3    0    3
 -2      4332      2888      3004      4311
 -1     33050    3    0    3
 -2      2098      2718      2517      6567
 -1     33051    3    0    3
 -2      4405      4188      6139      4611
 -1     33052    3    0    3
 -2      5148      4314      4260      4584
 -1     33053    3    0    3
 -2      2393      2239      2240      6144
 -1     33054    3    0    3
 -2      4258      6518      4209      5150
 -1     33055    3    0    3
 -2      1985      4529      4528      4038
 -1     33056    3    0    3
 -2      6566      4213      6640      4582
 -1     33057    3    0    3
 -2      1878      6576      4536      4533
 -1     33058    3    0    3
 -2      1900      2108      4470      1903
 -1     33059    3    0    3
 -2      3688      4125      5096      3655
 -1     33060    3    0    3
 -2      1902      3664      4524      4522
 -1     33061    3    0    3
 -2      1995      1899      3664      1902
 -1     33062    3    0    3
 -2      3694      4576      4470      1913
 -1     33063    3    0    3
 -2      1900      1899      3694      1913
 -1     33064    3    0    3
 -2      1903      2108      4470      2098
 -1     33065    3    0    3
 -2      2125      1901      3964      2098
 -1     33066    3    0    3
 -2      6786      1995      3664      2126
 -1     33067    3    0    3
 -2      4495      4570      4470      1903
 -1     33068    3    0    3
 -2      1878      6576      4533      1939
 -1     33069    3    0    3
 -2      4495      3108      4570      1903
 -1     33070    3    0    3
 -2      3108       417       418      1903
 -1     33071    3    0    3
 -2      3108      4495       417      1903
 -1     33072    3    0    3
 -2      4470      1901      4495      1903
 -1     33073    3    0    3
 -2      1901       417      4495      1903
 -1     33074    3    0    3
 -2      2098      2517      2108      6567
 -1     33075    3    0    3
 -2      6571      2516      6569      6572
 -1     33076    3    0    3
 -2      3664      4576      3694      1913
 -1     33077    3    0    3
 -2      4524      3132      1902      4522
 -1     33078    3    0    3
 -2      1654      6508      6552      5151
 -1     33079    3    0    3
 -2      2428      2239      2393      6144
 -1     33080    3    0    3
 -2      4582      2428      2393      6144
 -1     33081    3    0    3
 -2      2393      2240      2389      6144
 -1     33082    3    0    3
 -2      4579      4580      6566      6570
 -1     33083    3    0    3
 -2      6572      6571      4579      4292
 -1     33084    3    0    3
 -2      6571      6572      4579      6786
 -1     33085    3    0    3
 -2      1913      2516      1995      6572
 -1     33086    3    0    3
 -2      4627      4616      3995      4205
 -1     33087    3    0    3
 -2      1971      3846      1985      1808
 -1     33088    3    0    3
 -2      1985      3846      4038      4528
 -1     33089    3    0    3
 -2      4539      3786      4542      4305
 -1     33090    3    0    3
 -2      3682      6120      4626      3538
 -1     33091    3    0    3
 -2      4528      2976      3493      4529
 -1     33092    3    0    3
 -2      3008      2989      3655      3007
 -1     33093    3    0    3
 -2      3018      3903      4529      4532
 -1     33094    3    0    3
 -2      3018      1846       424      4532
 -1     33095    3    0    3
 -2       424      1846      1845      4532
 -1     33096    3    0    3
 -2      4534      4216      3688      4531
 -1     33097    3    0    3
 -2      1698      3973      2080      4700
 -1     33098    3    0    3
 -2      1698      3973      4697      2106
 -1     33099    3    0    3
 -2      3694       419      3106      3107
 -1     33100    3    0    3
 -2       419      1900      3694      3106
 -1     33101    3    0    3
 -2      1878      6576      2107      4536
 -1     33102    3    0    3
 -2      1878      6576      1939      2107
 -1     33103    3    0    3
 -2      1900       419       418      3106
 -1     33104    3    0    3
 -2      1899      3694      3664      4522
 -1     33105    3    0    3
 -2      3132      1902       420       421
 -1     33106    3    0    3
 -2      4522       420      1899      3107
 -1     33107    3    0    3
 -2      1698      3973      4700      4697
 -1     33108    3    0    3
 -2      1846      1807      2037      4529
 -1     33109    3    0    3
 -2      3139      3150      3157      4523
 -1     33110    3    0    3
 -2      5092      4530      3741      3713
 -1     33111    3    0    3
 -2      3903      4405      4529      4532
 -1     33112    3    0    3
 -2      4536      2972      1850       426
 -1     33113    3    0    3
 -2      4905      2751      2727      2755
 -1     33114    3    0    3
 -2      4524      4519      4097      4526
 -1     33115    3    0    3
 -2      4243      5092      5093      3713
 -1     33116    3    0    3
 -2      1029      5119      5118       839
 -1     33117    3    0    3
 -2      3124      3552      3123      3093
 -1     33118    3    0    3
 -2      1871      4525      1808       422
 -1     33119    3    0    3
 -2      5392      2766       773      5861
 -1     33120    3    0    3
 -2      3139      4343      3128      4523
 -1     33121    3    0    3
 -2      3694      4149      3664      4522
 -1     33122    3    0    3
 -2      4522      3694      4149      3107
 -1     33123    3    0    3
 -2       422      1808        20       473
 -1     33124    3    0    3
 -2      3493      2976      2955      3903
 -1     33125    3    0    3
 -2       423      1846       424      3018
 -1     33126    3    0    3
 -2      4573      5134      3117      3855
 -1     33127    3    0    3
 -2      3137      5088      3157      3133
 -1     33128    3    0    3
 -2      3846      4464      4038      4528
 -1     33129    3    0    3
 -2      4114      6504      4607      6634
 -1     33130    3    0    3
 -2      3107      4522      3132      3150
 -1     33131    3    0    3
 -2      3682      6120      1837      6436
 -1     33132    3    0    3
 -2      4400       476      2975      3713
 -1     33133    3    0    3
 -2      4510      3018      4532      3903
 -1     33134    3    0    3
 -2      1878      4536      1850       426
 -1     33135    3    0    3
 -2      4536      4538      3837      4354
 -1     33136    3    0    3
 -2      4055      4065      5105      4082
 -1     33137    3    0    3
 -2      2955      3007      3688      3903
 -1     33138    3    0    3
 -2      4264      4243      4038      4530
 -1     33139    3    0    3
 -2       473      1807       423      2976
 -1     33140    3    0    3
 -2      3552      4524      4097      4526
 -1     33141    3    0    3
 -2      2037      4038      4405      4529
 -1     33142    3    0    3
 -2      4114      6504      4604      4148
 -1     33143    3    0    3
 -2      4405      4038      4216      4531
 -1     33144    3    0    3
 -2      3493      4038      4528      4529
 -1     33145    3    0    3
 -2      2976      3018      2955      3903
 -1     33146    3    0    3
 -2      3137      5088      3133      5087
 -1     33147    3    0    3
 -2      2968      4510      4533      3837
 -1     33148    3    0    3
 -2      3786      3533      3565      4542
 -1     33149    3    0    3
 -2       473      4525      1808      4528
 -1     33150    3    0    3
 -2      1808      4525      3846      4528
 -1     33151    3    0    3
 -2       473      1808      1807      4528
 -1     33152    3    0    3
 -2      5134      4573      3117      3144
 -1     33153    3    0    3
 -2      1029      5119       839       930
 -1     33154    3    0    3
 -2      5095      1042       986       835
 -1     33155    3    0    3
 -2      2976       473      1807      4528
 -1     33156    3    0    3
 -2      3903      2976      3018      4529
 -1     33157    3    0    3
 -2      3903      3493      2976      4529
 -1     33158    3    0    3
 -2      3837      2989      4510      4535
 -1     33159    3    0    3
 -2      1939      4533      3980      6576
 -1     33160    3    0    3
 -2      4114      6504      6634      4604
 -1     33161    3    0    3
 -2      4530      4038      3493      4531
 -1     33162    3    0    3
 -2      5093      5092      4400      3713
 -1     33163    3    0    3
 -2      4038      4243      4216      4531
 -1     33164    3    0    3
 -2       475       476      3095      3741
 -1     33165    3    0    3
 -2      4031      3095       476      3741
 -1     33166    3    0    3
 -2      6545      5090       670      6548
 -1     33167    3    0    3
 -2      4243      4264      5092      4530
 -1     33168    3    0    3
 -2      3493      2955       474      3713
 -1     33169    3    0    3
 -2      4522      3132       420      3107
 -1     33170    3    0    3
 -2      3694      1899       419      3107
 -1     33171    3    0    3
 -2      1899       420       419      3107
 -1     33172    3    0    3
 -2      4149      3694      3106      3107
 -1     33173    3    0    3
 -2      1971      4525      1808      1871
 -1     33174    3    0    3
 -2      4522      3128      4523      3150
 -1     33175    3    0    3
 -2      3150      4524      3132      3124
 -1     33176    3    0    3
 -2      3157      3150      3124      4523
 -1     33177    3    0    3
 -2      4149      3128      4343      4523
 -1     33178    3    0    3
 -2      1902      2126      4524      3664
 -1     33179    3    0    3
 -2      4524      4097      4525      3552
 -1     33180    3    0    3
 -2      4264      4294      5089      4527
 -1     33181    3    0    3
 -2      4264      4464      4294      4527
 -1     33182    3    0    3
 -2       224      5090      3114      3135
 -1     33183    3    0    3
 -2      3150      3139      3128      4523
 -1     33184    3    0    3
 -2      1971      4525      2126      3846
 -1     33185    3    0    3
 -2      3150      4524      4522      3132
 -1     33186    3    0    3
 -2      1971      4525      3846      1808
 -1     33187    3    0    3
 -2      3552      3123      4524      3124
 -1     33188    3    0    3
 -2      3123      3132      4524      3124
 -1     33189    3    0    3
 -2      3021      4550      3448      3676
 -1     33190    3    0    3
 -2      3021      4550      3676      4302
 -1     33191    3    0    3
 -2      3552      3960      4525      3093
 -1     33192    3    0    3
 -2      3960       473      4525      3093
 -1     33193    3    0    3
 -2      3960       474       473      3093
 -1     33194    3    0    3
 -2      2988      3823      2974      4494
 -1     33195    3    0    3
 -2      4519      4318      4294      4526
 -1     33196    3    0    3
 -2      4522      4519      4524      4523
 -1     33197    3    0    3
 -2      3106      4149      3107      3128
 -1     33198    3    0    3
 -2      3093      3960       474      3098
 -1     33199    3    0    3
 -2       475       474      3741      3098
 -1     33200    3    0    3
 -2      3095       475      3741      3098
 -1     33201    3    0    3
 -2      3741      3772      3095      3098
 -1     33202    3    0    3
 -2      4527      3741      3960      3098
 -1     33203    3    0    3
 -2      4149      4343      4318      4523
 -1     33204    3    0    3
 -2      3134      5088      3133      3157
 -1     33205    3    0    3
 -2      4522      3128      3150      3107
 -1     33206    3    0    3
 -2      3106      3109      4149      3128
 -1     33207    3    0    3
 -2       428      4540      2900      1723
 -1     33208    3    0    3
 -2      4343      3139      3128      3129
 -1     33209    3    0    3
 -2      6581      4633      2215      6585
 -1     33210    3    0    3
 -2      5086      3129      3139      4343
 -1     33211    3    0    3
 -2      5086      3129      3155      3139
 -1     33212    3    0    3
 -2      5086      3129      4343      4437
 -1     33213    3    0    3
 -2       428      4540      1749      2894
 -1     33214    3    0    3
 -2      2510      6627      2632      4598
 -1     33215    3    0    3
 -2      3552      3134      4526      3772
 -1     33216    3    0    3
 -2      3150      4524      3124      4523
 -1     33217    3    0    3
 -2      3552      3134      3772      3098
 -1     33218    3    0    3
 -2       224      5090       670      3114
 -1     33219    3    0    3
 -2      4097      4519      4294      4526
 -1     33220    3    0    3
 -2      4464      4097      4294      4527
 -1     33221    3    0    3
 -2      4523      4318      4519      4526
 -1     33222    3    0    3
 -2       224      5090      3135       802
 -1     33223    3    0    3
 -2      3124      3134      3157      4526
 -1     33224    3    0    3
 -2      6685      6106      4606      2487
 -1     33225    3    0    3
 -2      3157      4318      4523      4526
 -1     33226    3    0    3
 -2      3157      5088      4318      4526
 -1     33227    3    0    3
 -2      4534      4510      4535      3980
 -1     33228    3    0    3
 -2      4533      4510      4532      3980
 -1     33229    3    0    3
 -2      4535      4510      4533      3980
 -1     33230    3    0    3
 -2      4532      3903      4405      4534
 -1     33231    3    0    3
 -2      2968      4510      2989      3019
 -1     33232    3    0    3
 -2      2968      2985      2989      3837
 -1     33233    3    0    3
 -2      3903      3018      2955      3007
 -1     33234    3    0    3
 -2      6546      1185      1187       986
 -1     33235    3    0    3
 -2       475      2955      2975      3713
 -1     33236    3    0    3
 -2      6546      1185      5144      6549
 -1     33237    3    0    3
 -2      4097      3552      4526      4527
 -1     33238    3    0    3
 -2      4528      3493      3960      4530
 -1     33239    3    0    3
 -2      3960      4464      4528      4530
 -1     33240    3    0    3
 -2      4038      3493      4528      4530
 -1     33241    3    0    3
 -2      4528      4464      4038      4530
 -1     33242    3    0    3
 -2      6545      5090      6548      3763
 -1     33243    3    0    3
 -2      4531      2955      3493      3713
 -1     33244    3    0    3
 -2      4530      4264      5092      3741
 -1     33245    3    0    3
 -2      4264      5089      5092      3741
 -1     33246    3    0    3
 -2      4531      4530      4243      3713
 -1     33247    3    0    3
 -2      3546      6543      1027      6541
 -1     33248    3    0    3
 -2      4243      5093      4531      3713
 -1     33249    3    0    3
 -2      3960      4525      4464      4527
 -1     33250    3    0    3
 -2      4525      4097      4464      4527
 -1     33251    3    0    3
 -2      3741      5089      3772      4527
 -1     33252    3    0    3
 -2      3741      4264      5089      4527
 -1     33253    3    0    3
 -2      3741      4530      4264      4527
 -1     33254    3    0    3
 -2      3741      3960      4530      4527
 -1     33255    3    0    3
 -2      4531      3688      2955      3713
 -1     33256    3    0    3
 -2      6546      1185       986      5144
 -1     33257    3    0    3
 -2      4529      4038      4405      4531
 -1     33258    3    0    3
 -2      4529      3493      4038      4531
 -1     33259    3    0    3
 -2      4644      3185      3263      3186
 -1     33260    3    0    3
 -2      4644      3185      3186      3784
 -1     33261    3    0    3
 -2      4527      3552      3772      3098
 -1     33262    3    0    3
 -2      4527      3960      3552      3098
 -1     33263    3    0    3
 -2      4031      3713       476      4400
 -1     33264    3    0    3
 -2      3093      3124      3552      3098
 -1     33265    3    0    3
 -2      3137      5088      5086      3157
 -1     33266    3    0    3
 -2      3786      3533      4542      4401
 -1     33267    3    0    3
 -2      4534      3688      3655      3007
 -1     33268    3    0    3
 -2      3903      3688      4534      3007
 -1     33269    3    0    3
 -2      4534      4532      3903      4510
 -1     33270    3    0    3
 -2      3552      3134      3124      4526
 -1     33271    3    0    3
 -2      4401      2894      3730      4541
 -1     33272    3    0    3
 -2      4458      3786      4539      4537
 -1     33273    3    0    3
 -2      3748      3995      4550      4205
 -1     33274    3    0    3
 -2      3017      2958      3565      2973
 -1     33275    3    0    3
 -2      2985      3595      4458      2973
 -1     33276    3    0    3
 -2      3023      3565      2958      2973
 -1     33277    3    0    3
 -2      4458      2972      2985      2973
 -1     33278    3    0    3
 -2      2985      2987      3595      2973
 -1     33279    3    0    3
 -2      4612      4305      2043      3922
 -1     33280    3    0    3
 -2      4410      2919      2963      2960
 -1     33281    3    0    3
 -2      2072      4545      2000      6596
 -1     33282    3    0    3
 -2      6199      3908      5213      3771
 -1     33283    3    0    3
 -2      2897      3448      3016      3021
 -1     33284    3    0    3
 -2      5113      4027      2899      4496
 -1     33285    3    0    3
 -2      4544      4350      3730      4546
 -1     33286    3    0    3
 -2      3655      4534      3007      4510
 -1     33287    3    0    3
 -2      3963      4338      5176      4131
 -1     33288    3    0    3
 -2      3150      4524      4523      4522
 -1     33289    3    0    3
 -2      4080      5179      4021      4615
 -1     33290    3    0    3
 -2      4510      3837      4535      4533
 -1     33291    3    0    3
 -2      2973      4458      2972      3786
 -1     33292    3    0    3
 -2      4742      5657      3891      4740
 -1     33293    3    0    3
 -2      2972      2900      2973      3786
 -1     33294    3    0    3
 -2      4360      4197      3022      3491
 -1     33295    3    0    3
 -2      1845      4533      1939      1878
 -1     33296    3    0    3
 -2      4510      3018      3019      4532
 -1     33297    3    0    3
 -2      4510      3018      3903      3007
 -1     33298    3    0    3
 -2      2286      1938      4611      1939
 -1     33299    3    0    3
 -2      4534      3903      3007      4510
 -1     33300    3    0    3
 -2      2968      4510      3019      4533
 -1     33301    3    0    3
 -2      4535      4533      4354      3980
 -1     33302    3    0    3
 -2      2968      4510      3837      2989
 -1     33303    3    0    3
 -2      3565      3519      5104      3533
 -1     33304    3    0    3
 -2      3595      2985      4458      4538
 -1     33305    3    0    3
 -2      4510      3655      4534      4535
 -1     33306    3    0    3
 -2      4532      1845      3019      4533
 -1     33307    3    0    3
 -2      4510      2989      3655      4535
 -1     33308    3    0    3
 -2      4905      2751      4907      4909
 -1     33309    3    0    3
 -2      2900      4401      3023      3786
 -1     33310    3    0    3
 -2      4405      4532      4534      3980
 -1     33311    3    0    3
 -2      4131      3660      5176      4105
 -1     33312    3    0    3
 -2      3017      3519      4220      3565
 -1     33313    3    0    3
 -2      2894      3730      3020      4401
 -1     33314    3    0    3
 -2      4254      3730      4541      4543
 -1     33315    3    0    3
 -2      3020      2894      4401      3023
 -1     33316    3    0    3
 -2      4401      2894      2900      3023
 -1     33317    3    0    3
 -2      2973      3023      3565      3786
 -1     33318    3    0    3
 -2      3021      4496      4302      2898
 -1     33319    3    0    3
 -2      4627      5191      3995      3962
 -1     33320    3    0    3
 -2      3477      5109      4547      3448
 -1     33321    3    0    3
 -2      5108      5109      4022      3477
 -1     33322    3    0    3
 -2      5109      4547      4022      3477
 -1     33323    3    0    3
 -2      2969      2897      3618      3448
 -1     33324    3    0    3
 -2      4027      2897      2899      4496
 -1     33325    3    0    3
 -2      4549      3613      4147      4552
 -1     33326    3    0    3
 -2      4147      3748      4551      4549
 -1     33327    3    0    3
 -2      4551      4302      3613      4549
 -1     33328    3    0    3
 -2      4247      3692      4554      4552
 -1     33329    3    0    3
 -2      4302      3748      4548      4549
 -1     33330    3    0    3
 -2      4350      3802      4547      4546
 -1     33331    3    0    3
 -2      6199      3908      3771       840
 -1     33332    3    0    3
 -2      3016      3730      3477      3020
 -1     33333    3    0    3
 -2      3477      4547      4022      4546
 -1     33334    3    0    3
 -2      3477      5108      2959      3506
 -1     33335    3    0    3
 -2      2982      2893      4350      3016
 -1     33336    3    0    3
 -2      2929      3004      4219      3006
 -1     33337    3    0    3
 -2      2898      4302      3613      4551
 -1     33338    3    0    3
 -2      3021      2982      2945      3676
 -1     33339    3    0    3
 -2      2043      4615      2211      2042
 -1     33340    3    0    3
 -2      4205      4547      3995      4550
 -1     33341    3    0    3
 -2      3676      4547      4205      4550
 -1     33342    3    0    3
 -2      3965      5112      5113      4496
 -1     33343    3    0    3
 -2      4471      4496      2898      4551
 -1     33344    3    0    3
 -2      3802      4022      4547      4546
 -1     33345    3    0    3
 -2      3802      4350      4547      4545
 -1     33346    3    0    3
 -2      3802      4547      4205      4545
 -1     33347    3    0    3
 -2      2043      4615      2042      4305
 -1     33348    3    0    3
 -2      4545      4548      2982      3676
 -1     33349    3    0    3
 -2      4205      4548      4545      3676
 -1     33350    3    0    3
 -2      4550      3748      4302      4551
 -1     33351    3    0    3
 -2      2898      2961      2899      4471
 -1     33352    3    0    3
 -2      4496      3021      2897      2898
 -1     33353    3    0    3
 -2      4302      4496      4550      4551
 -1     33354    3    0    3
 -2      4547      3448      3995      4550
 -1     33355    3    0    3
 -2      3533      3929      5105      3506
 -1     33356    3    0    3
 -2      2958      3929      3533      3506
 -1     33357    3    0    3
 -2      2959      3929      2958      3506
 -1     33358    3    0    3
 -2      3020      2958      3533      3506
 -1     33359    3    0    3
 -2      3020      2959      2958      3506
 -1     33360    3    0    3
 -2      3533      3020      4401      3023
 -1     33361    3    0    3
 -2      2958      3020      3533      3023
 -1     33362    3    0    3
 -2      3565      2958      3533      3023
 -1     33363    3    0    3
 -2      5106       660       659       182
 -1     33364    3    0    3
 -2      5838      5762      5413      4344
 -1     33365    3    0    3
 -2      3870      4630      3905      5194
 -1     33366    3    0    3
 -2      4540      4305      4537      2043
 -1     33367    3    0    3
 -2      4021      3991      5181      4617
 -1     33368    3    0    3
 -2      3837      4538      4535      4354
 -1     33369    3    0    3
 -2      4534      4190      4405      3980
 -1     33370    3    0    3
 -2      3655      4190      4534      4535
 -1     33371    3    0    3
 -2      4338      3963      5100      4131
 -1     33372    3    0    3
 -2       984      5102       660      5103
 -1     33373    3    0    3
 -2       984      1118      1171      6444
 -1     33374    3    0    3
 -2      5101      3660      4338      4131
 -1     33375    3    0    3
 -2      3837      2985      2989      3623
 -1     33376    3    0    3
 -2      2985      2988      2989      3623
 -1     33377    3    0    3
 -2      4538      3623      3837      4535
 -1     33378    3    0    3
 -2      3655      2989      2988      3623
 -1     33379    3    0    3
 -2      4510      4532      3019      4533
 -1     33380    3    0    3
 -2      3837      2968      4536      4533
 -1     33381    3    0    3
 -2      3922      4538      4536      4354
 -1     33382    3    0    3
 -2      2989      3837      3623      4535
 -1     33383    3    0    3
 -2      1095      6441      1355      5724
 -1     33384    3    0    3
 -2      3786      4542      3565      4539
 -1     33385    3    0    3
 -2      1945      2174      2044      6584
 -1     33386    3    0    3
 -2      4354      4131      4538      4162
 -1     33387    3    0    3
 -2      4510      4534      4532      3980
 -1     33388    3    0    3
 -2      5210      6205      5213      3986
 -1     33389    3    0    3
 -2      3595      5101      4131      4539
 -1     33390    3    0    3
 -2      5101      3595      3565      4539
 -1     33391    3    0    3
 -2      2043      1850      4537      1723
 -1     33392    3    0    3
 -2      4458      3595      4538      4539
 -1     33393    3    0    3
 -2      3595      4131      4538      4539
 -1     33394    3    0    3
 -2      3623      5097      3655      4535
 -1     33395    3    0    3
 -2      3655      5097      4190      4535
 -1     33396    3    0    3
 -2      4595      1983      4591      5711
 -1     33397    3    0    3
 -2      4538      4458      4539      3922
 -1     33398    3    0    3
 -2      4539      4458      4537      3922
 -1     33399    3    0    3
 -2      4537      4305      4539      3922
 -1     33400    3    0    3
 -2      4065      5105      4432      4055
 -1     33401    3    0    3
 -2      3802      4055      4022      4546
 -1     33402    3    0    3
 -2      4539      4131      4305      4105
 -1     33403    3    0    3
 -2      3660      5101      5104      4105
 -1     33404    3    0    3
 -2      3565      5104      5101      4105
 -1     33405    3    0    3
 -2      4131      5101      3660      4105
 -1     33406    3    0    3
 -2      4305      4539      3786      4537
 -1     33407    3    0    3
 -2      4541      4401      2894      4540
 -1     33408    3    0    3
 -2      1999      4540      2042      3862
 -1     33409    3    0    3
 -2      1999      4540      3862      4541
 -1     33410    3    0    3
 -2      2043      4612      2305      6575
 -1     33411    3    0    3
 -2      3786      2972      2900      4537
 -1     33412    3    0    3
 -2      4080      4129      5176      4612
 -1     33413    3    0    3
 -2      2968      4458      3837      4536
 -1     33414    3    0    3
 -2      2968      2972      4458      4536
 -1     33415    3    0    3
 -2      4537      4458      2972      4536
 -1     33416    3    0    3
 -2      2972      1850      4537      4536
 -1     33417    3    0    3
 -2      5178      4129      4080      4614
 -1     33418    3    0    3
 -2      4538      3837      4458      4536
 -1     33419    3    0    3
 -2      4354      3922      4131      4612
 -1     33420    3    0    3
 -2      4611      2292      1939      6576
 -1     33421    3    0    3
 -2      2292      2286      4611      1939
 -1     33422    3    0    3
 -2      4533      3837      4535      4354
 -1     33423    3    0    3
 -2      4614      4129      4080      4612
 -1     33424    3    0    3
 -2      4538      4131      5100      4162
 -1     33425    3    0    3
 -2      6437      4613      4129      6593
 -1     33426    3    0    3
 -2      3922      4131      4538      4354
 -1     33427    3    0    3
 -2       892      4065      5107      6448
 -1     33428    3    0    3
 -2      6462      4619      4613      6463
 -1     33429    3    0    3
 -2      2377      6592      2333      2374
 -1     33430    3    0    3
 -2      2710      4816      4815      3972
 -1     33431    3    0    3
 -2      2366      2305      2292      6154
 -1     33432    3    0    3
 -2      6154      2366      4614      6437
 -1     33433    3    0    3
 -2      4539      5101      4131      4105
 -1     33434    3    0    3
 -2      4305      4131      3922      4612
 -1     33435    3    0    3
 -2      6461      4103      4076      5183
 -1     33436    3    0    3
 -2      6630      2501      2484      2483
 -1     33437    3    0    3
 -2      5795      3602      3571      4990
 -1     33438    3    0    3
 -2      4611      4354      4190      4162
 -1     33439    3    0    3
 -2      4533      4536      4354      6576
 -1     33440    3    0    3
 -2      3980      4533      4354      6576
 -1     33441    3    0    3
 -2      2107      4536      1850      1878
 -1     33442    3    0    3
 -2      3612      3581      5442      3550
 -1     33443    3    0    3
 -2      1983      4595      4591      6537
 -1     33444    3    0    3
 -2      2429      4613      2674      6437
 -1     33445    3    0    3
 -2      4611      4405      4190      3980
 -1     33446    3    0    3
 -2      6461      4103      6188      5184
 -1     33447    3    0    3
 -2      6144      4613      2428      6593
 -1     33448    3    0    3
 -2      4354      4611      4190      3980
 -1     33449    3    0    3
 -2      4190      4535      4354      3980
 -1     33450    3    0    3
 -2      6630      2501      6558      6492
 -1     33451    3    0    3
 -2      5097      5100      3963      4162
 -1     33452    3    0    3
 -2      5100      3623      4538      4162
 -1     33453    3    0    3
 -2      3623      5100      5097      4162
 -1     33454    3    0    3
 -2      4535      5097      4190      4162
 -1     33455    3    0    3
 -2      4535      4538      3623      4162
 -1     33456    3    0    3
 -2      4535      3623      5097      4162
 -1     33457    3    0    3
 -2      4535      4190      4354      4162
 -1     33458    3    0    3
 -2      4354      4538      4535      4162
 -1     33459    3    0    3
 -2      4542      5104      3565      4105
 -1     33460    3    0    3
 -2      3533      4542      4543      4082
 -1     33461    3    0    3
 -2      4055      5105      4543      4082
 -1     33462    3    0    3
 -2      5104      4065      3660      4105
 -1     33463    3    0    3
 -2      3660      4065      5179      4105
 -1     33464    3    0    3
 -2      3565      5101      4539      4105
 -1     33465    3    0    3
 -2      4539      4542      3565      4105
 -1     33466    3    0    3
 -2      1280      6129      1314      1118
 -1     33467    3    0    3
 -2      6578      2312      4617      6165
 -1     33468    3    0    3
 -2      6488      6501      5171      1426
 -1     33469    3    0    3
 -2      4537       427      1850      2972
 -1     33470    3    0    3
 -2      4614      5178      4129      4103
 -1     33471    3    0    3
 -2      2143      2304      4616      6592
 -1     33472    3    0    3
 -2      4544      4254      4541      6591
 -1     33473    3    0    3
 -2      4254      4541      3862      4543
 -1     33474    3    0    3
 -2      3730      4254      4541      4544
 -1     33475    3    0    3
 -2      3021      4550      4302      4496
 -1     33476    3    0    3
 -2      3115      4571      3116      3126
 -1     33477    3    0    3
 -2      3932      6788      6469      4618
 -1     33478    3    0    3
 -2      4615      5179      4021      4055
 -1     33479    3    0    3
 -2      4617      6578      4618      6094
 -1     33480    3    0    3
 -2      4305      3786      4542      4540
 -1     33481    3    0    3
 -2      4305      4612      2043      6575
 -1     33482    3    0    3
 -2      6578      4617      4618      4021
 -1     33483    3    0    3
 -2      4432      4022      5180      4055
 -1     33484    3    0    3
 -2      3995      5180      3962      6768
 -1     33485    3    0    3
 -2      5180      4022      4158      3995
 -1     33486    3    0    3
 -2      5194      6456      1148      5905
 -1     33487    3    0    3
 -2      3965      5191      4158      3995
 -1     33488    3    0    3
 -2      3839      2174      6584      4631
 -1     33489    3    0    3
 -2      6521      5163      5153      1569
 -1     33490    3    0    3
 -2      4410      3875      5117      4555
 -1     33491    3    0    3
 -2      4471      2898      3613      4551
 -1     33492    3    0    3
 -2      4302      4548      2945      4549
 -1     33493    3    0    3
 -2      3906      5192      3858      3936
 -1     33494    3    0    3
 -2      3858      5116      3906      3936
 -1     33495    3    0    3
 -2      2899      4496      2898      4471
 -1     33496    3    0    3
 -2      3786      4305      4537      4540
 -1     33497    3    0    3
 -2      3786      4401      4542      4540
 -1     33498    3    0    3
 -2      4305      4105      4615      3862
 -1     33499    3    0    3
 -2      4305      4542      4105      3862
 -1     33500    3    0    3
 -2      3465       720      5227      5220
 -1     33501    3    0    3
 -2      4627      4549      2059      6166
 -1     33502    3    0    3
 -2      2043      4615      4305      6575
 -1     33503    3    0    3
 -2      4628      6787      6588      4630
 -1     33504    3    0    3
 -2      3004      2929      4219      3517
 -1     33505    3    0    3
 -2      2043      4615      6575      2211
 -1     33506    3    0    3
 -2      5213      3951      4649      3923
 -1     33507    3    0    3
 -2      4254      3802      4055      4616
 -1     33508    3    0    3
 -2      5194      6456      5905      5192
 -1     33509    3    0    3
 -2      6581      3839      2174      6152
 -1     33510    3    0    3
 -2      4160      3223      3284      3283
 -1     33511    3    0    3
 -2      4627      4549      6166      3748
 -1     33512    3    0    3
 -2      4629      4627      3962      3905
 -1     33513    3    0    3
 -2      4627      5191      3962      3905
 -1     33514    3    0    3
 -2      5194      5192      3839      3905
 -1     33515    3    0    3
 -2      4618      3932      3991      4624
 -1     33516    3    0    3
 -2      4216      5144      4580      4188
 -1     33517    3    0    3
 -2      4541      4254      3862      6591
 -1     33518    3    0    3
 -2      4021      4080      4615      4617
 -1     33519    3    0    3
 -2      4047      4017      4620      4623
 -1     33520    3    0    3
 -2      4614      2572      2416      2573
 -1     33521    3    0    3
 -2      4614      4080      4047      4617
 -1     33522    3    0    3
 -2      6740      4370      4424      5466
 -1     33523    3    0    3
 -2      5181      4047      4080      4617
 -1     33524    3    0    3
 -2      4021      5181      4080      4617
 -1     33525    3    0    3
 -2      2900      3786      4537      4540
 -1     33526    3    0    3
 -2      4542      4305      4540      3862
 -1     33527    3    0    3
 -2      5105      3506      4055      4543
 -1     33528    3    0    3
 -2      4545      3802      4350      4544
 -1     33529    3    0    3
 -2      4350      3730      2893      4544
 -1     33530    3    0    3
 -2      3730      3477      3506      4546
 -1     33531    3    0    3
 -2      2000      4544      1999      6591
 -1     33532    3    0    3
 -2      1999      4540      1749      2042
 -1     33533    3    0    3
 -2      3021      3448      3016      3676
 -1     33534    3    0    3
 -2      5191      4627      3995      3965
 -1     33535    3    0    3
 -2      4545      2893      1855      4544
 -1     33536    3    0    3
 -2      6593      6139      4188      4611
 -1     33537    3    0    3
 -2      2000      2143      4616      6591
 -1     33538    3    0    3
 -2      3016      2982      3021      3676
 -1     33539    3    0    3
 -2      4350      2982      3016      3676
 -1     33540    3    0    3
 -2      4545      2982      4350      3676
 -1     33541    3    0    3
 -2      3747      4172      3525      4270
 -1     33542    3    0    3
 -2      3747      4172      4571      3525
 -1     33543    3    0    3
 -2      3862      4541      4401      4543
 -1     33544    3    0    3
 -2      4055      4254      3862      4543
 -1     33545    3    0    3
 -2      4540      4401      4542      3862
 -1     33546    3    0    3
 -2      4540      4541      4401      3862
 -1     33547    3    0    3
 -2      4194      3870      5200      3794
 -1     33548    3    0    3
 -2      4616      4627      3995      3962
 -1     33549    3    0    3
 -2      4065      5104      5105      4082
 -1     33550    3    0    3
 -2      3533      5105      5104      4082
 -1     33551    3    0    3
 -2      4105      4542      5104      4082
 -1     33552    3    0    3
 -2      3862      4401      4542      4543
 -1     33553    3    0    3
 -2      4542      4401      3533      4543
 -1     33554    3    0    3
 -2      4544      4254      3802      4546
 -1     33555    3    0    3
 -2      4544      3730      4254      4546
 -1     33556    3    0    3
 -2      4543      4254      3730      4546
 -1     33557    3    0    3
 -2      4543      4055      4254      4546
 -1     33558    3    0    3
 -2      3730      3506      4543      4546
 -1     33559    3    0    3
 -2      4543      3506      4055      4546
 -1     33560    3    0    3
 -2      3676      3448      4547      4550
 -1     33561    3    0    3
 -2      4496      3965      5112      4550
 -1     33562    3    0    3
 -2      5112      3448      4496      4550
 -1     33563    3    0    3
 -2      5197      4633      3809      3839
 -1     33564    3    0    3
 -2      4633      5197      3809      3784
 -1     33565    3    0    3
 -2      3862      4615      4055      4082
 -1     33566    3    0    3
 -2      5179      4065      4055      4082
 -1     33567    3    0    3
 -2      4055      4615      5179      4082
 -1     33568    3    0    3
 -2      4615      4105      5179      4082
 -1     33569    3    0    3
 -2      4105      4065      5179      4082
 -1     33570    3    0    3
 -2      5192      4628      3906      3875
 -1     33571    3    0    3
 -2      5195      5192      3554      3875
 -1     33572    3    0    3
 -2      3554      3843      5195      3875
 -1     33573    3    0    3
 -2      3247      4651      3682      4650
 -1     33574    3    0    3
 -2      4410      4444      2920      2960
 -1     33575    3    0    3
 -2      3870      4635      4629      4091
 -1     33576    3    0    3
 -2      1176      1128      1129      6079
 -1     33577    3    0    3
 -2      4254      4544      3802      6591
 -1     33578    3    0    3
 -2      3839      5192      4628      3905
 -1     33579    3    0    3
 -2      4644      3809      4030      4640
 -1     33580    3    0    3
 -2      3936      3748      3965      4551
 -1     33581    3    0    3
 -2      4471      5113      4496      4551
 -1     33582    3    0    3
 -2      3748      3936      4147      4551
 -1     33583    3    0    3
 -2      5116      4444      3906      4554
 -1     33584    3    0    3
 -2      2961      4444      5116      4471
 -1     33585    3    0    3
 -2      4471      2962      4444      4554
 -1     33586    3    0    3
 -2       690      6009      5691      3665
 -1     33587    3    0    3
 -2      3936      4628      5192      3905
 -1     33588    3    0    3
 -2      6078      5191      5193      6434
 -1     33589    3    0    3
 -2      3936      4627      4628      3905
 -1     33590    3    0    3
 -2      3936      5191      4627      3905
 -1     33591    3    0    3
 -2      4633      4634      3756      3975
 -1     33592    3    0    3
 -2      3906      4628      3936      3692
 -1     33593    3    0    3
 -2      4471      3613      2962      4554
 -1     33594    3    0    3
 -2      4471      4444      5116      4554
 -1     33595    3    0    3
 -2      2178      2079      2177      6083
 -1     33596    3    0    3
 -2      3875      4628      3906      3692
 -1     33597    3    0    3
 -2      3561      1864      3178      6607
 -1     33598    3    0    3
 -2      4553      2941       434      1756
 -1     33599    3    0    3
 -2      4553      4552      2941      1756
 -1     33600    3    0    3
 -2      1191      1176      1129      6079
 -1     33601    3    0    3
 -2      4120      2920      2919      4410
 -1     33602    3    0    3
 -2      3843      4095      3875      4558
 -1     33603    3    0    3
 -2      4247      4553      3692      4552
 -1     33604    3    0    3
 -2      1356      6159      1316      5415
 -1     33605    3    0    3
 -2      6173      2027      2128      6030
 -1     33606    3    0    3
 -2      4628      3875      3839      4095
 -1     33607    3    0    3
 -2      2841      5941       464      2863
 -1     33608    3    0    3
 -2      4492      2964      5121      4386
 -1     33609    3    0    3
 -2      5117      4444      4410      4555
 -1     33610    3    0    3
 -2      2114      2225      1963      6585
 -1     33611    3    0    3
 -2      5193      3932      4629      3870
 -1     33612    3    0    3
 -2      3223      1725       312      4638
 -1     33613    3    0    3
 -2      2005      4650      1835      1834
 -1     33614    3    0    3
 -2      3835      3621      3809      4640
 -1     33615    3    0    3
 -2      3835      5201      5200      4353
 -1     33616    3    0    3
 -2      4379      4639      5200      4353
 -1     33617    3    0    3
 -2      5316       818      4461      5315
 -1     33618    3    0    3
 -2       311      1725       312      3223
 -1     33619    3    0    3
 -2      4435      3458      5464      4504
 -1     33620    3    0    3
 -2      4091      4636      3621      4639
 -1     33621    3    0    3
 -2      5193      4629      3905      3870
 -1     33622    3    0    3
 -2      3809      5201      3835      4640
 -1     33623    3    0    3
 -2      4554      3692      4147      4552
 -1     33624    3    0    3
 -2      3756      3564      3784      4633
 -1     33625    3    0    3
 -2      4639      3621      3835      4640
 -1     33626    3    0    3
 -2      6743      6175      6427      5283
 -1     33627    3    0    3
 -2      4580      4579      4264      4464
 -1     33628    3    0    3
 -2      4360      4197      4386      3022
 -1     33629    3    0    3
 -2      5316       818      5315       824
 -1     33630    3    0    3
 -2      4628      3839      3905      4630
 -1     33631    3    0    3
 -2      4639      4636      3621      4160
 -1     33632    3    0    3
 -2      5201      5200      4194      3835
 -1     33633    3    0    3
 -2      6521      1593      6518      5163
 -1     33634    3    0    3
 -2      3839      5194      3905      4630
 -1     33635    3    0    3
 -2      2005      4650      6436      6610
 -1     33636    3    0    3
 -2      3839      3809      5194      4630
 -1     33637    3    0    3
 -2      5195      4631      3813      3787
 -1     33638    3    0    3
 -2      3621      3809      4030      4630
 -1     33639    3    0    3
 -2      5201      3809      4644      4640
 -1     33640    3    0    3
 -2      2957      5106      3519      5107
 -1     33641    3    0    3
 -2      3272      3158      3975      3186
 -1     33642    3    0    3
 -2      4630      3809      5194      3835
 -1     33643    3    0    3
 -2      4630      3621      3809      3835
 -1     33644    3    0    3
 -2      3621      2289      1933      4636
 -1     33645    3    0    3
 -2      4633      4634      6585      3787
 -1     33646    3    0    3
 -2      4633      4634      3787      3756
 -1     33647    3    0    3
 -2      4379      3794      5200      3870
 -1     33648    3    0    3
 -2      4639      4379      5200      3870
 -1     33649    3    0    3
 -2      4639      4091      4379      3870
 -1     33650    3    0    3
 -2      4639      5200      3835      3870
 -1     33651    3    0    3
 -2      5106       660      5103       984
 -1     33652    3    0    3
 -2      6713      6701      1935      1934
 -1     33653    3    0    3
 -2      5201      4644      3281      4640
 -1     33654    3    0    3
 -2      5200      4639      3835      4353
 -1     33655    3    0    3
 -2      1724      2022      2019      4635
 -1     33656    3    0    3
 -2      1890      3244      1898      6124
 -1     33657    3    0    3
 -2      3756      3975      3564      4633
 -1     33658    3    0    3
 -2      6441      5182      1286      6455
 -1     33659    3    0    3
 -2      5182      6441      1286      6446
 -1     33660    3    0    3
 -2      5207      3809      3895      3784
 -1     33661    3    0    3
 -2      5248      2996      4488      4521
 -1     33662    3    0    3
 -2      6671      6672      5857      5583
 -1     33663    3    0    3
 -2      5316       818      1010      4461
 -1     33664    3    0    3
 -2      5124      3813      4562      3789
 -1     33665    3    0    3
 -2      3570      4562      3813      3789
 -1     33666    3    0    3
 -2      5125      4311      3761      4563
 -1     33667    3    0    3
 -2      5196      3761      5276      3731
 -1     33668    3    0    3
 -2      3761      4712      5276      3731
 -1     33669    3    0    3
 -2      4529      1938      1846      4532
 -1     33670    3    0    3
 -2      1922      5043      3466      5042
 -1     33671    3    0    3
 -2      3809      5207      4644      3784
 -1     33672    3    0    3
 -2      6743      6175      5283      5281
 -1     33673    3    0    3
 -2      4717      4716      4102      4303
 -1     33674    3    0    3
 -2      1963      3564      1932      1889
 -1     33675    3    0    3
 -2      1932      3564      4030      4643
 -1     33676    3    0    3
 -2      1932      4030      4637      4643
 -1     33677    3    0    3
 -2      4555      4553      3692      4247
 -1     33678    3    0    3
 -2      4360      4139      4332      4562
 -1     33679    3    0    3
 -2      3183      3181      3182      6587
 -1     33680    3    0    3
 -2      6177      1124      6426      6164
 -1     33681    3    0    3
 -2       313      3653      1724      4641
 -1     33682    3    0    3
 -2      3629      4036      3843      4631
 -1     33683    3    0    3
 -2      2886      2887      4508      4561
 -1     33684    3    0    3
 -2      2841      5941      6273       464
 -1     33685    3    0    3
 -2      2292      6437      6154      6593
 -1     33686    3    0    3
 -2      6045      3896      4737      6194
 -1     33687    3    0    3
 -2       308      3244       307      1898
 -1     33688    3    0    3
 -2      4360      4139      4562      3491
 -1     33689    3    0    3
 -2      4036      3813      3843      4631
 -1     33690    3    0    3
 -2      4559      3843      5121      4386
 -1     33691    3    0    3
 -2       313      3653      3224      1724
 -1     33692    3    0    3
 -2      3906      3875      3692      4555
 -1     33693    3    0    3
 -2      3813      3843      5121      4559
 -1     33694    3    0    3
 -2      3006      3005      4332      4360
 -1     33695    3    0    3
 -2      4095      3692      3875      4555
 -1     33696    3    0    3
 -2      2964      3005      3006      4360
 -1     33697    3    0    3
 -2      4557      3629      4559      4197
 -1     33698    3    0    3
 -2      3978      4508      4664      4561
 -1     33699    3    0    3
 -2       306      6149      3198       305
 -1     33700    3    0    3
 -2      4444      2960      4555      4247
 -1     33701    3    0    3
 -2      6126      6125      4632      6580
 -1     33702    3    0    3
 -2      3906      4444      5117      4555
 -1     33703    3    0    3
 -2      2252      2036      2178      6174
 -1     33704    3    0    3
 -2      6152      2215      2174      6581
 -1     33705    3    0    3
 -2      3629      3843      4095      4631
 -1     33706    3    0    3
 -2      4282      3784      3895      5197
 -1     33707    3    0    3
 -2      2240      4580      6566      6144
 -1     33708    3    0    3
 -2      2173      1945      4628      2174
 -1     33709    3    0    3
 -2      4633      3839      3787      4631
 -1     33710    3    0    3
 -2      6152      4628      4630      3839
 -1     33711    3    0    3
 -2      4560      4139      3570      4561
 -1     33712    3    0    3
 -2      4632      3761      4712      3978
 -1     33713    3    0    3
 -2      2888      2887      4508      2886
 -1     33714    3    0    3
 -2      3005      4360      3022      3491
 -1     33715    3    0    3
 -2      2157      2252      6125      6580
 -1     33716    3    0    3
 -2      5194      3870      3794      5193
 -1     33717    3    0    3
 -2      1477      3920      5789      5762
 -1     33718    3    0    3
 -2      1764      2036      4560      1707
 -1     33719    3    0    3
 -2      3731      4634      4632      6126
 -1     33720    3    0    3
 -2      2036      4561      2016      1764
 -1     33721    3    0    3
 -2      3843      3629      4095      4558
 -1     33722    3    0    3
 -2      4556      4095      3629      4558
 -1     33723    3    0    3
 -2      4036      3629      3843      4559
 -1     33724    3    0    3
 -2      3813      4562      4559      4360
 -1     33725    3    0    3
 -2      5121      3813      4559      4360
 -1     33726    3    0    3
 -2      4311      4139      4508      4563
 -1     33727    3    0    3
 -2      4386      2964      5121      4360
 -1     33728    3    0    3
 -2      5121      5120      4492      4386
 -1     33729    3    0    3
 -2      2964      4492      2919      4386
 -1     33730    3    0    3
 -2      3761      3570      4632      3789
 -1     33731    3    0    3
 -2      4632      5196      3761      3789
 -1     33732    3    0    3
 -2      4632      3813      5196      3789
 -1     33733    3    0    3
 -2      3570      3813      4632      3789
 -1     33734    3    0    3
 -2      4444      2920      5117      4410
 -1     33735    3    0    3
 -2      4410      4386      4558      2963
 -1     33736    3    0    3
 -2      2919      4386      4410      2963
 -1     33737    3    0    3
 -2      4552      2942      3613      2941
 -1     33738    3    0    3
 -2      3789      3570      4562      4563
 -1     33739    3    0    3
 -2      3789      4562      4332      4563
 -1     33740    3    0    3
 -2      4139      4563      3570      4561
 -1     33741    3    0    3
 -2      4563      3978      3570      4561
 -1     33742    3    0    3
 -2      3692      4554      4555      4247
 -1     33743    3    0    3
 -2      4386      5120      2919      4410
 -1     33744    3    0    3
 -2      4386      4558      5120      4410
 -1     33745    3    0    3
 -2      2919      2964      4386      2963
 -1     33746    3    0    3
 -2      3613      2898      2962      2942
 -1     33747    3    0    3
 -2      5113      5116      3936      4471
 -1     33748    3    0    3
 -2      2177      2225      2178      6083
 -1     33749    3    0    3
 -2      4551      3748      4302      4549
 -1     33750    3    0    3
 -2      2963      4558      3551      4197
 -1     33751    3    0    3
 -2      1091      6456       930      5192
 -1     33752    3    0    3
 -2      3629      4556      4558      4197
 -1     33753    3    0    3
 -2      4559      4557      4197      3491
 -1     33754    3    0    3
 -2      4360      4562      4559      3491
 -1     33755    3    0    3
 -2      4311      4139      2888      4508
 -1     33756    3    0    3
 -2      3004      3003      4311      2888
 -1     33757    3    0    3
 -2      3820      3403      3409      4042
 -1     33758    3    0    3
 -2       983      5230      3947      6414
 -1     33759    3    0    3
 -2      5230       983      3947      5231
 -1     33760    3    0    3
 -2      4563      3570      4562      4139
 -1     33761    3    0    3
 -2      6581      3839      4633      4631
 -1     33762    3    0    3
 -2      6125      4632      4634      6126
 -1     33763    3    0    3
 -2      3000      2963      4197      2956
 -1     33764    3    0    3
 -2      4559      4036      4557      3491
 -1     33765    3    0    3
 -2      4551      3613      4147      4549
 -1     33766    3    0    3
 -2      2945      3021      4302      2898
 -1     33767    3    0    3
 -2      4558      4556      4095      3551
 -1     33768    3    0    3
 -2      3613      4554      4147      4552
 -1     33769    3    0    3
 -2      4386      4559      4558      4197
 -1     33770    3    0    3
 -2      4555      3551      4553      4247
 -1     33771    3    0    3
 -2      4555      4554      4444      4247
 -1     33772    3    0    3
 -2      4553      4095      4556      3551
 -1     33773    3    0    3
 -2      4554      3906      3692      4555
 -1     33774    3    0    3
 -2      3936      3906      3692      4554
 -1     33775    3    0    3
 -2      2960      4444      2961      2962
 -1     33776    3    0    3
 -2      5116      5113      4397      4471
 -1     33777    3    0    3
 -2      2960      2963      3551      3000
 -1     33778    3    0    3
 -2      2941      3000      4553       434
 -1     33779    3    0    3
 -2      4397      5113      2899      4471
 -1     33780    3    0    3
 -2      4397      2899      2961      4471
 -1     33781    3    0    3
 -2      3936      5116      3906      4554
 -1     33782    3    0    3
 -2      2960      3551      4555      4247
 -1     33783    3    0    3
 -2      2963      4410      2960      3551
 -1     33784    3    0    3
 -2      4558      4410      2963      3551
 -1     33785    3    0    3
 -2      4471      5116      3936      4554
 -1     33786    3    0    3
 -2      3000      4556      4553      1746
 -1     33787    3    0    3
 -2      3551      2963      4197      3000
 -1     33788    3    0    3
 -2      2942      3613      4549      4552
 -1     33789    3    0    3
 -2      4247      4554      3613      4552
 -1     33790    3    0    3
 -2      3936      3692      4147      4554
 -1     33791    3    0    3
 -2      2960      4410      4444      4555
 -1     33792    3    0    3
 -2      4095      4558      3551      4555
 -1     33793    3    0    3
 -2      3551      4558      4410      4555
 -1     33794    3    0    3
 -2      4410      4558      3875      4555
 -1     33795    3    0    3
 -2      4558      4095      3875      4555
 -1     33796    3    0    3
 -2      4554      4471      3613      4551
 -1     33797    3    0    3
 -2      3936      4471      4554      4551
 -1     33798    3    0    3
 -2      4147      3936      4554      4551
 -1     33799    3    0    3
 -2      4554      3613      4147      4551
 -1     33800    3    0    3
 -2      3936      3965      5113      4551
 -1     33801    3    0    3
 -2      5113      3965      4496      4551
 -1     33802    3    0    3
 -2      3613      4247      4552      2941
 -1     33803    3    0    3
 -2      6456      1091       930      1092
 -1     33804    3    0    3
 -2      4386      2963      3022      4197
 -1     33805    3    0    3
 -2      1748      2059      4549      1747
 -1     33806    3    0    3
 -2      2962      2960      4444      4247
 -1     33807    3    0    3
 -2      4556      3551      4197      3000
 -1     33808    3    0    3
 -2       433      4552      2942      1748
 -1     33809    3    0    3
 -2      4549      2942      4552      1748
 -1     33810    3    0    3
 -2      4549      4548      2945      1747
 -1     33811    3    0    3
 -2      4552      4247      4553      2941
 -1     33812    3    0    3
 -2      4247      2962      2960      2941
 -1     33813    3    0    3
 -2      3551      2960      3000      2941
 -1     33814    3    0    3
 -2      4247      2960      3551      2941
 -1     33815    3    0    3
 -2      3000      4553      3551      2941
 -1     33816    3    0    3
 -2      4247      3551      4553      2941
 -1     33817    3    0    3
 -2      3495      3255      3237      4727
 -1     33818    3    0    3
 -2      1746      4556      1706       435
 -1     33819    3    0    3
 -2      4553      3000      1746       434
 -1     33820    3    0    3
 -2      2886      3005      2915      4139
 -1     33821    3    0    3
 -2      4197      4557      4556      2956
 -1     33822    3    0    3
 -2      4556      4557      1706      2956
 -1     33823    3    0    3
 -2      4197      4556      3000      2956
 -1     33824    3    0    3
 -2      2177      2079      4631      6083
 -1     33825    3    0    3
 -2      6756      2812      2833      5919
 -1     33826    3    0    3
 -2      6581      3839      4631      2174
 -1     33827    3    0    3
 -2      1192      6078      1148      1294
 -1     33828    3    0    3
 -2      4563      4562      4332      4139
 -1     33829    3    0    3
 -2      4311      4139      4563      4332
 -1     33830    3    0    3
 -2      1173      6415      1175      1072
 -1     33831    3    0    3
 -2      2956      4197      4557      3491
 -1     33832    3    0    3
 -2      3022      4197      2956      3491
 -1     33833    3    0    3
 -2      2956      4557      2915      3491
 -1     33834    3    0    3
 -2      3022      2956      2915      3491
 -1     33835    3    0    3
 -2      4139      3005      2915      3491
 -1     33836    3    0    3
 -2      2915      3005      3022      3491
 -1     33837    3    0    3
 -2      4139      3570      4562      4560
 -1     33838    3    0    3
 -2      3570      4036      4562      4560
 -1     33839    3    0    3
 -2      3491      4036      4557      4560
 -1     33840    3    0    3
 -2      3491      4562      4036      4560
 -1     33841    3    0    3
 -2      4139      4562      3491      4560
 -1     33842    3    0    3
 -2      3491      4557      2915      4560
 -1     33843    3    0    3
 -2      2915      4139      3491      4560
 -1     33844    3    0    3
 -2      2036      4560      4561      1764
 -1     33845    3    0    3
 -2      2278      6180      2020      2237
 -1     33846    3    0    3
 -2      4561      1875      2016      1764
 -1     33847    3    0    3
 -2      4633      1932      4030      6152
 -1     33848    3    0    3
 -2      4628      6787      4630      3905
 -1     33849    3    0    3
 -2      2841      5941      5943      6273
 -1     33850    3    0    3
 -2      2292      6437      6593      2429
 -1     33851    3    0    3
 -2      2407      4604      4603      6602
 -1     33852    3    0    3
 -2      3570      4560      4561      6174
 -1     33853    3    0    3
 -2      5197      1191      6079      5905
 -1     33854    3    0    3
 -2      2016      2252      2196      6583
 -1     33855    3    0    3
 -2      2252      2016      2036      6174
 -1     33856    3    0    3
 -2      4560      2036      4561      6174
 -1     33857    3    0    3
 -2      4561      2036      2016      6174
 -1     33858    3    0    3
 -2      3761      4632      4712      3731
 -1     33859    3    0    3
 -2      1747      6166      4549      4548
 -1     33860    3    0    3
 -2      2225      2114      6125      6585
 -1     33861    3    0    3
 -2      2079      4631      2044      2177
 -1     33862    3    0    3
 -2      6572      2517      6569      6567
 -1     33863    3    0    3
 -2      2278      6180      2237      6123
 -1     33864    3    0    3
 -2      4560      4557      2915      1707
 -1     33865    3    0    3
 -2      1748       433      4552      1756
 -1     33866    3    0    3
 -2      1764      2886       438       437
 -1     33867    3    0    3
 -2      6572      2517      1913      2516
 -1     33868    3    0    3
 -2      4560      2079      4557      1707
 -1     33869    3    0    3
 -2      1706      4557      2079      1707
 -1     33870    3    0    3
 -2      6572      2517      6567      1913
 -1     33871    3    0    3
 -2      3870      4635      4091      4379
 -1     33872    3    0    3
 -2      2941      4552      2942       433
 -1     33873    3    0    3
 -2      1746      6584      4553      1945
 -1     33874    3    0    3
 -2      1746      4553       434      1756
 -1     33875    3    0    3
 -2      1746      6584      1945      2044
 -1     33876    3    0    3
 -2       432       433      2942      1748
 -1     33877    3    0    3
 -2       433      2941      4552      1756
 -1     33878    3    0    3
 -2      4552      3692      4147      6168
 -1     33879    3    0    3
 -2      3441      4870      3421      3420
 -1     33880    3    0    3
 -2       434      2941       433      1756
 -1     33881    3    0    3
 -2      2081      3692      4552      6168
 -1     33882    3    0    3
 -2      5122       922       970      3961
 -1     33883    3    0    3
 -2      3839      4095      6584      4628
 -1     33884    3    0    3
 -2      2300      2072      2304      6596
 -1     33885    3    0    3
 -2      1854      4548      4545      2072
 -1     33886    3    0    3
 -2      4147      4549      4552      6168
 -1     33887    3    0    3
 -2      6168      1748      4552      2081
 -1     33888    3    0    3
 -2      6168      1748      2059      4549
 -1     33889    3    0    3
 -2      1756      1746      4553      1945
 -1     33890    3    0    3
 -2      3247      1837       315      1834
 -1     33891    3    0    3
 -2      1945      4628      3692      2081
 -1     33892    3    0    3
 -2      5122       922      5123       804
 -1     33893    3    0    3
 -2      3247      1837      3248       315
 -1     33894    3    0    3
 -2      3247      1837      1834      3682
 -1     33895    3    0    3
 -2      2710      3972      4815      4821
 -1     33896    3    0    3
 -2      4147      3692      4628      6168
 -1     33897    3    0    3
 -2       313      4641       314      3243
 -1     33898    3    0    3
 -2      6087      3932      5199      6454
 -1     33899    3    0    3
 -2      1945      4553      3692      6584
 -1     33900    3    0    3
 -2      1746      3000      4556       435
 -1     33901    3    0    3
 -2      2215      2216      1932      6152
 -1     33902    3    0    3
 -2      2956      4556      3000       435
 -1     33903    3    0    3
 -2       434      3000      1746       435
 -1     33904    3    0    3
 -2      3975      1890      6586      1963
 -1     33905    3    0    3
 -2      4643      1932      3564      1889
 -1     33906    3    0    3
 -2      4637      1932      4643      1844
 -1     33907    3    0    3
 -2      3621      2289      4091      4630
 -1     33908    3    0    3
 -2      4030      3839      4630      3809
 -1     33909    3    0    3
 -2      4529      1938      4532      4405
 -1     33910    3    0    3
 -2       306      6149      1911      6172
 -1     33911    3    0    3
 -2      2059      6171      2300      2303
 -1     33912    3    0    3
 -2      2114      2157      2225      6125
 -1     33913    3    0    3
 -2      6083      2178      2079      6174
 -1     33914    3    0    3
 -2      2178      2036      2079      6174
 -1     33915    3    0    3
 -2      4628      6152      4630      6588
 -1     33916    3    0    3
 -2      2245      4716      6127      2293
 -1     33917    3    0    3
 -2      2252      2178      2157      6125
 -1     33918    3    0    3
 -2      3244      3158      3975      3272
 -1     33919    3    0    3
 -2      2846      4784      2848      2790
 -1     33920    3    0    3
 -2      4548      6596      4545      2072
 -1     33921    3    0    3
 -2       309      3229      3272      6586
 -1     33922    3    0    3
 -2      2158      2157      1965      6126
 -1     33923    3    0    3
 -2      4714      2158      1965      6126
 -1     33924    3    0    3
 -2      3731      4714      4634      6126
 -1     33925    3    0    3
 -2       306      6149       305      1911
 -1     33926    3    0    3
 -2      3731      4712      4714      6126
 -1     33927    3    0    3
 -2      1933      1932      4637      1844
 -1     33928    3    0    3
 -2      1747      6166      4548      2072
 -1     33929    3    0    3
 -2       310      4643      1889      1844
 -1     33930    3    0    3
 -2      4636      3621      4637      1933
 -1     33931    3    0    3
 -2      6671      6672      5583       652
 -1     33932    3    0    3
 -2      2216      1933      1932      6152
 -1     33933    3    0    3
 -2      1747      6166      2059      4549
 -1     33934    3    0    3
 -2      3511      3653      1724      4638
 -1     33935    3    0    3
 -2      4030      3621      4630      6152
 -1     33936    3    0    3
 -2      5807      2166      2049      2236
 -1     33937    3    0    3
 -2      4627      4549      3748      4147
 -1     33938    3    0    3
 -2      2022      2302      2019      4635
 -1     33939    3    0    3
 -2      6436      2210      4625      6439
 -1     33940    3    0    3
 -2      4257      2934      2966      2910
 -1     33941    3    0    3
 -2      2059      6171      6168      4627
 -1     33942    3    0    3
 -2       125      4271      6051       702
 -1     33943    3    0    3
 -2      4091      4636      2022      2289
 -1     33944    3    0    3
 -2      4616      2000      3802      6596
 -1     33945    3    0    3
 -2      2292      6437      2429      2366
 -1     33946    3    0    3
 -2      6205      5210      5213      6204
 -1     33947    3    0    3
 -2      1922      5043      5042      1753
 -1     33948    3    0    3
 -2      2022      1933      4636      1725
 -1     33949    3    0    3
 -2      2884      4492      5122      4120
 -1     33950    3    0    3
 -2      4630      4629      3905      6787
 -1     33951    3    0    3
 -2      4628      2173      2174      6588
 -1     33952    3    0    3
 -2      6168      4628      4627      6171
 -1     33953    3    0    3
 -2      2059      2303      2081      6168
 -1     33954    3    0    3
 -2      4628      4627      4147      6168
 -1     33955    3    0    3
 -2      2905      3728      3008      4125
 -1     33956    3    0    3
 -2      6609      2017      4624      2132
 -1     33957    3    0    3
 -2      3932      3794      4379      3870
 -1     33958    3    0    3
 -2      3748      4205      4548      6166
 -1     33959    3    0    3
 -2      2216      2215      2174      6152
 -1     33960    3    0    3
 -2       313      3653      4641      3243
 -1     33961    3    0    3
 -2      2215      1932      4633      6152
 -1     33962    3    0    3
 -2      2059      6171      2303      6168
 -1     33963    3    0    3
 -2      4773      6042      6230      2665
 -1     33964    3    0    3
 -2      4095      3839      6584      4631
 -1     33965    3    0    3
 -2      4103      6595      4614      4047
 -1     33966    3    0    3
 -2      3919       799      6140       887
 -1     33967    3    0    3
 -2      2289      2427      2370      6167
 -1     33968    3    0    3
 -2      2332      2333      2370      6167
 -1     33969    3    0    3
 -2      2211      2152      4615      6165
 -1     33970    3    0    3
 -2      1137      1139      6242      6803
 -1     33971    3    0    3
 -2      6167      2427      2332      6171
 -1     33972    3    0    3
 -2      2370      2289      6167      6198
 -1     33973    3    0    3
 -2      6171      2427      6588      6787
 -1     33974    3    0    3
 -2      4229      6511      5162      4178
 -1     33975    3    0    3
 -2      3802      4205      4616      6596
 -1     33976    3    0    3
 -2      2377      2539      4618      2374
 -1     33977    3    0    3
 -2      2374      2539      4618      6094
 -1     33978    3    0    3
 -2      1864      3561      3178      4661
 -1     33979    3    0    3
 -2      6168      4549      4627      4147
 -1     33980    3    0    3
 -2      3802      4544      2000      6591
 -1     33981    3    0    3
 -2      2304      2143      4616      2000
 -1     33982    3    0    3
 -2       313      4641      1724      1909
 -1     33983    3    0    3
 -2      2000      1999      2143      6591
 -1     33984    3    0    3
 -2      2292      6437      2366      6154
 -1     33985    3    0    3
 -2      2957      5106       183      2993
 -1     33986    3    0    3
 -2       313      4641      1909       314
 -1     33987    3    0    3
 -2      6198      6788      4629      6167
 -1     33988    3    0    3
 -2      5188      3991      3932      4624
 -1     33989    3    0    3
 -2      4635      2302      2019      6609
 -1     33990    3    0    3
 -2      4589      2672      4590      2673
 -1     33991    3    0    3
 -2      4626      3897      3538      4110
 -1     33992    3    0    3
 -2      5730       927      6692      1003
 -1     33993    3    0    3
 -2      3954      5188      3897      4624
 -1     33994    3    0    3
 -2      2022      2289      2302      6198
 -1     33995    3    0    3
 -2      1285      6454      1346      1298
 -1     33996    3    0    3
 -2      3653      4641      4642      4110
 -1     33997    3    0    3
 -2      2362      2656      2586      4623
 -1     33998    3    0    3
 -2      5187      4017      4047      4623
 -1     33999    3    0    3
 -2      2377      6592      2374      4618
 -1     34000    3    0    3
 -2      4327       983      6170       977
 -1     34001    3    0    3
 -2      2539      2374      2312      6094
 -1     34002    3    0    3
 -2      4624      2377      4618      6469
 -1     34003    3    0    3
 -2      1067      5210      1158      6204
 -1     34004    3    0    3
 -2      2019      2302      2132      6609
 -1     34005    3    0    3
 -2      6319       723       699       920
 -1     34006    3    0    3
 -2      4619      2579      6463      6744
 -1     34007    3    0    3
 -2      6137      6134      1085       961
 -1     34008    3    0    3
 -2      6479      4620      2586      6513
 -1     34009    3    0    3
 -2      4536      2043      3922      2107
 -1     34010    3    0    3
 -2      4816      2710      4815      6669
 -1     34011    3    0    3
 -2      2656      2587      2586      4623
 -1     34012    3    0    3
 -2      2674      4613      2670      6463
 -1     34013    3    0    3
 -2      4613      2674      2670      2429
 -1     34014    3    0    3
 -2      2428      4613      2670      2429
 -1     34015    3    0    3
 -2      2312      2143      2152      6165
 -1     34016    3    0    3
 -2      2572      2366      4614      2416
 -1     34017    3    0    3
 -2      2211      2416      2365      6594
 -1     34018    3    0    3
 -2      2366      2674      2572      6437
 -1     34019    3    0    3
 -2      4537       427      1723      1850
 -1     34020    3    0    3
 -2      2656      4623      5710      6618
 -1     34021    3    0    3
 -2      2416      2305      2366      6154
 -1     34022    3    0    3
 -2      2416      2366      4614      6154
 -1     34023    3    0    3
 -2      4536      2968      2972       426
 -1     34024    3    0    3
 -2      3922      4612      2107      2043
 -1     34025    3    0    3
 -2      5710      4047      4623      3991
 -1     34026    3    0    3
 -2      6575      2416      2211      6594
 -1     34027    3    0    3
 -2      5178      6129      1314      6443
 -1     34028    3    0    3
 -2      6462      2572      4614      6595
 -1     34029    3    0    3
 -2      4612      4614      4129      6154
 -1     34030    3    0    3
 -2      1855      2894       429      1749
 -1     34031    3    0    3
 -2      3980      4611      1939      6576
 -1     34032    3    0    3
 -2      4615      3862      1999      2042
 -1     34033    3    0    3
 -2      4532      4533      3980      1939
 -1     34034    3    0    3
 -2      1887      5866      1888      1949
 -1     34035    3    0    3
 -2      4611      4612      6154      6576
 -1     34036    3    0    3
 -2      2107      1939      2292      6576
 -1     34037    3    0    3
 -2      4573      3639      3117      3115
 -1     34038    3    0    3
 -2      1999      2152      4615      2042
 -1     34039    3    0    3
 -2      2107      4612      2305      2043
 -1     34040    3    0    3
 -2      1855      2894      2893       429
 -1     34041    3    0    3
 -2      4540      2042      2043      1723
 -1     34042    3    0    3
 -2      2042      4305      4540      2043
 -1     34043    3    0    3
 -2      4537      2900      4540      1723
 -1     34044    3    0    3
 -2      4615      4305      3862      2042
 -1     34045    3    0    3
 -2      3862      4305      4540      2042
 -1     34046    3    0    3
 -2      3748      3995      4205      4627
 -1     34047    3    0    3
 -2      1749       428      2894       429
 -1     34048    3    0    3
 -2      2407      6206      2238      2139
 -1     34049    3    0    3
 -2      3019      1845       424       425
 -1     34050    3    0    3
 -2      1747      4548      1854      2072
 -1     34051    3    0    3
 -2      4205      3748      4627      6166
 -1     34052    3    0    3
 -2      4616      4627      3962      6590
 -1     34053    3    0    3
 -2      1855      4545      4544      2000
 -1     34054    3    0    3
 -2      4545      1854      2072      2000
 -1     34055    3    0    3
 -2      2884      4492      2919      2885
 -1     34056    3    0    3
 -2      4205      3802      4545      6596
 -1     34057    3    0    3
 -2      3747      4172      3964      4571
 -1     34058    3    0    3
 -2      2000      4616      3802      6591
 -1     34059    3    0    3
 -2      4544      4541      1999      6591
 -1     34060    3    0    3
 -2      4545      1855      1854      2000
 -1     34061    3    0    3
 -2      4618      4021      4616      6578
 -1     34062    3    0    3
 -2      4544      1855      2000      1999
 -1     34063    3    0    3
 -2      4643      6586      3186      3229
 -1     34064    3    0    3
 -2      4194      3870      3794      5194
 -1     34065    3    0    3
 -2      4194      3870      5194      3835
 -1     34066    3    0    3
 -2      2968      1878       425       426
 -1     34067    3    0    3
 -2      4532      1938      1845      1939
 -1     34068    3    0    3
 -2      4533      4532      1845      1939
 -1     34069    3    0    3
 -2      6221      2078      1744      1958
 -1     34070    3    0    3
 -2      1878      2968      4536       426
 -1     34071    3    0    3
 -2      2900      1723       427       428
 -1     34072    3    0    3
 -2      4194      3870      3835      5200
 -1     34073    3    0    3
 -2      1723      4540      2042      1749
 -1     34074    3    0    3
 -2      1878      1845      4533       425
 -1     34075    3    0    3
 -2      4533      1845      3019       425
 -1     34076    3    0    3
 -2      1878      4533      2968       425
 -1     34077    3    0    3
 -2      4533      3019      2968       425
 -1     34078    3    0    3
 -2      3748      3995      4627      3965
 -1     34079    3    0    3
 -2      3748      3995      3965      4550
 -1     34080    3    0    3
 -2      2894      4541      4540      1749
 -1     34081    3    0    3
 -2      2407      6206      2139      2321
 -1     34082    3    0    3
 -2      4590      4587      4588      2672
 -1     34083    3    0    3
 -2      4184      4157      4213      5152
 -1     34084    3    0    3
 -2      1747      2945       432       431
 -1     34085    3    0    3
 -2      4548      1747      1854       431
 -1     34086    3    0    3
 -2      6139      6593      4188      6144
 -1     34087    3    0    3
 -2      1747      4548      2945       431
 -1     34088    3    0    3
 -2      2982      2945      4548       431
 -1     34089    3    0    3
 -2       429      2893      1855       430
 -1     34090    3    0    3
 -2      1855      4545      1854       430
 -1     34091    3    0    3
 -2      2893      4545      1855       430
 -1     34092    3    0    3
 -2      3612      3581      4878      3641
 -1     34093    3    0    3
 -2      4545      2893      2982       430
 -1     34094    3    0    3
 -2      2579      2674      2670      6463
 -1     34095    3    0    3
 -2      2503      2657      2671      6136
 -1     34096    3    0    3
 -2      5905      1011      6155      5197
 -1     34097    3    0    3
 -2      2672      6641      4590      2708
 -1     34098    3    0    3
 -2      2450      2525      4586      2706
 -1     34099    3    0    3
 -2       662      6523       944      6507
 -1     34100    3    0    3
 -2      3269      4430      4651      3566
 -1     34101    3    0    3
 -2      6537      2153      2266      6598
 -1     34102    3    0    3
 -2      5162      4148      4206      4598
 -1     34103    3    0    3
 -2      2266      2351      2328      6598
 -1     34104    3    0    3
 -2      5322      3279      3246      5323
 -1     34105    3    0    3
 -2      6561      6117      4568      6782
 -1     34106    3    0    3
 -2      5161      4255      4279      4597
 -1     34107    3    0    3
 -2      5161      1263      5162      6103
 -1     34108    3    0    3
 -2      4588      2678      2672      4587
 -1     34109    3    0    3
 -2      4596      4229      4258      4595
 -1     34110    3    0    3
 -2      6514      2518      4602      2520
 -1     34111    3    0    3
 -2      2351      2266      2153      6598
 -1     34112    3    0    3
 -2      4229      5160      4178      4596
 -1     34113    3    0    3
 -2      4279      4255      5156      4592
 -1     34114    3    0    3
 -2      2194      1984      4595      6644
 -1     34115    3    0    3
 -2      5157      3058      6534      6536
 -1     34116    3    0    3
 -2      3102       479       478      6646
 -1     34117    3    0    3
 -2      3069       669      5156      6533
 -1     34118    3    0    3
 -2      4590      4587      2672      4589
 -1     34119    3    0    3
 -2      4567      4564      4566      4074
 -1     34120    3    0    3
 -2       481       480      3118      6638
 -1     34121    3    0    3
 -2      4314      4584      4287      4583
 -1     34122    3    0    3
 -2      2086      1754      1984      5711
 -1     34123    3    0    3
 -2      2125      1952      2718      6138
 -1     34124    3    0    3
 -2      6785      6638      6798      3143
 -1     34125    3    0    3
 -2      2488      2537      2678      6640
 -1     34126    3    0    3
 -2      2266      4595      6537      6598
 -1     34127    3    0    3
 -2      4255      4206      5167      4603
 -1     34128    3    0    3
 -2      6037       643      1058       929
 -1     34129    3    0    3
 -2      2511      2679      2510      6600
 -1     34130    3    0    3
 -2      2341      2633      4586      6182
 -1     34131    3    0    3
 -2      6649      3092      4592      6535
 -1     34132    3    0    3
 -2      4608      4005      4657      4037
 -1     34133    3    0    3
 -2      4589      4233      4587      6597
 -1     34134    3    0    3
 -2      4148      4604      4206      4598
 -1     34135    3    0    3
 -2      4213      4184      5151      4587
 -1     34136    3    0    3
 -2      3052      4594      3079      3036
 -1     34137    3    0    3
 -2      4255      5161      4206      4597
 -1     34138    3    0    3
 -2      4595      4309      4585      6644
 -1     34139    3    0    3
 -2      4279      4229      5161      4597
 -1     34140    3    0    3
 -2      4229      4206      5161      4597
 -1     34141    3    0    3
 -2      4339      4577      4578      4314
 -1     34142    3    0    3
 -2      3076      3055      6210      6536
 -1     34143    3    0    3
 -2      6537      4597      2153      6598
 -1     34144    3    0    3
 -2      4206      4597      4598      6181
 -1     34145    3    0    3
 -2      4258      4586      4596      6629
 -1     34146    3    0    3
 -2      6600      4601      4148      6601
 -1     34147    3    0    3
 -2      4114      4148      5171      4607
 -1     34148    3    0    3
 -2      6138      3496      4577      4270
 -1     34149    3    0    3
 -2      6138      3496      4270      6492
 -1     34150    3    0    3
 -2      2350      2509      4598      6181
 -1     34151    3    0    3
 -2      4229      5162      4206      4598
 -1     34152    3    0    3
 -2      4657      2359      2319      2518
 -1     34153    3    0    3
 -2      4608      4610      4064      6202
 -1     34154    3    0    3
 -2      4601      2684      2511      2679
 -1     34155    3    0    3
 -2      4603      4206      4604      6181
 -1     34156    3    0    3
 -2      1702      3412      4284      6562
 -1     34157    3    0    3
 -2      4118      6627      4178      4599
 -1     34158    3    0    3
 -2      3038      4593      6655      6652
 -1     34159    3    0    3
 -2      6106      2487      2354      4606
 -1     34160    3    0    3
 -2      4032      4609      4610      6483
 -1     34161    3    0    3
 -2      6202      4609      4610      4064
 -1     34162    3    0    3
 -2      4114      4171      4604      4606
 -1     34163    3    0    3
 -2      2686      2683      4607      2696
 -1     34164    3    0    3
 -2      3932      6788      4618      3962
 -1     34165    3    0    3
 -2      4114      5170      4171      4606
 -1     34166    3    0    3
 -2      4605      6206      2138      6603
 -1     34167    3    0    3
 -2      4114      4093      5170      4606
 -1     34168    3    0    3
 -2      4854      2566      2356      2414
 -1     34169    3    0    3
 -2      5174      4610      4005      3976
 -1     34170    3    0    3
 -2      4114      5171      4064      4607
 -1     34171    3    0    3
 -2      5168      5170      4171      4114
 -1     34172    3    0    3
 -2      6206      4603      4605      6602
 -1     34173    3    0    3
 -2      1405      6554      5148      6555
 -1     34174    3    0    3
 -2      6494      1829      1741      6783
 -1     34175    3    0    3
 -2      3109      4343      4573      4149
 -1     34176    3    0    3
 -2      6116      1988      4593      6206
 -1     34177    3    0    3
 -2       665      5584      2794      5779
 -1     34178    3    0    3
 -2       408      1858      3057       407
 -1     34179    3    0    3
 -2      3049      1741       407      6096
 -1     34180    3    0    3
 -2      3049      3077      4592      3092
 -1     34181    3    0    3
 -2      6479      4076      6513      4622
 -1     34182    3    0    3
 -2      1936      1765      4594      6116
 -1     34183    3    0    3
 -2      4317      3153      3149      3145
 -1     34184    3    0    3
 -2      2238      4603      5667      6206
 -1     34185    3    0    3
 -2      1969      4911      1968      4423
 -1     34186    3    0    3
 -2       402      1874      3048       401
 -1     34187    3    0    3
 -2      4600      2702      2668      2641
 -1     34188    3    0    3
 -2      5217      4457      4427      4656
 -1     34189    3    0    3
 -2      2708      2668      4590      2702
 -1     34190    3    0    3
 -2      1819      2032      4654      1884
 -1     34191    3    0    3
 -2      4650      3682      1834      6436
 -1     34192    3    0    3
 -2      5376      1587      6014      5377
 -1     34193    3    0    3
 -2      4639      4091      4636      3511
 -1     34194    3    0    3
 -2      1950      6623      4660      6482
 -1     34195    3    0    3
 -2      4654      1884      4652      4653
 -1     34196    3    0    3
 -2      2587      4620      2586      4623
 -1     34197    3    0    3
 -2      4427      4457      4655      4656
 -1     34198    3    0    3
 -2      4855      6099      4042      6717
 -1     34199    3    0    3
 -2      1139      1137      1138      6803
 -1     34200    3    0    3
 -2      5415      1316      1243      6156
 -1     34201    3    0    3
 -2      4135      3682      4650      6436
 -1     34202    3    0    3
 -2      4640      4639      3621      4160
 -1     34203    3    0    3
 -2      2210      2454      2145      4625
 -1     34204    3    0    3
 -2      4974      2202      2082      5788
 -1     34205    3    0    3
 -2      5880      4826      4053      6072
 -1     34206    3    0    3
 -2      3954      5187      3991      4623
 -1     34207    3    0    3
 -2      3269      4430      3274      3261
 -1     34208    3    0    3
 -2      3892      3280      3538      4404
 -1     34209    3    0    3
 -2      5186      1495      5185      4041
 -1     34210    3    0    3
 -2       324      6717      1839      3333
 -1     34211    3    0    3
 -2      4118      4153      5164      4600
 -1     34212    3    0    3
 -2      4645      4007      4647      6481
 -1     34213    3    0    3
 -2      4620      6605      2580      6513
 -1     34214    3    0    3
 -2       967       937      1223      6313
 -1     34215    3    0    3
 -2      4625      3986      4622      6604
 -1     34216    3    0    3
 -2      6514      4118      6643      4602
 -1     34217    3    0    3
 -2      2267      2144      2449      4646
 -1     34218    3    0    3
 -2      3566      4650      3170      6614
 -1     34219    3    0    3
 -2      2579      2580      2700      6744
 -1     34220    3    0    3
 -2      4646      2648      4041      4622
 -1     34221    3    0    3
 -2      4623      4017      4620      6479
 -1     34222    3    0    3
 -2      2443      2144      2145      6604
 -1     34223    3    0    3
 -2       318      1873      1884      4653
 -1     34224    3    0    3
 -2      4213      5151      4260      4587
 -1     34225    3    0    3
 -2      4213      4260      4581      4587
 -1     34226    3    0    3
 -2      4619      2579      2581      2704
 -1     34227    3    0    3
 -2      1067      5210      1157      1158
 -1     34228    3    0    3
 -2      2679      4601      2684      2687
 -1     34229    3    0    3
 -2      2588      2340      2574      4645
 -1     34230    3    0    3
 -2      3593      3921      4457      4648
 -1     34231    3    0    3
 -2      4620      6605      4076      6744
 -1     34232    3    0    3
 -2      3979      5221      5211      4037
 -1     34233    3    0    3
 -2      4602      4647      4037      6633
 -1     34234    3    0    3
 -2      5028      5026      2262      2181
 -1     34235    3    0    3
 -2      4096      4601      5165      4118
 -1     34236    3    0    3
 -2      2577      4005      4657      4608
 -1     34237    3    0    3
 -2      4188      6440      5177      4129
 -1     34238    3    0    3
 -2      4647      3979      5211      4037
 -1     34239    3    0    3
 -2      3192      3867      4443      3265
 -1     34240    3    0    3
 -2      2701      2580      4620      6744
 -1     34241    3    0    3
 -2      3954      3897      5190      4626
 -1     34242    3    0    3
 -2      2032      4130      3593      4648
 -1     34243    3    0    3
 -2      4037      5221      5211      6515
 -1     34244    3    0    3
 -2      2320      2246      4657      4659
 -1     34245    3    0    3
 -2      3385       488       323      1730
 -1     34246    3    0    3
 -2      4069      5211      5166      4037
 -1     34247    3    0    3
 -2      4069      4100      4645      4600
 -1     34248    3    0    3
 -2      3284      3263      4643      4644
 -1     34249    3    0    3
 -2      4661      4662      4130      3561
 -1     34250    3    0    3
 -2      4648      3921      4658      4130
 -1     34251    3    0    3
 -2      5225      3216      4425      4662
 -1     34252    3    0    3
 -2      4005      5223      5174      3976
 -1     34253    3    0    3
 -2      4609      2696      2496      2601
 -1     34254    3    0    3
 -2      6634      4609      4607      4114
 -1     34255    3    0    3
 -2      3991      5187      4047      4623
 -1     34256    3    0    3
 -2      5166      5211      1451      6515
 -1     34257    3    0    3
 -2      2055      6720      4853      6790
 -1     34258    3    0    3
 -2      4104      6606      4660      6622
 -1     34259    3    0    3
 -2      3217      4104      3887      4663
 -1     34260    3    0    3
 -2      4104      3173      3887      6620
 -1     34261    3    0    3
 -2      4661      1864       320      3178
 -1     34262    3    0    3
 -2      6622       321      6607      3179
 -1     34263    3    0    3
 -2      2182      1914      2025      4658
 -1     34264    3    0    3
 -2      4658      1864      2025      3561
 -1     34265    3    0    3
 -2      4661      3245      3236      3178
 -1     34266    3    0    3
 -2       320      3245      4661      3178
 -1     34267    3    0    3
 -2      5210      5213      6204      3498
 -1     34268    3    0    3
 -2      3235      4727      4724      4361
 -1     34269    3    0    3
 -2      5227      5222      3465      4010
 -1     34270    3    0    3
 -2      3945      6468      3917      5224
 -1     34271    3    0    3
 -2      6607      4104      6482      6622
 -1     34272    3    0    3
 -2       488      3262      1781      6606
 -1     34273    3    0    3
 -2      3561      4425      3887      4663
 -1     34274    3    0    3
 -2      5227      5222      6489       993
 -1     34275    3    0    3
 -2      4659      4005      4610      3976
 -1     34276    3    0    3
 -2      4647      5211      4069      4037
 -1     34277    3    0    3
 -2      1451      5211      5221      6515
 -1     34278    3    0    3
 -2      4873      6222      6254      2699
 -1     34279    3    0    3
 -2      2660      2652      2702      6748
 -1     34280    3    0    3
 -2      1914      6482      4658      6623
 -1     34281    3    0    3
 -2      1950      2284      2008      6608
 -1     34282    3    0    3
 -2       489       488      3385      6161
 -1     34283    3    0    3
 -2      2355      2284      2320      4659
 -1     34284    3    0    3
 -2      4858      3911      3849      4854
 -1     34285    3    0    3
 -2      2246      2320      2284      4659
 -1     34286    3    0    3
 -2      2067      3689      1856      6056
 -1     34287    3    0    3
 -2      4619      5183      4157      4122
 -1     34288    3    0    3
 -2      4225      6536      5157      4255
 -1     34289    3    0    3
 -2      3241      4662      4654      3236
 -1     34290    3    0    3
 -2      4064      5172      4608      4096
 -1     34291    3    0    3
 -2      4645      2588      2340      4647
 -1     34292    3    0    3
 -2       179      5098      2906      2905
 -1     34293    3    0    3
 -2      2246      6608      4659      2284
 -1     34294    3    0    3
 -2      3593      3951      4655      4164
 -1     34295    3    0    3
 -2      4656      4654      4231      3241
 -1     34296    3    0    3
 -2      4653      3566      3209      6614
 -1     34297    3    0    3
 -2      2032      2183      2025      4648
 -1     34298    3    0    3
 -2      5210      3951      5212      4007
 -1     34299    3    0    3
 -2      1864      2025      1914      4658
 -1     34300    3    0    3
 -2      3897      3653      3867      4642
 -1     34301    3    0    3
 -2      3257      5226      3215      4010
 -1     34302    3    0    3
 -2      4650       317      3170      6614
 -1     34303    3    0    3
 -2      4231      4655      4652      3593
 -1     34304    3    0    3
 -2      4231      3210      4653      3240
 -1     34305    3    0    3
 -2      3921      5217      5225      4662
 -1     34306    3    0    3
 -2       320      1864       321      3178
 -1     34307    3    0    3
 -2      3593      3951      4457      4655
 -1     34308    3    0    3
 -2      4658      3887      5222      3945
 -1     34309    3    0    3
 -2      4648      2025      4658      6484
 -1     34310    3    0    3
 -2      2267      2183      2032      4648
 -1     34311    3    0    3
 -2      4608      5172      4005      4037
 -1     34312    3    0    3
 -2      5209      1495      5210      4041
 -1     34313    3    0    3
 -2      2031      2032      4164      2267
 -1     34314    3    0    3
 -2      4621      4619      4076      6605
 -1     34315    3    0    3
 -2      6436      1837      3682      1834
 -1     34316    3    0    3
 -2      3264      4638      3224      3653
 -1     34317    3    0    3
 -2      1873      4652      4653      6614
 -1     34318    3    0    3
 -2      4041      5210      4007      4646
 -1     34319    3    0    3
 -2      1285      6454      1298      5182
 -1     34320    3    0    3
 -2      3923      3273      4427      3240
 -1     34321    3    0    3
 -2      6604      2144      2145      6615
 -1     34322    3    0    3
 -2      3954      3991      4624      4623
 -1     34323    3    0    3
 -2      2144      2443      4646      6604
 -1     34324    3    0    3
 -2      4646      2443      4622      6604
 -1     34325    3    0    3
 -2      2577      4657      2319      2518
 -1     34326    3    0    3
 -2      4100      5185      4041      4621
 -1     34327    3    0    3
 -2      3566      3209      3269      4653
 -1     34328    3    0    3
 -2      4427      4655      4231      4656
 -1     34329    3    0    3
 -2      4007      3979      4647      4648
 -1     34330    3    0    3
 -2      2031      1884      1873      4652
 -1     34331    3    0    3
 -2      5186      3986      5210      4041
 -1     34332    3    0    3
 -2      2648      2574      2449      4645
 -1     34333    3    0    3
 -2      2574      2588      4645      2641
 -1     34334    3    0    3
 -2      4600      2668      4645      2641
 -1     34335    3    0    3
 -2      3241      4662      3239      4656
 -1     34336    3    0    3
 -2      4645      2668      2574      2641
 -1     34337    3    0    3
 -2      3979      5211      4007      4647
 -1     34338    3    0    3
 -2      2648      2668      2574      4645
 -1     34339    3    0    3
 -2      2588      2359      2340      4647
 -1     34340    3    0    3
 -2      4620      6605      6513      4076
 -1     34341    3    0    3
 -2      4859      4862      4863      1964
 -1     34342    3    0    3
 -2      2673      2708      4590      2702
 -1     34343    3    0    3
 -2      4017      5187      3954      4623
 -1     34344    3    0    3
 -2      4157      4619      4588      5723
 -1     34345    3    0    3
 -2      3921      4043      5217      4457
 -1     34346    3    0    3
 -2      3921      4043      3465      5217
 -1     34347    3    0    3
 -2      3921      4043      4457      5212
 -1     34348    3    0    3
 -2      4041      4076      5186      4622
 -1     34349    3    0    3
 -2      1495      5186      5210      4041
 -1     34350    3    0    3
 -2      4585      6782      4333      4583
 -1     34351    3    0    3
 -2      4100      4153      5154      4590
 -1     34352    3    0    3
 -2      2005      2018      2210      6436
 -1     34353    3    0    3
 -2      4076      5186      5185      4041
 -1     34354    3    0    3
 -2      5183      5152      4157      4122
 -1     34355    3    0    3
 -2      2018      2005      1834      6436
 -1     34356    3    0    3
 -2      2443      2648      4646      4622
 -1     34357    3    0    3
 -2      4623      4620      2586      6479
 -1     34358    3    0    3
 -2      2454      2578      2443      4622
 -1     34359    3    0    3
 -2      4623      4625      2362      6439
 -1     34360    3    0    3
 -2      3779      4851      4850      3806
 -1     34361    3    0    3
 -2      4017      3986      4622      4625
 -1     34362    3    0    3
 -2      4624      3954      4623      6439
 -1     34363    3    0    3
 -2      3209      3269      3170      3566
 -1     34364    3    0    3
 -2      6436      6120      2018      6439
 -1     34365    3    0    3
 -2      3897      4626      4624      4110
 -1     34366    3    0    3
 -2      2133      2132      2361      4624
 -1     34367    3    0    3
 -2      2333      6167      6590      6788
 -1     34368    3    0    3
 -2      3951      5212      4648      4457
 -1     34369    3    0    3
 -2      3991      5188      3954      4624
 -1     34370    3    0    3
 -2      4649      4135      3566      6610
 -1     34371    3    0    3
 -2      4635      3897      3932      4624
 -1     34372    3    0    3
 -2      1882      6666      4825      6048
 -1     34373    3    0    3
 -2      2145      2004      2005      6610
 -1     34374    3    0    3
 -2      6436      6120      6439      4626
 -1     34375    3    0    3
 -2      3180      6607      3179      4104
 -1     34376    3    0    3
 -2      3170      3209      3566      6614
 -1     34377    3    0    3
 -2       318       317      1873      3209
 -1     34378    3    0    3
 -2      3682      4650      4651      4135
 -1     34379    3    0    3
 -2      5188      3932      3897      4624
 -1     34380    3    0    3
 -2      1909      1837       314      4641
 -1     34381    3    0    3
 -2      6639       652      6794       965
 -1     34382    3    0    3
 -2      1725       311      4637      3223
 -1     34383    3    0    3
 -2      4625      2005      6436      6610
 -1     34384    3    0    3
 -2      4640      4644      3281      3284
 -1     34385    3    0    3
 -2      4030      3839      6152      4630
 -1     34386    3    0    3
 -2      3867      5205      3897      4642
 -1     34387    3    0    3
 -2      3284      4644      3281      3263
 -1     34388    3    0    3
 -2      3984      4421      5302      6402
 -1     34389    3    0    3
 -2      3984      4421      3949      5302
 -1     34390    3    0    3
 -2      3627      5200      5201      4353
 -1     34391    3    0    3
 -2      6480      1461      1525      1496
 -1     34392    3    0    3
 -2       311      4637      1844      1725
 -1     34393    3    0    3
 -2      4637      1933      1844      1725
 -1     34394    3    0    3
 -2      4637      4636      1933      1725
 -1     34395    3    0    3
 -2      6480      1461      6442      1525
 -1     34396    3    0    3
 -2      3538      3248      3219      3280
 -1     34397    3    0    3
 -2      3158      3185      3756      3186
 -1     34398    3    0    3
 -2       316       315      1834      3247
 -1     34399    3    0    3
 -2       144       799       143      3402
 -1     34400    3    0    3
 -2      3170      4651      3269      3261
 -1     34401    3    0    3
 -2      5227      5222       993      3465
 -1     34402    3    0    3
 -2      3263      3284      4643      3230
 -1     34403    3    0    3
 -2      4652      1884      1873      4653
 -1     34404    3    0    3
 -2      4430      5214      3274      3261
 -1     34405    3    0    3
 -2      3538      3243      3219      3248
 -1     34406    3    0    3
 -2      3317      4092      3315      3316
 -1     34407    3    0    3
 -2      6740      1137      6242      6803
 -1     34408    3    0    3
 -2      1837       315       314      3248
 -1     34409    3    0    3
 -2      2648      6605      2581      4621
 -1     34410    3    0    3
 -2      4430      3269      4651      3261
 -1     34411    3    0    3
 -2      4641      1837       314      3248
 -1     34412    3    0    3
 -2      4641      3538      1837      3248
 -1     34413    3    0    3
 -2      4548      6596      2072      6166
 -1     34414    3    0    3
 -2      3494      3190      3632      3892
 -1     34415    3    0    3
 -2      3538      3243      4641      4642
 -1     34416    3    0    3
 -2      5214      3203      3274      3261
 -1     34417    3    0    3
 -2      2472      4814      4610      6483
 -1     34418    3    0    3
 -2      4641       314      3243      3248
 -1     34419    3    0    3
 -2      3186      4643      3263      4644
 -1     34420    3    0    3
 -2      3370      4042      3409      3385
 -1     34421    3    0    3
 -2      4856      3464      4009      4857
 -1     34422    3    0    3
 -2      4529      1938      2037      1846
 -1     34423    3    0    3
 -2      5866      4493      4390      4982
 -1     34424    3    0    3
 -2      1724      4641      2019      1909
 -1     34425    3    0    3
 -2      4529      1938      4405      2037
 -1     34426    3    0    3
 -2      1461      6480      6442      5187
 -1     34427    3    0    3
 -2      4640      4643      4644      3284
 -1     34428    3    0    3
 -2       311       310      1844      3230
 -1     34429    3    0    3
 -2      4637       311      1844      3230
 -1     34430    3    0    3
 -2      4640      4643      4030      4644
 -1     34431    3    0    3
 -2      4353      4160      3284      3283
 -1     34432    3    0    3
 -2       309       308      1890      3272
 -1     34433    3    0    3
 -2      1898      4634      2114      6124
 -1     34434    3    0    3
 -2      1890      1898      2114      6124
 -1     34435    3    0    3
 -2      1890      1963      1889      6586
 -1     34436    3    0    3
 -2      2143      4618      6094      2374
 -1     34437    3    0    3
 -2      1889      1963      3564      6586
 -1     34438    3    0    3
 -2      3975      1890      3272      6586
 -1     34439    3    0    3
 -2      4160      3283      3511      4638
 -1     34440    3    0    3
 -2       312      1724       313      3224
 -1     34441    3    0    3
 -2      6480      1461      1496      1264
 -1     34442    3    0    3
 -2      4640      4643      3284      4637
 -1     34443    3    0    3
 -2      4643      4637      1844      3230
 -1     34444    3    0    3
 -2      3229      4643       310      3230
 -1     34445    3    0    3
 -2      3284      4640      4637      4160
 -1     34446    3    0    3
 -2      3784      3756      3185      3186
 -1     34447    3    0    3
 -2      3224      3653      3243      3264
 -1     34448    3    0    3
 -2      4353      3197      4379      3283
 -1     34449    3    0    3
 -2      3984      4421      5291      3949
 -1     34450    3    0    3
 -2      3281      3627      5201      4353
 -1     34451    3    0    3
 -2      3281      5201      4640      4353
 -1     34452    3    0    3
 -2      3247      4651      4650      3170
 -1     34453    3    0    3
 -2      3230      4643      4637      3284
 -1     34454    3    0    3
 -2      6480      1461      1264      5187
 -1     34455    3    0    3
 -2      3247      4651      3170      3261
 -1     34456    3    0    3
 -2      3975      3756      3564      3186
 -1     34457    3    0    3
 -2      3564      3756      3784      3186
 -1     34458    3    0    3
 -2      3230      3229      4643      3263
 -1     34459    3    0    3
 -2      3284      3223      4637      3230
 -1     34460    3    0    3
 -2      4640      4643      4637      4030
 -1     34461    3    0    3
 -2      4637      1725      3223      4638
 -1     34462    3    0    3
 -2      6152      3621      2289      1933
 -1     34463    3    0    3
 -2      2957      5106      2993      3519
 -1     34464    3    0    3
 -2      1724      4641      3653      2019
 -1     34465    3    0    3
 -2       312      3223      4638      3224
 -1     34466    3    0    3
 -2      1724       312      4638      3224
 -1     34467    3    0    3
 -2      4160      3284      4640      4353
 -1     34468    3    0    3
 -2      3281      4640      3284      4353
 -1     34469    3    0    3
 -2      4160      4640      4639      4353
 -1     34470    3    0    3
 -2      3835      4639      4640      4353
 -1     34471    3    0    3
 -2      4640      5201      3835      4353
 -1     34472    3    0    3
 -2      6597      2525      2706      4586
 -1     34473    3    0    3
 -2      3653      3867      4379      4635
 -1     34474    3    0    3
 -2      4435      3458      4504      5463
 -1     34475    3    0    3
 -2      6597      2525      4586      4584
 -1     34476    3    0    3
 -2      3494      3632      5190      3892
 -1     34477    3    0    3
 -2      4635      1724      2022      3511
 -1     34478    3    0    3
 -2      3867      3932      3897      5199
 -1     34479    3    0    3
 -2      4638      3223      3283      3224
 -1     34480    3    0    3
 -2      3867      3932      4379      4635
 -1     34481    3    0    3
 -2      4636      4091      2022      3511
 -1     34482    3    0    3
 -2      4642      3219      3243      3264
 -1     34483    3    0    3
 -2      4379      3653      4635      3511
 -1     34484    3    0    3
 -2      1725      4637      4636      4638
 -1     34485    3    0    3
 -2      3283      4379      4160      3511
 -1     34486    3    0    3
 -2      4636      4160      3511      4638
 -1     34487    3    0    3
 -2      4160      4636      4637      4638
 -1     34488    3    0    3
 -2      3802      3995      4205      4547
 -1     34489    3    0    3
 -2      3802      3995      4022      4616
 -1     34490    3    0    3
 -2      2132      2377      2361      4624
 -1     34491    3    0    3
 -2      2019      2017      1909      4641
 -1     34492    3    0    3
 -2      3867      3932      4635      3897
 -1     34493    3    0    3
 -2      3867      3932      5199      4379
 -1     34494    3    0    3
 -2      6590      6167      4629      6788
 -1     34495    3    0    3
 -2      2362      2361      2656      4623
 -1     34496    3    0    3
 -2      4819      2264      2265      6215
 -1     34497    3    0    3
 -2      2695      4607      6201      2696
 -1     34498    3    0    3
 -2      4635      4091      4379      3511
 -1     34499    3    0    3
 -2      4091      4639      4379      3511
 -1     34500    3    0    3
 -2      4160      4639      4636      3511
 -1     34501    3    0    3
 -2      4639      4160      4379      3511
 -1     34502    3    0    3
 -2      2022      4636      3511      4638
 -1     34503    3    0    3
 -2      3511      1724      2022      4638
 -1     34504    3    0    3
 -2      1725      2022      1724      4638
 -1     34505    3    0    3
 -2      4636      2022      1725      4638
 -1     34506    3    0    3
 -2      4617      4618      3991      5710
 -1     34507    3    0    3
 -2      3991      4618      4624      5710
 -1     34508    3    0    3
 -2      4819      2264      6215      4831
 -1     34509    3    0    3
 -2      4642      3897      3653      4110
 -1     34510    3    0    3
 -2      4642      4641      3538      4110
 -1     34511    3    0    3
 -2      3538      3897      4642      4110
 -1     34512    3    0    3
 -2      4638      3653      1724      3224
 -1     34513    3    0    3
 -2      2957      5106      5107       183
 -1     34514    3    0    3
 -2      1264      6480      1265      1496
 -1     34515    3    0    3
 -2      1264      6480      5187      5189
 -1     34516    3    0    3
 -2      3511      4379      3653      3264
 -1     34517    3    0    3
 -2      3867      3653      4379      3264
 -1     34518    3    0    3
 -2      1981      4808      6666      6660
 -1     34519    3    0    3
 -2      6608      1781      6795      2008
 -1     34520    3    0    3
 -2      4642      5205      3897      4404
 -1     34521    3    0    3
 -2      3538      3243      3248      4641
 -1     34522    3    0    3
 -2      3897      3538      4642      4404
 -1     34523    3    0    3
 -2      4642      3867      3192      3264
 -1     34524    3    0    3
 -2      3867      4379      3197      3264
 -1     34525    3    0    3
 -2      3283      3197      4379      3264
 -1     34526    3    0    3
 -2      4642      3653      3867      3264
 -1     34527    3    0    3
 -2      3892      3494      3190      4404
 -1     34528    3    0    3
 -2      6462      4620      2701      6595
 -1     34529    3    0    3
 -2      3538      3219      4642      4404
 -1     34530    3    0    3
 -2      3494      5205      3192      4404
 -1     34531    3    0    3
 -2      4642      3243      3653      3264
 -1     34532    3    0    3
 -2      3867      3192      5205      4642
 -1     34533    3    0    3
 -2      4642      3192      3219      3264
 -1     34534    3    0    3
 -2      4641      3243      3653      4642
 -1     34535    3    0    3
 -2      3240      4653      4231      3706
 -1     34536    3    0    3
 -2      3209      1873      4653      6614
 -1     34537    3    0    3
 -2      5222      5221      1224      6200
 -1     34538    3    0    3
 -2      4430      4320      5214      3926
 -1     34539    3    0    3
 -2      3273      3923      3274      3240
 -1     34540    3    0    3
 -2      6124      4633      1963      3975
 -1     34541    3    0    3
 -2      3706      4164      4649      6615
 -1     34542    3    0    3
 -2      4873      6222      4879      6254
 -1     34543    3    0    3
 -2      2025      2032      4648      4130
 -1     34544    3    0    3
 -2      4231      3923      4427      3240
 -1     34545    3    0    3
 -2      3239      4427      3273      3240
 -1     34546    3    0    3
 -2      5724      6443      1280      6129
 -1     34547    3    0    3
 -2      4851      3779      4850      3999
 -1     34548    3    0    3
 -2      3566      4135      4650      6610
 -1     34549    3    0    3
 -2      4974      2202      5785      2160
 -1     34550    3    0    3
 -2      6124      4633      3975      4634
 -1     34551    3    0    3
 -2      3706      4649      6614      6615
 -1     34552    3    0    3
 -2      4231      4655      3923      3706
 -1     34553    3    0    3
 -2      1884      2032      4654      4652
 -1     34554    3    0    3
 -2      4030      3839      3809      4633
 -1     34555    3    0    3
 -2      3593      4164      2032      4648
 -1     34556    3    0    3
 -2      4164      3593      2032      4652
 -1     34557    3    0    3
 -2      1884      2031      2032      4652
 -1     34558    3    0    3
 -2      1519      5171      6495      6500
 -1     34559    3    0    3
 -2      4069      4041      4645      4100
 -1     34560    3    0    3
 -2      5188      1298      5182      6452
 -1     34561    3    0    3
 -2      4626      3682      3538      3892
 -1     34562    3    0    3
 -2      3261      4651      5214      3892
 -1     34563    3    0    3
 -2      3261      3203      3190      3892
 -1     34564    3    0    3
 -2      3261      5214      3203      3892
 -1     34565    3    0    3
 -2      3190      3192      3219      4404
 -1     34566    3    0    3
 -2      3280      3538      3682      3892
 -1     34567    3    0    3
 -2      4642      3192      5205      4404
 -1     34568    3    0    3
 -2      4135      4626      3682      6436
 -1     34569    3    0    3
 -2      4231      3210      4654      4653
 -1     34570    3    0    3
 -2      1834      1835       316      4650
 -1     34571    3    0    3
 -2      3951      3706      4655      4164
 -1     34572    3    0    3
 -2      3682      1834      3247      4650
 -1     34573    3    0    3
 -2       316      3170      3247      4650
 -1     34574    3    0    3
 -2      1834       316      3247      4650
 -1     34575    3    0    3
 -2      4626      3954      3897      4624
 -1     34576    3    0    3
 -2       650       549        31       577
 -1     34577    3    0    3
 -2      4641      2019      2017      4110
 -1     34578    3    0    3
 -2      5542      5774      5545      6473
 -1     34579    3    0    3
 -2      6198      6788      6469      4629
 -1     34580    3    0    3
 -2      4615      4617      6594      6165
 -1     34581    3    0    3
 -2      4405      1938      4611      6139
 -1     34582    3    0    3
 -2      6198      6788      6167      2370
 -1     34583    3    0    3
 -2      6780      5191      1123      6434
 -1     34584    3    0    3
 -2      1837      2017      2018      6120
 -1     34585    3    0    3
 -2      3180      6607      3178      3179
 -1     34586    3    0    3
 -2      6521      1593      1569      1567
 -1     34587    3    0    3
 -2      3632      5214      4320      3892
 -1     34588    3    0    3
 -2      3897      4626      3538      4404
 -1     34589    3    0    3
 -2      4626      3897      5190      4404
 -1     34590    3    0    3
 -2      4626      5190      3892      4404
 -1     34591    3    0    3
 -2      3538      4626      3892      4404
 -1     34592    3    0    3
 -2      5224      3887      4660      3945
 -1     34593    3    0    3
 -2      4007      5211      4069      4647
 -1     34594    3    0    3
 -2      2340      2449      2574      4645
 -1     34595    3    0    3
 -2      5210      3986      3951      4646
 -1     34596    3    0    3
 -2      5210      3951      4007      4646
 -1     34597    3    0    3
 -2      2004      1835      2005      6610
 -1     34598    3    0    3
 -2      4041      5186      3986      4622
 -1     34599    3    0    3
 -2      4646      4041      3986      4622
 -1     34600    3    0    3
 -2      4620      6605      6744      2580
 -1     34601    3    0    3
 -2      3926      4649      5213      3986
 -1     34602    3    0    3
 -2      3986      5186      4017      4622
 -1     34603    3    0    3
 -2      4650      4135      6436      6610
 -1     34604    3    0    3
 -2      3185      6472      3159      3756
 -1     34605    3    0    3
 -2      6436      6120      1837      2018
 -1     34606    3    0    3
 -2      4430      3706      3269      3923
 -1     34607    3    0    3
 -2      1067      5210      3498      1157
 -1     34608    3    0    3
 -2      3185      6472      4282      3193
 -1     34609    3    0    3
 -2      2133      2210      2018      6439
 -1     34610    3    0    3
 -2      2648      6605      4622      2578
 -1     34611    3    0    3
 -2      3706      4653      4652      6614
 -1     34612    3    0    3
 -2      1835      4650      6610      6614
 -1     34613    3    0    3
 -2      4623      4625      4017      6479
 -1     34614    3    0    3
 -2      3115      4571      3639      3116
 -1     34615    3    0    3
 -2      4658      4657      3979      6484
 -1     34616    3    0    3
 -2      4645      2648      4041      4646
 -1     34617    3    0    3
 -2      2449      2648      4645      4646
 -1     34618    3    0    3
 -2      4649      3926      5213      4430
 -1     34619    3    0    3
 -2      2648      2449      2443      4646
 -1     34620    3    0    3
 -2      2443      2449      2144      4646
 -1     34621    3    0    3
 -2      4017      5186      4076      4622
 -1     34622    3    0    3
 -2      2581      2668      2648      4621
 -1     34623    3    0    3
 -2      4645      2648      2668      4621
 -1     34624    3    0    3
 -2      4600      4590      4100      6642
 -1     34625    3    0    3
 -2      4041      4645      4100      4621
 -1     34626    3    0    3
 -2      2648      4645      4041      4621
 -1     34627    3    0    3
 -2      4233      4184      4589      4587
 -1     34628    3    0    3
 -2      2672      2669      2488      4588
 -1     34629    3    0    3
 -2      4588      2669      4582      5723
 -1     34630    3    0    3
 -2      4621      5185      4076      4122
 -1     34631    3    0    3
 -2      4621      4100      5185      4122
 -1     34632    3    0    3
 -2      2648      2443      2578      4622
 -1     34633    3    0    3
 -2      4041      2648      4621      4622
 -1     34634    3    0    3
 -2      4122      4619      4621      6641
 -1     34635    3    0    3
 -2      4621      4076      4041      4622
 -1     34636    3    0    3
 -2      4625      4135      4649      6610
 -1     34637    3    0    3
 -2      2210      2145      2005      4625
 -1     34638    3    0    3
 -2      4135      3926      3954      4625
 -1     34639    3    0    3
 -2      2040      5054      4377      5801
 -1     34640    3    0    3
 -2      4017      5189      3986      4625
 -1     34641    3    0    3
 -2      4017      3954      5189      4625
 -1     34642    3    0    3
 -2      5189      3954      3926      4625
 -1     34643    3    0    3
 -2      3986      5189      3926      4625
 -1     34644    3    0    3
 -2      4620      2587      2701      6595
 -1     34645    3    0    3
 -2      4623      3991      4624      5710
 -1     34646    3    0    3
 -2      2572      2701      2573      6595
 -1     34647    3    0    3
 -2      2573      4614      2572      6595
 -1     34648    3    0    3
 -2      4007      4069      4645      4647
 -1     34649    3    0    3
 -2      4602      4069      4647      6514
 -1     34650    3    0    3
 -2      4650       317      6614      1835
 -1     34651    3    0    3
 -2      4135      4651      4430      3566
 -1     34652    3    0    3
 -2      4135      4650      4651      3566
 -1     34653    3    0    3
 -2      4652      3706      6614      6615
 -1     34654    3    0    3
 -2      4430      4135      3566      4649
 -1     34655    3    0    3
 -2      2370      6469      2302      6198
 -1     34656    3    0    3
 -2      2025      2182      4658      6484
 -1     34657    3    0    3
 -2      2032      2031      4164      4652
 -1     34658    3    0    3
 -2      4231      3210      3240      3241
 -1     34659    3    0    3
 -2      4653      4654      1884      3210
 -1     34660    3    0    3
 -2      3593      3951      4648      4457
 -1     34661    3    0    3
 -2      3945      6608      3917      4659
 -1     34662    3    0    3
 -2      4652      4654      4653      4231
 -1     34663    3    0    3
 -2      4655      4231      4652      3706
 -1     34664    3    0    3
 -2      3921      3593      4457      4656
 -1     34665    3    0    3
 -2      1884       318      4653      3210
 -1     34666    3    0    3
 -2      4721      3161      3208      3162
 -1     34667    3    0    3
 -2      4427      4231      3240      3241
 -1     34668    3    0    3
 -2      4231      4427      4656      3241
 -1     34669    3    0    3
 -2      4656      4427      3239      3241
 -1     34670    3    0    3
 -2      4648      4007      4646      6481
 -1     34671    3    0    3
 -2      4647      4007      4648      6481
 -1     34672    3    0    3
 -2      3264      4638      3283      3224
 -1     34673    3    0    3
 -2      3779      5413      4850      3804
 -1     34674    3    0    3
 -2      4652      2031      4164      6615
 -1     34675    3    0    3
 -2      2144      2031      2004      6615
 -1     34676    3    0    3
 -2      6124      4633      6585      1963
 -1     34677    3    0    3
 -2      4231      4652      4654      3593
 -1     34678    3    0    3
 -2      3186      4643      4644      3564
 -1     34679    3    0    3
 -2      6626      1519      1426      5171
 -1     34680    3    0    3
 -2      4007      5212      3979      4648
 -1     34681    3    0    3
 -2      4658      3979      4648      6484
 -1     34682    3    0    3
 -2      4652      2032      4654      3593
 -1     34683    3    0    3
 -2      3240      3239      4427      3241
 -1     34684    3    0    3
 -2      2144      2004      2145      6615
 -1     34685    3    0    3
 -2      4430      3706      3923      4649
 -1     34686    3    0    3
 -2      4655      4652      4164      3706
 -1     34687    3    0    3
 -2      6124      4633      4634      6585
 -1     34688    3    0    3
 -2      3706      3566      4653      6614
 -1     34689    3    0    3
 -2      4649      3566      3706      6614
 -1     34690    3    0    3
 -2      4017      6461      6480      5184
 -1     34691    3    0    3
 -2      4650       317       316      3170
 -1     34692    3    0    3
 -2      5054      2040      4377      5055
 -1     34693    3    0    3
 -2      4430      3926      4135      4649
 -1     34694    3    0    3
 -2      5213      4430      3923      4649
 -1     34695    3    0    3
 -2      6666      1981      6048      1882
 -1     34696    3    0    3
 -2      5152      1653      1660      1546
 -1     34697    3    0    3
 -2      4430      3706      3566      3269
 -1     34698    3    0    3
 -2      5212      3951      4648      4007
 -1     34699    3    0    3
 -2      4430      3706      4649      3566
 -1     34700    3    0    3
 -2      1653      5152      1660      6542
 -1     34701    3    0    3
 -2      4010      5225      5226      4425
 -1     34702    3    0    3
 -2      3921      5225      4010      4425
 -1     34703    3    0    3
 -2      3216      5226      5225      4425
 -1     34704    3    0    3
 -2      3887      4658      3561      4104
 -1     34705    3    0    3
 -2      3216      5225      3239      4662
 -1     34706    3    0    3
 -2      2449      2267      4646      6481
 -1     34707    3    0    3
 -2      4164      4646      2267      4648
 -1     34708    3    0    3
 -2      3951      3706      3923      4655
 -1     34709    3    0    3
 -2      6161      1730      4853      6795
 -1     34710    3    0    3
 -2      2008      6719      2284      2285
 -1     34711    3    0    3
 -2      3951      3706      4164      4649
 -1     34712    3    0    3
 -2      3186      4643      3229      3263
 -1     34713    3    0    3
 -2      5221      5222      1224      6313
 -1     34714    3    0    3
 -2      6774      6330      1710      2095
 -1     34715    3    0    3
 -2      4658      4425      3887      3561
 -1     34716    3    0    3
 -2      4656      3921      3593      4130
 -1     34717    3    0    3
 -2      5413      3779      4850      3806
 -1     34718    3    0    3
 -2      3593      4654      4656      4130
 -1     34719    3    0    3
 -2      4130      4662      4425      3561
 -1     34720    3    0    3
 -2      3236      3216      4662      4663
 -1     34721    3    0    3
 -2      3173      3856      3213      6620
 -1     34722    3    0    3
 -2      2025      4648      4658      4130
 -1     34723    3    0    3
 -2      3593      4231      4655      4656
 -1     34724    3    0    3
 -2      4648      3593      3921      4130
 -1     34725    3    0    3
 -2      4654      4231      3593      4656
 -1     34726    3    0    3
 -2      5217      3239      4662      4656
 -1     34727    3    0    3
 -2      4427      3239      5217      4656
 -1     34728    3    0    3
 -2      3593      3951      4164      4648
 -1     34729    3    0    3
 -2      6622       321      1872      6607
 -1     34730    3    0    3
 -2      2025      1864      1819      4661
 -1     34731    3    0    3
 -2      3236      4654      3241      3245
 -1     34732    3    0    3
 -2      1819      1864       320      4661
 -1     34733    3    0    3
 -2      6622       321       322      1872
 -1     34734    3    0    3
 -2      3179      4104      6607      6622
 -1     34735    3    0    3
 -2       319      1819       320      3245
 -1     34736    3    0    3
 -2      3257      5226      5225      3216
 -1     34737    3    0    3
 -2      4653       318      3209      3210
 -1     34738    3    0    3
 -2      1451      6460      1566      5211
 -1     34739    3    0    3
 -2      1884       319       318      3210
 -1     34740    3    0    3
 -2      3945      6608      4659      6623
 -1     34741    3    0    3
 -2      3240      4653      3209      3210
 -1     34742    3    0    3
 -2      3257      5226      3216      3215
 -1     34743    3    0    3
 -2      3210      3241      4654      3245
 -1     34744    3    0    3
 -2      4662      4656      4654      4130
 -1     34745    3    0    3
 -2      4656      4662      3921      4130
 -1     34746    3    0    3
 -2      4721      3161      4720      4725
 -1     34747    3    0    3
 -2      4104      4660      4658      6482
 -1     34748    3    0    3
 -2      4661      2025      1864      3561
 -1     34749    3    0    3
 -2      3245      3236      4654      4661
 -1     34750    3    0    3
 -2      4130      2025      4661      3561
 -1     34751    3    0    3
 -2      3245      4654      1819      4661
 -1     34752    3    0    3
 -2      4658      2025      4130      3561
 -1     34753    3    0    3
 -2      4654      4662      4130      4661
 -1     34754    3    0    3
 -2      3236      4662      4654      4661
 -1     34755    3    0    3
 -2      1950      1872      1914      6482
 -1     34756    3    0    3
 -2      4635      6469      2302      6609
 -1     34757    3    0    3
 -2      3917      4659      5223      3945
 -1     34758    3    0    3
 -2      2566      2356      4814      6697
 -1     34759    3    0    3
 -2      4657      4658      3979      3945
 -1     34760    3    0    3
 -2      6330      5725      6774      5036
 -1     34761    3    0    3
 -2      4607      4148      5171      4096
 -1     34762    3    0    3
 -2      4648      2183      2025      6484
 -1     34763    3    0    3
 -2      2182      2359      2319      4657
 -1     34764    3    0    3
 -2      4657      2182      2359      6484
 -1     34765    3    0    3
 -2      2319      2246      2182      4657
 -1     34766    3    0    3
 -2      4425      3216      5226      4663
 -1     34767    3    0    3
 -2      3887      4660      4658      4104
 -1     34768    3    0    3
 -2      1970      6238      4827      5703
 -1     34769    3    0    3
 -2      5087      3155      4437      3136
 -1     34770    3    0    3
 -2      5224      4660      3917      3945
 -1     34771    3    0    3
 -2      6606      4660      3856      6620
 -1     34772    3    0    3
 -2      2067      3689      2013      1856
 -1     34773    3    0    3
 -2      6606      6161      3856      6795
 -1     34774    3    0    3
 -2      3262      1781       322       488
 -1     34775    3    0    3
 -2      1781        15       322       488
 -1     34776    3    0    3
 -2      4337      4855      4042      3464
 -1     34777    3    0    3
 -2       491      3856      3213       490
 -1     34778    3    0    3
 -2      3217      4104      3180      3173
 -1     34779    3    0    3
 -2      4425      5226      3887      4663
 -1     34780    3    0    3
 -2      3409      4042      3403      3385
 -1     34781    3    0    3
 -2      4412      3358      3359      4890
 -1     34782    3    0    3
 -2      3173       490      3856       489
 -1     34783    3    0    3
 -2      3887      3217      3213      3173
 -1     34784    3    0    3
 -2      3217      4104      3173      3887
 -1     34785    3    0    3
 -2      4225      6503      5167      4255
 -1     34786    3    0    3
 -2      2561      6191      6735      2376
 -1     34787    3    0    3
 -2       490      3856      3213      3173
 -1     34788    3    0    3
 -2      6079       970      1176       922
 -1     34789    3    0    3
 -2      3217      4104      4663      3180
 -1     34790    3    0    3
 -2      3217      3887      5226      4663
 -1     34791    3    0    3
 -2      3236      3180      3216      4663
 -1     34792    3    0    3
 -2      4662      3216      4425      4663
 -1     34793    3    0    3
 -2      3216      3217      5226      4663
 -1     34794    3    0    3
 -2      3561      4662      4425      4663
 -1     34795    3    0    3
 -2      3173      3262       489      6606
 -1     34796    3    0    3
 -2      4657      2182      4658      6623
 -1     34797    3    0    3
 -2      6161      4853      3856      6795
 -1     34798    3    0    3
 -2      6698      2320      4610      4659
 -1     34799    3    0    3
 -2      6698      2320      2355      2608
 -1     34800    3    0    3
 -2      3887      3561      4663      4104
 -1     34801    3    0    3
 -2      3561      3180      4663      4104
 -1     34802    3    0    3
 -2      4087      6632      4026      4818
 -1     34803    3    0    3
 -2      6690      6715      2852      6686
 -1     34804    3    0    3
 -2      3179      3262      3173      4104
 -1     34805    3    0    3
 -2      6330      5725      5716      2095
 -1     34806    3    0    3
 -2      3213      3887      3173      6620
 -1     34807    3    0    3
 -2      6698      2320      2608      4610
 -1     34808    3    0    3
 -2      6698      2320      4659      2355
 -1     34809    3    0    3
 -2      3179      3173      3180      4104
 -1     34810    3    0    3
 -2      2055      4853      2008      6790
 -1     34811    3    0    3
 -2      1730      4853      2008      2055
 -1     34812    3    0    3
 -2      2213      4817      4811      6668
 -1     34813    3    0    3
 -2       887      5418       888      6140
 -1     34814    3    0    3
 -2      3976      5174      4610      4032
 -1     34815    3    0    3
 -2      2608      4610      2472      6698
 -1     34816    3    0    3
 -2      4659      4657      4005      3945
 -1     34817    3    0    3
 -2      4005      5223      4659      3945
 -1     34818    3    0    3
 -2      3287      4275      3711      4263
 -1     34819    3    0    3
 -2      6719      4852      2285      6790
 -1     34820    3    0    3
 -2      6482      4660      4658      6623
 -1     34821    3    0    3
 -2      2518      2577      4608      2519
 -1     34822    3    0    3
 -2      4005      4657      2320      2577
 -1     34823    3    0    3
 -2      4130      2032      3593      4654
 -1     34824    3    0    3
 -2      2519      2683      2696      6202
 -1     34825    3    0    3
 -2      6203      1392      1262      6498
 -1     34826    3    0    3
 -2      1262      5168      5167      6108
 -1     34827    3    0    3
 -2      5168      4604      4148      4114
 -1     34828    3    0    3
 -2      4148      5171      5168      4114
 -1     34829    3    0    3
 -2      5168      6203      5170      6626
 -1     34830    3    0    3
 -2      5598      1098      6699      6617
 -1     34831    3    0    3
 -2      5173      4093      4114      4609
 -1     34832    3    0    3
 -2      5376      4813      4093      4032
 -1     34833    3    0    3
 -2      5173      5376      4093      4032
 -1     34834    3    0    3
 -2      5174      5173      4064      4032
 -1     34835    3    0    3
 -2      4657      2577      4608      2518
 -1     34836    3    0    3
 -2      6655      6116      6652      4593
 -1     34837    3    0    3
 -2      2475      6246      2474      2476
 -1     34838    3    0    3
 -2      2519      4608      4602      6628
 -1     34839    3    0    3
 -2      4610      4005      2577      4608
 -1     34840    3    0    3
 -2      4610      4064      4005      4608
 -1     34841    3    0    3
 -2      4188      6440      4129      5175
 -1     34842    3    0    3
 -2      6598      4279      4229      4595
 -1     34843    3    0    3
 -2      3103      4571      3525      3747
 -1     34844    3    0    3
 -2      4607      5171      4064      4096
 -1     34845    3    0    3
 -2      4096      5172      4608      4037
 -1     34846    3    0    3
 -2      6202      4609      2696      6509
 -1     34847    3    0    3
 -2      4096      5166      5172      4037
 -1     34848    3    0    3
 -2      4069      4647      4037      4602
 -1     34849    3    0    3
 -2      4599      5163      4178      4118
 -1     34850    3    0    3
 -2      1634      1635      1633      6512
 -1     34851    3    0    3
 -2      6624      5847      1001      5601
 -1     34852    3    0    3
 -2      4647      4645      2588      6514
 -1     34853    3    0    3
 -2      4608      4096      4037      4602
 -1     34854    3    0    3
 -2      6138      3496      6492      6630
 -1     34855    3    0    3
 -2      5166      4069      4037      4602
 -1     34856    3    0    3
 -2      4037      4096      5166      4602
 -1     34857    3    0    3
 -2      2518      4647      4602      6633
 -1     34858    3    0    3
 -2      5446      1233      5445      6282
 -1     34859    3    0    3
 -2      4241      3659      3691      5544
 -1     34860    3    0    3
 -2      2683      2686      4607      6601
 -1     34861    3    0    3
 -2      2511      2686      2683      6601
 -1     34862    3    0    3
 -2      4606      4605      2354      6106
 -1     34863    3    0    3
 -2      4592      4597      4255      5667
 -1     34864    3    0    3
 -2      4603      4255      4597      5667
 -1     34865    3    0    3
 -2      2238      4597      2350      2153
 -1     34866    3    0    3
 -2      4585      4258      4595      6629
 -1     34867    3    0    3
 -2       739      6057      6323       760
 -1     34868    3    0    3
 -2      1918      2501      2484      6492
 -1     34869    3    0    3
 -2      4209      5160      4258      4596
 -1     34870    3    0    3
 -2      4171      4206      4604      4603
 -1     34871    3    0    3
 -2      1896      1829       405      6651
 -1     34872    3    0    3
 -2      6490      3074      5158       722
 -1     34873    3    0    3
 -2      1969      4911      4908      1910
 -1     34874    3    0    3
 -2      4206      4255      4597      4603
 -1     34875    3    0    3
 -2      6785      6638      6646      6117
 -1     34876    3    0    3
 -2      6791      3078       479      3043
 -1     34877    3    0    3
 -2      4225      4255      4603      4593
 -1     34878    3    0    3
 -2      1969      4911      1910      1968
 -1     34879    3    0    3
 -2      6116      4593      4225      6206
 -1     34880    3    0    3
 -2       402      1766       403      3079
 -1     34881    3    0    3
 -2      5993      2176      4800      5986
 -1     34882    3    0    3
 -2      2471      4813      2494      6687
 -1     34883    3    0    3
 -2      2311      4811      4812      5740
 -1     34884    3    0    3
 -2      6206      4605      2138      6602
 -1     34885    3    0    3
 -2      4605      2354      2138      6602
 -1     34886    3    0    3
 -2      6206      6602      2407      4603
 -1     34887    3    0    3
 -2      2496      4609      2601      2497
 -1     34888    3    0    3
 -2       739      6057       252      5895
 -1     34889    3    0    3
 -2      6785      6638      3143      6646
 -1     34890    3    0    3
 -2      2167      2354      4605      6106
 -1     34891    3    0    3
 -2      1552      5988      1283      1284
 -1     34892    3    0    3
 -2      6202      4096      6628      4607
 -1     34893    3    0    3
 -2      4609      6202      4610      6509
 -1     34894    3    0    3
 -2      2354      4605      2138      2167
 -1     34895    3    0    3
 -2      6144      4239      4582      4188
 -1     34896    3    0    3
 -2      6212      1936      2034      6659
 -1     34897    3    0    3
 -2      4593      3038      6655      6210
 -1     34898    3    0    3
 -2      1988      2238      5667      6206
 -1     34899    3    0    3
 -2      5667      4593      1988      6206
 -1     34900    3    0    3
 -2      2238      1956      1988      5667
 -1     34901    3    0    3
 -2      3057      3049       407      6096
 -1     34902    3    0    3
 -2      4596      2341      2328      6629
 -1     34903    3    0    3
 -2      4598      2510      2351      2632
 -1     34904    3    0    3
 -2      4203      3110      3130      6114
 -1     34905    3    0    3
 -2      3082      6531      5156      6535
 -1     34906    3    0    3
 -2      4600      4599      4153      6748
 -1     34907    3    0    3
 -2      3103      4571      3747      3142
 -1     34908    3    0    3
 -2      5150      4233      4209      4586
 -1     34909    3    0    3
 -2      2503      2678      2715      4587
 -1     34910    3    0    3
 -2      2633      2450      4586      2706
 -1     34911    3    0    3
 -2      4605      4606      2354      6602
 -1     34912    3    0    3
 -2      4596      4586      4209      6182
 -1     34913    3    0    3
 -2      4037      4608      4602      6633
 -1     34914    3    0    3
 -2      4657      4647      2359      2518
 -1     34915    3    0    3
 -2      4608      2518      4602      6633
 -1     34916    3    0    3
 -2      4599      2652      2660      6748
 -1     34917    3    0    3
 -2      3028      1815      4806      1791
 -1     34918    3    0    3
 -2      2518      4602      2520      2519
 -1     34919    3    0    3
 -2      4602      2684      2520      2519
 -1     34920    3    0    3
 -2      4609      4607      2696      6201
 -1     34921    3    0    3
 -2      4604      4114      4606      6634
 -1     34922    3    0    3
 -2      5165      1621      6495      6500
 -1     34923    3    0    3
 -2      4604      2634      2509      6504
 -1     34924    3    0    3
 -2      3412      1702      4284      4895
 -1     34925    3    0    3
 -2      4813      2471      2494      2497
 -1     34926    3    0    3
 -2      2601      2696      2695      6201
 -1     34927    3    0    3
 -2      4610      2472      2496      2608
 -1     34928    3    0    3
 -2      4854      2297      4855      6635
 -1     34929    3    0    3
 -2      4609      4813      4093      6685
 -1     34930    3    0    3
 -2      4114      4609      4606      6634
 -1     34931    3    0    3
 -2      4593      3038      3029      6652
 -1     34932    3    0    3
 -2      4317      3153      5135      4391
 -1     34933    3    0    3
 -2      2139      1937      2138      6206
 -1     34934    3    0    3
 -2      6116      1936      1937      6603
 -1     34935    3    0    3
 -2      4603      4593      5667      6206
 -1     34936    3    0    3
 -2      4593      1829      1988      1896
 -1     34937    3    0    3
 -2      2297      2184      2003      6635
 -1     34938    3    0    3
 -2      2510      2350      4598      2351
 -1     34939    3    0    3
 -2      4153      5163      4599      4118
 -1     34940    3    0    3
 -2      2501      2525      2483      6558
 -1     34941    3    0    3
 -2      4287      4258      5149      4585
 -1     34942    3    0    3
 -2      2238      1988      2139      6206
 -1     34943    3    0    3
 -2      4482      4311      3709      5228
 -1     34944    3    0    3
 -2      5387      5423      5425      3877
 -1     34945    3    0    3
 -2      4589      4586      2633      6182
 -1     34946    3    0    3
 -2      6507      5155      5133      6523
 -1     34947    3    0    3
 -2       739      6057      5895      6323
 -1     34948    3    0    3
 -2      4260      4233      5148      4584
 -1     34949    3    0    3
 -2      4589      4599      2660      6748
 -1     34950    3    0    3
 -2      2584      2632      4596      2328
 -1     34951    3    0    3
 -2      2341      2584      4596      2328
 -1     34952    3    0    3
 -2      2684      2520      2687      6643
 -1     34953    3    0    3
 -2      5888      2410      2646      2442
 -1     34954    3    0    3
 -2      3241      4662      3236      3239
 -1     34955    3    0    3
 -2      4568      4203      3496      6209
 -1     34956    3    0    3
 -2      5150      4258      5149      4287
 -1     34957    3    0    3
 -2      4584      5148      4314      4287
 -1     34958    3    0    3
 -2      6789      5155      6647      5133
 -1     34959    3    0    3
 -2      6117      6561      4333      6782
 -1     34960    3    0    3
 -2      4585      2409      2086      6565
 -1     34961    3    0    3
 -2      6114      1763      3131      3130
 -1     34962    3    0    3
 -2      2266      2328      4595      6598
 -1     34963    3    0    3
 -2      4258      5150      4586      4287
 -1     34964    3    0    3
 -2      2328      2195      2266      4595
 -1     34965    3    0    3
 -2      6629      2450      2194      6636
 -1     34966    3    0    3
 -2      4569      2086      1754      1912
 -1     34967    3    0    3
 -2      6053      2437      4733      2439
 -1     34968    3    0    3
 -2      3078      3090      3044      6525
 -1     34969    3    0    3
 -2      4599      4589      4153      6748
 -1     34970    3    0    3
 -2      4118      5164      4069      4600
 -1     34971    3    0    3
 -2      4589      4153      4209      4599
 -1     34972    3    0    3
 -2      4309      4258      4595      4585
 -1     34973    3    0    3
 -2      4209      4178      5160      4596
 -1     34974    3    0    3
 -2      2641      4600      2652      6643
 -1     34975    3    0    3
 -2      4588      2704      2669      5723
 -1     34976    3    0    3
 -2      4862      4859      4863      4511
 -1     34977    3    0    3
 -2      4588      4619      4122      6641
 -1     34978    3    0    3
 -2      3052      4594      6270      6684
 -1     34979    3    0    3
 -2      4209      4586      4589      6182
 -1     34980    3    0    3
 -2      4583      4363      3496      6782
 -1     34981    3    0    3
 -2      4591      1755      1983      1858
 -1     34982    3    0    3
 -2      6209      6117      4568      6526
 -1     34983    3    0    3
 -2      3110      4568      3131      6114
 -1     34984    3    0    3
 -2      4565      3496      4203      6209
 -1     34985    3    0    3
 -2       410      3152      1733       411
 -1     34986    3    0    3
 -2      5159      4229      4279      4595
 -1     34987    3    0    3
 -2      3118      3111      3147      6798
 -1     34988    3    0    3
 -2      6651       406       405      3050
 -1     34989    3    0    3
 -2      6536      5156      3082      6534
 -1     34990    3    0    3
 -2      5711      4595      1984      6644
 -1     34991    3    0    3
 -2      4389      5132      3111      6561
 -1     34992    3    0    3
 -2      3747      3103      3142      3141
 -1     34993    3    0    3
 -2      4569      6530      6638      6646
 -1     34994    3    0    3
 -2      4279      5159      4595      4309
 -1     34995    3    0    3
 -2      4586      2341      4596      6629
 -1     34996    3    0    3
 -2      5132      4363      4333      6561
 -1     34997    3    0    3
 -2      2520      6514      2641      6643
 -1     34998    3    0    3
 -2      3747      3103      4564      3525
 -1     34999    3    0    3
 -2      3109      4343      3129      4573
 -1     35000    3    0    3
 -2      2503      2671      4587      6136
 -1     35001    3    0    3
 -2      5151      4184      4233      4587
 -1     35002    3    0    3
 -2      2581      4619      2704      6641
 -1     35003    3    0    3
 -2      4581      4587      6553      6640
 -1     35004    3    0    3
 -2      2579      2670      4619      6463
 -1     35005    3    0    3
 -2      4582      4157      4213      4588
 -1     35006    3    0    3
 -2      4100      4621      4590      4122
 -1     35007    3    0    3
 -2      5026      5028      2262      6754
 -1     35008    3    0    3
 -2      4188      6440      6549      5177
 -1     35009    3    0    3
 -2      2672      6641      4588      4590
 -1     35010    3    0    3
 -2      4619      4076      5183      4122
 -1     35011    3    0    3
 -2      5154      4100      4590      4122
 -1     35012    3    0    3
 -2      4122      4590      4588      6641
 -1     35013    3    0    3
 -2      2672      6641      2708      2704
 -1     35014    3    0    3
 -2      4599      4589      2660      6182
 -1     35015    3    0    3
 -2      4586      4209      4258      4596
 -1     35016    3    0    3
 -2      5160      4229      4258      4596
 -1     35017    3    0    3
 -2      2687      2661      2679      6499
 -1     35018    3    0    3
 -2      2195      1983      2266      4595
 -1     35019    3    0    3
 -2      2687      2652      6499      6643
 -1     35020    3    0    3
 -2      2668      4621      2708      4590
 -1     35021    3    0    3
 -2      4600      2668      4590      6642
 -1     35022    3    0    3
 -2      4153      5164      5163      4118
 -1     35023    3    0    3
 -2      2668      4600      4645      6642
 -1     35024    3    0    3
 -2      4600      2702      2652      6748
 -1     35025    3    0    3
 -2      4209      4233      5153      4589
 -1     35026    3    0    3
 -2      4153      4209      5153      4589
 -1     35027    3    0    3
 -2      4184      4153      5153      4589
 -1     35028    3    0    3
 -2      4184      5153      4233      4589
 -1     35029    3    0    3
 -2      5151      4233      4260      4587
 -1     35030    3    0    3
 -2      4586      4584      4233      6597
 -1     35031    3    0    3
 -2      2706      2673      2671      4589
 -1     35032    3    0    3
 -2      2633      2673      2706      4589
 -1     35033    3    0    3
 -2      4586      2633      2706      4589
 -1     35034    3    0    3
 -2      4584      2657      6136      6597
 -1     35035    3    0    3
 -2      4586      4233      4209      4589
 -1     35036    3    0    3
 -2      4209      4589      4599      6182
 -1     35037    3    0    3
 -2       662      6523      1048       944
 -1     35038    3    0    3
 -2      1874      3075      3048       401
 -1     35039    3    0    3
 -2      2706      4586      4589      6597
 -1     35040    3    0    3
 -2      2657      2483      2525      4584
 -1     35041    3    0    3
 -2      4619      4157      4613      5723
 -1     35042    3    0    3
 -2      2672      2704      2669      4588
 -1     35043    3    0    3
 -2      2672      2678      2671      4587
 -1     35044    3    0    3
 -2      6602      6206      2407      2321
 -1     35045    3    0    3
 -2      5157       917       827      6490
 -1     35046    3    0    3
 -2      5157       917      6490      6502
 -1     35047    3    0    3
 -2      5157       917       935       827
 -1     35048    3    0    3
 -2      2488      2669      4582      4588
 -1     35049    3    0    3
 -2      6554      1310      5149      6133
 -1     35050    3    0    3
 -2      4405      4188      4580      6139
 -1     35051    3    0    3
 -2      4405      4188      4611      4216
 -1     35052    3    0    3
 -2      4405      4188      4216      4580
 -1     35053    3    0    3
 -2      4587      4213      4184      4588
 -1     35054    3    0    3
 -2      6206      2321      6602      2138
 -1     35055    3    0    3
 -2      4619      4157      4588      4122
 -1     35056    3    0    3
 -2      4184      5154      4590      4122
 -1     35057    3    0    3
 -2      5152      5154      4184      4122
 -1     35058    3    0    3
 -2      4184      4590      4588      4122
 -1     35059    3    0    3
 -2      2672      6641      2704      4588
 -1     35060    3    0    3
 -2      2704      2708      2581      6641
 -1     35061    3    0    3
 -2      2708      4621      2581      6641
 -1     35062    3    0    3
 -2      2652      4599      2660      2661
 -1     35063    3    0    3
 -2      4601      4096      4602      4118
 -1     35064    3    0    3
 -2      5166      5164      4069      4118
 -1     35065    3    0    3
 -2      4602      5166      4069      4118
 -1     35066    3    0    3
 -2      5163      4209      4153      4599
 -1     35067    3    0    3
 -2      5163      4178      4209      4599
 -1     35068    3    0    3
 -2       739      6057       760       252
 -1     35069    3    0    3
 -2      4599      4153      4118      4600
 -1     35070    3    0    3
 -2      2660      4599      2584      2661
 -1     35071    3    0    3
 -2      3241      4662      4656      4654
 -1     35072    3    0    3
 -2      4645      4069      4600      6514
 -1     35073    3    0    3
 -2      2702      2668      4590      4600
 -1     35074    3    0    3
 -2      4600      4100      4645      6642
 -1     35075    3    0    3
 -2      4600      6499      4118      4599
 -1     35076    3    0    3
 -2      2509      2511      2510      6600
 -1     35077    3    0    3
 -2      3496      6492      4583      6782
 -1     35078    3    0    3
 -2      6598      4279      6537      4597
 -1     35079    3    0    3
 -2      4118      6627      6499      4601
 -1     35080    3    0    3
 -2      2632      2584      4596      6627
 -1     35081    3    0    3
 -2      4229      4178      4598      4596
 -1     35082    3    0    3
 -2      2702      4600      2652      2641
 -1     35083    3    0    3
 -2      2633      2584      2660      6182
 -1     35084    3    0    3
 -2      1984      2086      5711      6644
 -1     35085    3    0    3
 -2      4602      4608      4096      6628
 -1     35086    3    0    3
 -2      1838      5896      1946      2049
 -1     35087    3    0    3
 -2      6624      5847      5590      6625
 -1     35088    3    0    3
 -2      4096      4601      4602      6628
 -1     35089    3    0    3
 -2      3269      3706      3566      4653
 -1     35090    3    0    3
 -2      4585      6782      4569      4333
 -1     35091    3    0    3
 -2      2684      4602      2520      6643
 -1     35092    3    0    3
 -2      1233      5446      5445      6281
 -1     35093    3    0    3
 -2      4647      4069      4645      6514
 -1     35094    3    0    3
 -2      4188      6440      5175      6549
 -1     35095    3    0    3
 -2      2153      2350      2351      6598
 -1     35096    3    0    3
 -2      6506      1310      1048      6523
 -1     35097    3    0    3
 -2      1703      3131       412       411
 -1     35098    3    0    3
 -2      4209      4599      4596      6182
 -1     35099    3    0    3
 -2      2450      2633      4586      2341
 -1     35100    3    0    3
 -2      1874      3075      4805      3048
 -1     35101    3    0    3
 -2      2683      4607      6628      6601
 -1     35102    3    0    3
 -2      4389      3111      3110      4568
 -1     35103    3    0    3
 -2      5159      4258      4595      4309
 -1     35104    3    0    3
 -2      6789      6525      6647      6599
 -1     35105    3    0    3
 -2      5149      4258      4309      4585
 -1     35106    3    0    3
 -2      4258      4229      5159      4595
 -1     35107    3    0    3
 -2      3082      6531      3069      5156
 -1     35108    3    0    3
 -2      3077      3082      3055      6536
 -1     35109    3    0    3
 -2      6626      1596      1424      1427
 -1     35110    3    0    3
 -2      2153      2266      1957      6537
 -1     35111    3    0    3
 -2      6096      1983      4591      6537
 -1     35112    3    0    3
 -2      6644      2086      5711      6648
 -1     35113    3    0    3
 -2      1984      1983      2195      4595
 -1     35114    3    0    3
 -2      6648      4309      6647      6749
 -1     35115    3    0    3
 -2      6648      4591      4309      6749
 -1     35116    3    0    3
 -2      4309      4591      4279      6749
 -1     35117    3    0    3
 -2      4279      5155      5159      4309
 -1     35118    3    0    3
 -2      4233      6555      4287      5150
 -1     35119    3    0    3
 -2      4333      4309      4569      4585
 -1     35120    3    0    3
 -2      4595      1984      1983      5711
 -1     35121    3    0    3
 -2      6528      6645      1912      6646
 -1     35122    3    0    3
 -2      4333      5133      5149      6506
 -1     35123    3    0    3
 -2      6541      6517      5147      6554
 -1     35124    3    0    3
 -2      1455       941      1063      6517
 -1     35125    3    0    3
 -2      6133      5150      4287      6555
 -1     35126    3    0    3
 -2       481      3080      3030      6789
 -1     35127    3    0    3
 -2      4584      2483      2525      6558
 -1     35128    3    0    3
 -2      6558      2525      4586      6636
 -1     35129    3    0    3
 -2      2525      2450      4586      6636
 -1     35130    3    0    3
 -2      2409      4585      2086      2194
 -1     35131    3    0    3
 -2      5145      1409      1410      1462
 -1     35132    3    0    3
 -2      4309      5133      5149      4333
 -1     35133    3    0    3
 -2      2195      1984      4595      2194
 -1     35134    3    0    3
 -2      4333      4287      5149      4585
 -1     35135    3    0    3
 -2      5149      4309      4333      4585
 -1     35136    3    0    3
 -2      4584      2525      4586      6558
 -1     35137    3    0    3
 -2      4831      6660      2264      6678
 -1     35138    3    0    3
 -2      4565      1918      4270      6492
 -1     35139    3    0    3
 -2      5147      4287      4333      4583
 -1     35140    3    0    3
 -2      4577      4339      4578      3467
 -1     35141    3    0    3
 -2      4314      5147      4363      4583
 -1     35142    3    0    3
 -2      4333      4363      5147      4583
 -1     35143    3    0    3
 -2      3033      6789      3030      3080
 -1     35144    3    0    3
 -2      2501      2409      2525      6558
 -1     35145    3    0    3
 -2      2520      6514      6643      4602
 -1     35146    3    0    3
 -2      6558      4585      4583      6565
 -1     35147    3    0    3
 -2      6647      4333      6638      5133
 -1     35148    3    0    3
 -2      6111      3120      3113      6527
 -1     35149    3    0    3
 -2      3120      6111      6112      6527
 -1     35150    3    0    3
 -2      6563      4333      5133      6638
 -1     35151    3    0    3
 -2      5155      6599      6647      6749
 -1     35152    3    0    3
 -2      3130      4565      4203      1763
 -1     35153    3    0    3
 -2      3152       410      1733      6645
 -1     35154    3    0    3
 -2      1733       410      1912      6645
 -1     35155    3    0    3
 -2      3131      1763      6209      1703
 -1     35156    3    0    3
 -2      5145      1409      1462      6076
 -1     35157    3    0    3
 -2       481       482      3080      6112
 -1     35158    3    0    3
 -2      6530      4569      6638      6647
 -1     35159    3    0    3
 -2      6096      1956      1957      6537
 -1     35160    3    0    3
 -2      6096      1956      4592      1741
 -1     35161    3    0    3
 -2       480      3078       479      6530
 -1     35162    3    0    3
 -2      6096      4591      1858      6649
 -1     35163    3    0    3
 -2      3092      3087      6535      6649
 -1     35164    3    0    3
 -2      3028      1815       399      3061
 -1     35165    3    0    3
 -2      5816      4284      3591      6562
 -1     35166    3    0    3
 -2      6668      4168      6792      4806
 -1     35167    3    0    3
 -2      1984      1754      1755      5711
 -1     35168    3    0    3
 -2      5155      4279      6113      6749
 -1     35169    3    0    3
 -2      3087      3090      6113      6525
 -1     35170    3    0    3
 -2      5667      4592      1956      6783
 -1     35171    3    0    3
 -2      6113      3087      6525      6649
 -1     35172    3    0    3
 -2      6525      3090      6113      6599
 -1     35173    3    0    3
 -2      3087      3044      3090      6525
 -1     35174    3    0    3
 -2      6113      6525      4591      6649
 -1     35175    3    0    3
 -2      3087      3057      3044      6649
 -1     35176    3    0    3
 -2      3152      1703      3131      6526
 -1     35177    3    0    3
 -2      2310      5735      5736      5030
 -1     35178    3    0    3
 -2      3035       682       232       681
 -1     35179    3    0    3
 -2       478       410      3102      6645
 -1     35180    3    0    3
 -2       410       478      1912      6645
 -1     35181    3    0    3
 -2      3152      1703      6526      1733
 -1     35182    3    0    3
 -2      6525      3087      3044      6649
 -1     35183    3    0    3
 -2      6053      2437      6732      4733
 -1     35184    3    0    3
 -2        19      1754       478       409
 -1     35185    3    0    3
 -2      4592      5667      6494      6783
 -1     35186    3    0    3
 -2      3050      3076      3029      6651
 -1     35187    3    0    3
 -2      3076      4593      3029      6651
 -1     35188    3    0    3
 -2      1988      1937      2139      6206
 -1     35189    3    0    3
 -2      1765      1936      4594      1766
 -1     35190    3    0    3
 -2       405      3050      3029      6651
 -1     35191    3    0    3
 -2      1765      1937      1896      6116
 -1     35192    3    0    3
 -2      3029      1896       405      6651
 -1     35193    3    0    3
 -2       235       827       722      6490
 -1     35194    3    0    3
 -2      1741       407       406      3049
 -1     35195    3    0    3
 -2      3077      3049      4592      6494
 -1     35196    3    0    3
 -2      3050      3049      3077      6494
 -1     35197    3    0    3
 -2      3038      4593      3029      3076
 -1     35198    3    0    3
 -2      6536      5667      4255      4593
 -1     35199    3    0    3
 -2      3055      3038      3076      6210
 -1     35200    3    0    3
 -2      1969      4911      4423      4908
 -1     35201    3    0    3
 -2      3055      3076      3077      6536
 -1     35202    3    0    3
 -2       229       228      3060       731
 -1     35203    3    0    3
 -2      3065      3053      3089      5974
 -1     35204    3    0    3
 -2       403      1765      3037      3079
 -1     35205    3    0    3
 -2      3079      3052      3048      6684
 -1     35206    3    0    3
 -2      1766      1765       403      3079
 -1     35207    3    0    3
 -2      3037      1765      4594      3079
 -1     35208    3    0    3
 -2      4168      5368      4805      5962
 -1     35209    3    0    3
 -2      1741      3049      4592      6096
 -1     35210    3    0    3
 -2       917       722       827      6490
 -1     35211    3    0    3
 -2      5974      3036      3089      6655
 -1     35212    3    0    3
 -2      5169      1220      6497      1386
 -1     35213    3    0    3
 -2      1959      6792      1815      4806
 -1     35214    3    0    3
 -2      6659      1766      1874      6684
 -1     35215    3    0    3
 -2      4594      3037      3079      3036
 -1     35216    3    0    3
 -2      3056      3074      3089      6538
 -1     35217    3    0    3
 -2      6791      3078      3043      6525
 -1     35218    3    0    3
 -2      3087      3092      3057      6649
 -1     35219    3    0    3
 -2      1858       407      1741      6096
 -1     35220    3    0    3
 -2      2704      4588      4619      5723
 -1     35221    3    0    3
 -2      5973      3539      4778      5964
 -1     35222    3    0    3
 -2      5877      5371      5878      5966
 -1     35223    3    0    3
 -2      5808      1281      1249      6049
 -1     35224    3    0    3
 -2       953      6337       995      6336
 -1     35225    3    0    3
 -2      4908      1969      2123      4423
 -1     35226    3    0    3
 -2      5963      3040      3041      6658
 -1     35227    3    0    3
 -2      6792      2110      2084      1816
 -1     35228    3    0    3
 -2      5910      4369      5719      5019
 -1     35229    3    0    3
 -2      6212      2034      4805      6659
 -1     35230    3    0    3
 -2      3079      3048       402      6684
 -1     35231    3    0    3
 -2      3079       402      1766      6684
 -1     35232    3    0    3
 -2      1766      2034      1936      6659
 -1     35233    3    0    3
 -2      6792      2110      1816      4805
 -1     35234    3    0    3
 -2      6348      1022      1021      5968
 -1     35235    3    0    3
 -2      3061      3075      3091      6657
 -1     35236    3    0    3
 -2      5747       459      6050      6793
 -1     35237    3    0    3
 -2      4111      5373      5372      5988
 -1     35238    3    0    3
 -2       672      3059       227      3047
 -1     35239    3    0    3
 -2      1552      5988      6019      1283
 -1     35240    3    0    3
 -2      1794      4944       503      5038
 -1     35241    3    0    3
 -2       400      3075      1816       401
 -1     35242    3    0    3
 -2      6314      5344      3290      3311
 -1     35243    3    0    3
 -2      5169      4171      5170      4143
 -1     35244    3    0    3
 -2      5370      4807      4136      4107
 -1     35245    3    0    3
 -2      1794      4944      5038      2030
 -1     35246    3    0    3
 -2      4819      4083      5382      4107
 -1     35247    3    0    3
 -2      6323       860      5700      5388
 -1     35248    3    0    3
 -2      1084      6092      5439      6093
 -1     35249    3    0    3
 -2      3068      3039      3051      5962
 -1     35250    3    0    3
 -2      3034      5369      5995      5998
 -1     35251    3    0    3
 -2      6055      5875      3046      6267
 -1     35252    3    0    3
 -2      6314      5344      6278      6276
 -1     35253    3    0    3
 -2      1958      2257      2213      4817
 -1     35254    3    0    3
 -2      1150      5742      6362      5595
 -1     35255    3    0    3
 -2      4908      1969      1805      2123
 -1     35256    3    0    3
 -2      1836      5737      1982      4808
 -1     35257    3    0    3
 -2      3561      3236      4662      4663
 -1     35258    3    0    3
 -2       397       398      3027      1744
 -1     35259    3    0    3
 -2      4819      4083      4808      6660
 -1     35260    3    0    3
 -2       458        18       395      1882
 -1     35261    3    0    3
 -2      4808      5875      6055      6267
 -1     35262    3    0    3
 -2      4819      2258      4817      6681
 -1     35263    3    0    3
 -2      4819      2258      2265      1982
 -1     35264    3    0    3
 -2      4859      4862      2003      4009
 -1     35265    3    0    3
 -2      4808      4807      4107      6101
 -1     35266    3    0    3
 -2      5687      2717      2112      6234
 -1     35267    3    0    3
 -2      5841      3848      5413      6800
 -1     35268    3    0    3
 -2       774      2770       249      2776
 -1     35269    3    0    3
 -2      5389      5880      6072      6751
 -1     35270    3    0    3
 -2      4625      4649      3926      3986
 -1     35271    3    0    3
 -2      1882      1997      1981      6048
 -1     35272    3    0    3
 -2      2739      2757      2759      6057
 -1     35273    3    0    3
 -2      3084      4132      3032       460
 -1     35274    3    0    3
 -2      3680      5883      6761       484
 -1     35275    3    0    3
 -2      4823      2505      6271      2631
 -1     35276    3    0    3
 -2      4591      4592      4279      6113
 -1     35277    3    0    3
 -2      3071      3083      3084      5875
 -1     35278    3    0    3
 -2      6699       786       814      6715
 -1     35279    3    0    3
 -2      5874      3031      3059      5877
 -1     35280    3    0    3
 -2      4107      4819      4808      6101
 -1     35281    3    0    3
 -2      3825      4222      4826      4020
 -1     35282    3    0    3
 -2      1912      6791       478      1754
 -1     35283    3    0    3
 -2      5877       461      3032      4132
 -1     35284    3    0    3
 -2      3063      3071      3084      5875
 -1     35285    3    0    3
 -2      6343      5598      6617      6725
 -1     35286    3    0    3
 -2      1912      6791      6646       478
 -1     35287    3    0    3
 -2      3876      2029      1769      1811
 -1     35288    3    0    3
 -2      2469      6058      6664      5690
 -1     35289    3    0    3
 -2      2749       393       394      1731
 -1     35290    3    0    3
 -2      4828      2736      4827      2733
 -1     35291    3    0    3
 -2      2264      6676      2325      2324
 -1     35292    3    0    3
 -2      2733      2734      1810       391
 -1     35293    3    0    3
 -2      2469      6058      5690      2479
 -1     35294    3    0    3
 -2      1929      1980      2446      6211
 -1     35295    3    0    3
 -2      5827      2654      5916      5009
 -1     35296    3    0    3
 -2      5875      3063      3071      6267
 -1     35297    3    0    3
 -2      4267      5716      5025      5902
 -1     35298    3    0    3
 -2      5395      5394      6075      4023
 -1     35299    3    0    3
 -2      5881      5700      5389      6072
 -1     35300    3    0    3
 -2       458       394        18      1732
 -1     35301    3    0    3
 -2      1882       458        18      1732
 -1     35302    3    0    3
 -2      1732      4825      5747      6662
 -1     35303    3    0    3
 -2      2112      2707      2029      6234
 -1     35304    3    0    3
 -2      5653      4840      3959      6234
 -1     35305    3    0    3
 -2      3027      1836       397      1744
 -1     35306    3    0    3
 -2      1980      1731      1809      5701
 -1     35307    3    0    3
 -2      2469      2446      1980      6664
 -1     35308    3    0    3
 -2       974      3946      5639      5636
 -1     35309    3    0    3
 -2      4834      4833      3959      3993
 -1     35310    3    0    3
 -2      4450       519      5636      4086
 -1     35311    3    0    3
 -2      4026      6271      3996      4818
 -1     35312    3    0    3
 -2      2631      2694      4823      2575
 -1     35313    3    0    3
 -2      6793      4808      3063      5875
 -1     35314    3    0    3
 -2      2758      2722      2757      5815
 -1     35315    3    0    3
 -2      5450      4886      3484      3514
 -1     35316    3    0    3
 -2      1836      6101      4808      1982
 -1     35317    3    0    3
 -2      4026      4818      3996      5381
 -1     35318    3    0    3
 -2      5815      4132       461      5871
 -1     35319    3    0    3
 -2      1610      5437      5435      6115
 -1     35320    3    0    3
 -2      6793      4808      5875      6666
 -1     35321    3    0    3
 -2      2434      2265      2324      6215
 -1     35322    3    0    3
 -2      5989      4168      4805      6792
 -1     35323    3    0    3
 -2      4080      4305      4105      4615
 -1     35324    3    0    3
 -2       886      6000       731       744
 -1     35325    3    0    3
 -2      3561      3236      4661      4662
 -1     35326    3    0    3
 -2      6685      4810      2530      6691
 -1     35327    3    0    3
 -2      4807      3027      3088      6680
 -1     35328    3    0    3
 -2      6323       860      1057      5700
 -1     35329    3    0    3
 -2      5388      5394      4053      4083
 -1     35330    3    0    3
 -2      3163      5310      3282      3718
 -1     35331    3    0    3
 -2      2721      2757      2722      5815
 -1     35332    3    0    3
 -2      4806      1791      1959      6221
 -1     35333    3    0    3
 -2      3563      2106      2038      4697
 -1     35334    3    0    3
 -2       650       549       577      5647
 -1     35335    3    0    3
 -2      4182      3332      3444      4948
 -1     35336    3    0    3
 -2      6010      5394      5396      6073
 -1     35337    3    0    3
 -2      1882      6793      5737      6670
 -1     35338    3    0    3
 -2      4818      4056      4817      6681
 -1     35339    3    0    3
 -2      4111      4026      4060      5375
 -1     35340    3    0    3
 -2      6793       458      1882      5747
 -1     35341    3    0    3
 -2      3027      3088      3072      4807
 -1     35342    3    0    3
 -2      1959      4806      6221      6668
 -1     35343    3    0    3
 -2      3073       396       397      1836
 -1     35344    3    0    3
 -2       458      6793       459      5747
 -1     35345    3    0    3
 -2      4023      4831      4819      6215
 -1     35346    3    0    3
 -2      4816      4815      4001      6012
 -1     35347    3    0    3
 -2       395       396      3063      1881
 -1     35348    3    0    3
 -2      6267      4807      4808      6766
 -1     35349    3    0    3
 -2      3236      3561      3178      3180
 -1     35350    3    0    3
 -2      2269      5660      2396      5013
 -1     35351    3    0    3
 -2      6211      1980      2446      6664
 -1     35352    3    0    3
 -2      1981      2265      1982      6660
 -1     35353    3    0    3
 -2      2613      6271      2640      6796
 -1     35354    3    0    3
 -2      4817      4819      4107      6101
 -1     35355    3    0    3
 -2      1981      1881      1882      5737
 -1     35356    3    0    3
 -2      5435      5399      3810      6081
 -1     35357    3    0    3
 -2      5493      4340      3967      6300
 -1     35358    3    0    3
 -2      4823      2504      2505      2575
 -1     35359    3    0    3
 -2      4858      3877      2512      4860
 -1     35360    3    0    3
 -2      6267      3027      4807      6766
 -1     35361    3    0    3
 -2      4820      2504      4823      6674
 -1     35362    3    0    3
 -2      4820      2360      2505      2434
 -1     35363    3    0    3
 -2      4083      4023      4819      5382
 -1     35364    3    0    3
 -2      6311      1214      1343      5952
 -1     35365    3    0    3
 -2      2640      2631      2711      4821
 -1     35366    3    0    3
 -2      4820      3996      4823      6233
 -1     35367    3    0    3
 -2      1513      1627      1511      5385
 -1     35368    3    0    3
 -2      4858      2513      4822      6700
 -1     35369    3    0    3
 -2      2613      2640      2693      6796
 -1     35370    3    0    3
 -2      2583      4832      2611      2325
 -1     35371    3    0    3
 -2      1235      1117      5382      6075
 -1     35372    3    0    3
 -2      3966      4832      4835      3934
 -1     35373    3    0    3
 -2      6058      4831      4832      6676
 -1     35374    3    0    3
 -2      6674      4820      2504      6676
 -1     35375    3    0    3
 -2      2505      2504      4820      2434
 -1     35376    3    0    3
 -2      1646      5435      1574      1629
 -1     35377    3    0    3
 -2      4023      4832      4831      6676
 -1     35378    3    0    3
 -2      6215      4023      4831      6676
 -1     35379    3    0    3
 -2       399      3028       398      1791
 -1     35380    3    0    3
 -2      6322      1536      1636      1623
 -1     35381    3    0    3
 -2      6061      1614      1613      6069
 -1     35382    3    0    3
 -2      4788      2461      2606      2559
 -1     35383    3    0    3
 -2      4824      3937      4822      6261
 -1     35384    3    0    3
 -2      4087      4056      4818      5381
 -1     35385    3    0    3
 -2      4812      4087      4811      6689
 -1     35386    3    0    3
 -2      3810      4873      4838      6712
 -1     35387    3    0    3
 -2      5476      5479      3722      3767
 -1     35388    3    0    3
 -2      4788      2461      6004      2606
 -1     35389    3    0    3
 -2      2324      4820      6215      6676
 -1     35390    3    0    3
 -2      3996      4820      4823      3966
 -1     35391    3    0    3
 -2      1613      5383      5386      6061
 -1     35392    3    0    3
 -2      1055      5477       642      3848
 -1     35393    3    0    3
 -2      5471      3668      5473      4199
 -1     35394    3    0    3
 -2      4913      3779      4304      5475
 -1     35395    3    0    3
 -2      1904      4912      4915      1921
 -1     35396    3    0    3
 -2      3907      4824      4836      2568
 -1     35397    3    0    3
 -2      4824      4836      3844      3907
 -1     35398    3    0    3
 -2      4835      4836      2647      2568
 -1     35399    3    0    3
 -2      4835      4823      3966      3907
 -1     35400    3    0    3
 -2      1510      1616      1613      5386
 -1     35401    3    0    3
 -2      4824      3937      4823      3907
 -1     35402    3    0    3
 -2      5994      3652      5326      6382
 -1     35403    3    0    3
 -2      5386      5383      3966      6061
 -1     35404    3    0    3
 -2      1629      5435      1574      5399
 -1     35405    3    0    3
 -2      3907      3844      5387      5399
 -1     35406    3    0    3
 -2      5413      5414      3779      3806
 -1     35407    3    0    3
 -2      1920      4881      2135      2189
 -1     35408    3    0    3
 -2      1629      5425      5435      6264
 -1     35409    3    0    3
 -2      5387      1617      3907      5399
 -1     35410    3    0    3
 -2      6231      1343      1404      5894
 -1     35411    3    0    3
 -2      6058      4832      2325      6676
 -1     35412    3    0    3
 -2      4788      2461      2559      4786
 -1     35413    3    0    3
 -2      6238       392      1809      1810
 -1     35414    3    0    3
 -2      1044      1069      4242      5858
 -1     35415    3    0    3
 -2      5653      4833      4834      5690
 -1     35416    3    0    3
 -2      4835      2647      2576      2568
 -1     35417    3    0    3
 -2      2576      2504      2611      6213
 -1     35418    3    0    3
 -2      3907      4836      4835      2568
 -1     35419    3    0    3
 -2      3907      4835      4823      2568
 -1     35420    3    0    3
 -2      2258      2265      2434      6215
 -1     35421    3    0    3
 -2      2434      2504      4820      2324
 -1     35422    3    0    3
 -2      3410       328       329      1817
 -1     35423    3    0    3
 -2      5699      4850      4848      6259
 -1     35424    3    0    3
 -2      2575      2694      4823      2568
 -1     35425    3    0    3
 -2      5998       231      3034       680
 -1     35426    3    0    3
 -2      4861      3981      3764      4868
 -1     35427    3    0    3
 -2      6238       392      1810      2734
 -1     35428    3    0    3
 -2      2647      4835      2576      2685
 -1     35429    3    0    3
 -2      5437      1610      5435      6081
 -1     35430    3    0    3
 -2      1609      1459      1501      5670
 -1     35431    3    0    3
 -2      2314      2378      2482      4880
 -1     35432    3    0    3
 -2      4871      3758      5435      3810
 -1     35433    3    0    3
 -2      2832      5601       667       666
 -1     35434    3    0    3
 -2      3876      1970      6234      2029
 -1     35435    3    0    3
 -2      2469      6058      2479      2446
 -1     35436    3    0    3
 -2      5403      4840      3959      3902
 -1     35437    3    0    3
 -2      2479      2325      2446      6058
 -1     35438    3    0    3
 -2      2658      2583      2479      5692
 -1     35439    3    0    3
 -2      4518      4283      3955      5402
 -1     35440    3    0    3
 -2      4874      3758      4872      6246
 -1     35441    3    0    3
 -2      2694      4824      4823      2568
 -1     35442    3    0    3
 -2      4834      4832      6214      5692
 -1     35443    3    0    3
 -2      4832      4834      6214      3934
 -1     35444    3    0    3
 -2      5653      2713      4834      5654
 -1     35445    3    0    3
 -2      2552      4952      2614      2401
 -1     35446    3    0    3
 -2      4848      2412      2498      2463
 -1     35447    3    0    3
 -2      2742      4195      2740      3989
 -1     35448    3    0    3
 -2      4841      4828      3876      1908
 -1     35449    3    0    3
 -2      4844      2773      5404      2742
 -1     35450    3    0    3
 -2      4280      6185      2096      6257
 -1     35451    3    0    3
 -2      6072      4826      4049      6751
 -1     35452    3    0    3
 -2      3563      2106      4697      3973
 -1     35453    3    0    3
 -2      6343      5598      5592      6617
 -1     35454    3    0    3
 -2      5598      6343      5592      4293
 -1     35455    3    0    3
 -2      6216      5747      4825      6662
 -1     35456    3    0    3
 -2      5747      1732      6662      6665
 -1     35457    3    0    3
 -2      4862      4859      2003      1964
 -1     35458    3    0    3
 -2      2659      2691      4873      2489
 -1     35459    3    0    3
 -2      6048      6660      4083      6678
 -1     35460    3    0    3
 -2      3075      6792      5962      6657
 -1     35461    3    0    3
 -2      4816      2710      6285      3972
 -1     35462    3    0    3
 -2      2567      4836      2564      2568
 -1     35463    3    0    3
 -2      4836      2567      2647      2568
 -1     35464    3    0    3
 -2      2673      6748      4590      4589
 -1     35465    3    0    3
 -2      2711      2710      2640      4821
 -1     35466    3    0    3
 -2      3976      5377      3941      5415
 -1     35467    3    0    3
 -2      4812      4815      4026      6632
 -1     35468    3    0    3
 -2      4820      4823      2505      6233
 -1     35469    3    0    3
 -2      4852      2356      2355      2285
 -1     35470    3    0    3
 -2      2207      2311      2408      5740
 -1     35471    3    0    3
 -2      6221      4807      4136      6658
 -1     35472    3    0    3
 -2      1552      5988      1284      5373
 -1     35473    3    0    3
 -2      1552      5988      5373      6019
 -1     35474    3    0    3
 -2      6212      1936      6659      6603
 -1     35475    3    0    3
 -2       760      6323       739      1035
 -1     35476    3    0    3
 -2      6657       400      1815      3061
 -1     35477    3    0    3
 -2      4056      3996      4820      4818
 -1     35478    3    0    3
 -2      5928      5939      2799      1714
 -1     35479    3    0    3
 -2      1794      4944      1859       503
 -1     35480    3    0    3
 -2      6161      6099      4042      6162
 -1     35481    3    0    3
 -2      4588      2704      4619      6641
 -1     35482    3    0    3
 -2      6323       860       647      1057
 -1     35483    3    0    3
 -2      4859      3764      5424      3815
 -1     35484    3    0    3
 -2      4605      2167      6106      6212
 -1     35485    3    0    3
 -2      2258      2257      2078      4817
 -1     35486    3    0    3
 -2      4820      4056      4818      6681
 -1     35487    3    0    3
 -2      6657       400      3061      3075
 -1     35488    3    0    3
 -2       458      6793      3062       459
 -1     35489    3    0    3
 -2      3053      6728      3066      5368
 -1     35490    3    0    3
 -2      6634      4606      2487      6685
 -1     35491    3    0    3
 -2      4810      4809      4143      6106
 -1     35492    3    0    3
 -2      2209      5989      2207      4809
 -1     35493    3    0    3
 -2      4111      4809      4810      5740
 -1     35494    3    0    3
 -2      4815      4026      5378      4060
 -1     35495    3    0    3
 -2      6348      1022       677      1021
 -1     35496    3    0    3
 -2      4815      4813      6012      6687
 -1     35497    3    0    3
 -2      4605      5169      4225      4202
 -1     35498    3    0    3
 -2      4606      5170      4171      4143
 -1     35499    3    0    3
 -2      4605      4171      5169      4143
 -1     35500    3    0    3
 -2      2110      1874      1816      4805
 -1     35501    3    0    3
 -2      3972      6261      4822      3937
 -1     35502    3    0    3
 -2      4811      2207      2208      5989
 -1     35503    3    0    3
 -2      5590      6624      4267      5601
 -1     35504    3    0    3
 -2      1766      1936      4594      6659
 -1     35505    3    0    3
 -2       672      3059      5966       753
 -1     35506    3    0    3
 -2      1874      1766       402      6684
 -1     35507    3    0    3
 -2      2530      6106      2353      2408
 -1     35508    3    0    3
 -2      2209      4809      6106      6212
 -1     35509    3    0    3
 -2      2167      2209      6106      6212
 -1     35510    3    0    3
 -2      2208      2213      2385      4811
 -1     35511    3    0    3
 -2      1815      1791      1959      4806
 -1     35512    3    0    3
 -2      2209      2353      2167      6106
 -1     35513    3    0    3
 -2      4809      4202      4605      6212
 -1     35514    3    0    3
 -2      4809      4143      4111      4810
 -1     35515    3    0    3
 -2      5377      5379      4001      3941
 -1     35516    3    0    3
 -2      6012      2495      6669      4815
 -1     35517    3    0    3
 -2      4032      4813      4609      6483
 -1     35518    3    0    3
 -2      5417      3883      3849      4854
 -1     35519    3    0    3
 -2      4111      4026      4087      4812
 -1     35520    3    0    3
 -2      4822      2636      4824      6261
 -1     35521    3    0    3
 -2      6737      4782      4772      5925
 -1     35522    3    0    3
 -2      4812      4111      4810      5740
 -1     35523    3    0    3
 -2      6012      2495      4815      6687
 -1     35524    3    0    3
 -2      1887      5866      5856      4493
 -1     35525    3    0    3
 -2      2696      2496      2690      6509
 -1     35526    3    0    3
 -2      2471      2470      2472      4814
 -1     35527    3    0    3
 -2      6685      2494      2497      4813
 -1     35528    3    0    3
 -2      4818      2505      6271      6233
 -1     35529    3    0    3
 -2      4515      6775      5568      5567
 -1     35530    3    0    3
 -2      4032      4814      5377      4001
 -1     35531    3    0    3
 -2      2693      2710      2495      4815
 -1     35532    3    0    3
 -2      6734      1146      1243      5415
 -1     35533    3    0    3
 -2      4814      2470      2472      2566
 -1     35534    3    0    3
 -2      2472      2356      4814      2566
 -1     35535    3    0    3
 -2      3764      3981      3512      4868
 -1     35536    3    0    3
 -2       833       732       492      6157
 -1     35537    3    0    3
 -2      4854      2297      2415      2414
 -1     35538    3    0    3
 -2      2185      2255      4861      2343
 -1     35539    3    0    3
 -2      4824      2694      4823      6261
 -1     35540    3    0    3
 -2      2512      2513      4822      4858
 -1     35541    3    0    3
 -2      3976      4659      3917      4852
 -1     35542    3    0    3
 -2      2636      2626      2694      6261
 -1     35543    3    0    3
 -2      2636      2512      2626      4822
 -1     35544    3    0    3
 -2      2626      2636      4822      6261
 -1     35545    3    0    3
 -2      5381      6008      5384      4026
 -1     35546    3    0    3
 -2      5392      2766      2776       773
 -1     35547    3    0    3
 -2      4821      6271      6632      6796
 -1     35548    3    0    3
 -2      2636      3877      4822      4824
 -1     35549    3    0    3
 -2      4821      2711      2710      6285
 -1     35550    3    0    3
 -2      2566      4814      2470      4816
 -1     35551    3    0    3
 -2      5392      2766      3521      2776
 -1     35552    3    0    3
 -2      3849      3883      4855      4854
 -1     35553    3    0    3
 -2       998       803       888      6140
 -1     35554    3    0    3
 -2      4009      3792      4855      4859
 -1     35555    3    0    3
 -2      2565      2613      2373      4818
 -1     35556    3    0    3
 -2      2408      2209      2207      4809
 -1     35557    3    0    3
 -2      4202      4605      4143      4809
 -1     35558    3    0    3
 -2      4817      2258      2257      6681
 -1     35559    3    0    3
 -2      4908      1969      1910      1805
 -1     35560    3    0    3
 -2      6270      4805      3048      6684
 -1     35561    3    0    3
 -2      4854      5417      3883      3941
 -1     35562    3    0    3
 -2      4822      3937      3877      5385
 -1     35563    3    0    3
 -2      2179      5828      2137      2023
 -1     35564    3    0    3
 -2      2385      2613      2612      4812
 -1     35565    3    0    3
 -2      4026      4087      4818      5381
 -1     35566    3    0    3
 -2      4605      4606      4171      4143
 -1     35567    3    0    3
 -2      5850      5901      1812      2049
 -1     35568    3    0    3
 -2      4087      4811      4111      4812
 -1     35569    3    0    3
 -2      4811      2385      2311      4812
 -1     35570    3    0    3
 -2      4143      4606      4093      4810
 -1     35571    3    0    3
 -2      4136      4811      4817      6668
 -1     35572    3    0    3
 -2      4810      4143      4606      6106
 -1     35573    3    0    3
 -2      5998       231      3035      3034
 -1     35574    3    0    3
 -2      4111      4811      4809      5740
 -1     35575    3    0    3
 -2      2613      4812      6667      2612
 -1     35576    3    0    3
 -2      3053      6728      5368      5974
 -1     35577    3    0    3
 -2      5966      3085      3046      3047
 -1     35578    3    0    3
 -2      5372      4809      4111      4168
 -1     35579    3    0    3
 -2      2471      2494      2495      6687
 -1     35580    3    0    3
 -2      4136      6221      4806      6668
 -1     35581    3    0    3
 -2      3238      4058      3982      4215
 -1     35582    3    0    3
 -2      3068      3066      3035      5368
 -1     35583    3    0    3
 -2      6311      1214      5952      6304
 -1     35584    3    0    3
 -2      2530      6106      2408      4810
 -1     35585    3    0    3
 -2      4168      4136      4811      5374
 -1     35586    3    0    3
 -2      5373      5376      6493      6693
 -1     35587    3    0    3
 -2      2612      2529      2311      4812
 -1     35588    3    0    3
 -2      4202      5169      5158      5976
 -1     35589    3    0    3
 -2      1142      1389      1350      5992
 -1     35590    3    0    3
 -2      4809      4605      4143      6106
 -1     35591    3    0    3
 -2      2354      2321      2138      6602
 -1     35592    3    0    3
 -2      2354      2167      2353      6106
 -1     35593    3    0    3
 -2      4143      4605      4606      6106
 -1     35594    3    0    3
 -2      4809      2408      2209      6106
 -1     35595    3    0    3
 -2      5382      4083      5371      4107
 -1     35596    3    0    3
 -2      4811      4136      4817      4087
 -1     35597    3    0    3
 -2      6221      4817      1958      6668
 -1     35598    3    0    3
 -2      3039      3040      3041      5963
 -1     35599    3    0    3
 -2      4168      4805      4809      5989
 -1     35600    3    0    3
 -2      5114       186      2922       750
 -1     35601    3    0    3
 -2      1936      2167      2138      6603
 -1     35602    3    0    3
 -2      2311      2207      2208      4811
 -1     35603    3    0    3
 -2      4812      4811      4111      5740
 -1     35604    3    0    3
 -2      2213      2257      2373      4817
 -1     35605    3    0    3
 -2      4812      2613      6667      6632
 -1     35606    3    0    3
 -2      4812      4811      2385      6689
 -1     35607    3    0    3
 -2      2640      2565      2631      6271
 -1     35608    3    0    3
 -2      1929      4825      6662      6211
 -1     35609    3    0    3
 -2      4111      4026      4812      4060
 -1     35610    3    0    3
 -2      5998       231       681      3035
 -1     35611    3    0    3
 -2      1836      2078      1744      4807
 -1     35612    3    0    3
 -2      6793      4808      5737      3063
 -1     35613    3    0    3
 -2      2505      4823      6271      6233
 -1     35614    3    0    3
 -2      4591      6650      1755      6649
 -1     35615    3    0    3
 -2      6793      4808      6666      5737
 -1     35616    3    0    3
 -2      1082      1083      1012      6695
 -1     35617    3    0    3
 -2      2358      5993      5986      2357
 -1     35618    3    0    3
 -2      1836      6101      4807      4808
 -1     35619    3    0    3
 -2      4818      4056      3996      5381
 -1     35620    3    0    3
 -2      2373      2360      2565      4818
 -1     35621    3    0    3
 -2      6719      2008      6790      2285
 -1     35622    3    0    3
 -2      1929      4825      1997      1732
 -1     35623    3    0    3
 -2      5998       231       680       681
 -1     35624    3    0    3
 -2      4056      4817      4087      4818
 -1     35625    3    0    3
 -2      2612      6691      2493      2529
 -1     35626    3    0    3
 -2      3053      6728      5974      3065
 -1     35627    3    0    3
 -2      3409      6717      3464      4042
 -1     35628    3    0    3
 -2      6685      2494      2530      2497
 -1     35629    3    0    3
 -2      2693      2495      2493      4815
 -1     35630    3    0    3
 -2      3937      4822      3972      5385
 -1     35631    3    0    3
 -2      2613      6796      6667      6632
 -1     35632    3    0    3
 -2      2497      2487      2530      6685
 -1     35633    3    0    3
 -2      6634      4609      4606      6685
 -1     35634    3    0    3
 -2      4810      4606      4093      6685
 -1     35635    3    0    3
 -2      4817      2213      4811      6689
 -1     35636    3    0    3
 -2      4782      6737      4772      3545
 -1     35637    3    0    3
 -2      5701      4826      2756      6238
 -1     35638    3    0    3
 -2      5373      5375      4111      4060
 -1     35639    3    0    3
 -2      6685      2494      4813      6691
 -1     35640    3    0    3
 -2      4026      3972      4821      4815
 -1     35641    3    0    3
 -2      2194      4585      4595      6629
 -1     35642    3    0    3
 -2      4426      3512      4868      3734
 -1     35643    3    0    3
 -2      3911      4822      3972      4816
 -1     35644    3    0    3
 -2      4826      5701      2756      6216
 -1     35645    3    0    3
 -2      4288      3341      5427      4272
 -1     35646    3    0    3
 -2      4821      3937      3972      5384
 -1     35647    3    0    3
 -2      2285      4852      2356      2298
 -1     35648    3    0    3
 -2      2566      2627      2513      4816
 -1     35649    3    0    3
 -2      4822      2626      6261      6285
 -1     35650    3    0    3
 -2      4452      3324      3323      3325
 -1     35651    3    0    3
 -2      6632      4812      4815      6667
 -1     35652    3    0    3
 -2      1935      6713      1784      4864
 -1     35653    3    0    3
 -2      2373      4817      4818      6689
 -1     35654    3    0    3
 -2      4813      4815      4001      4060
 -1     35655    3    0    3
 -2      1765      4594      6652      3037
 -1     35656    3    0    3
 -2      4594      1765      6652      6116
 -1     35657    3    0    3
 -2      3941      4814      4852      6697
 -1     35658    3    0    3
 -2      4610      3976      4814      6698
 -1     35659    3    0    3
 -2      4610      4659      3976      6698
 -1     35660    3    0    3
 -2      2297      4854      4855      6720
 -1     35661    3    0    3
 -2      4591      4592      6096      6537
 -1     35662    3    0    3
 -2      2693      2493      2612      6667
 -1     35663    3    0    3
 -2      1935      6713      1934      1784
 -1     35664    3    0    3
 -2      5402      3930      3590      3955
 -1     35665    3    0    3
 -2      4001      5376      4813      4060
 -1     35666    3    0    3
 -2      3053      6728      3065      3066
 -1     35667    3    0    3
 -2      1589      5377      1588      6312
 -1     35668    3    0    3
 -2      1422      5174      1589      6312
 -1     35669    3    0    3
 -2      4609      4610      4064      4032
 -1     35670    3    0    3
 -2      4609      4064      5173      4032
 -1     35671    3    0    3
 -2      4813      4609      4093      4032
 -1     35672    3    0    3
 -2      4609      5173      4093      4032
 -1     35673    3    0    3
 -2      3385      4042      3403      6161
 -1     35674    3    0    3
 -2      3464      4337      4009      4857
 -1     35675    3    0    3
 -2      4779      2438      4780      5954
 -1     35676    3    0    3
 -2      3941      4852      4854      6697
 -1     35677    3    0    3
 -2      6148       833       492      6157
 -1     35678    3    0    3
 -2      3385      3403       489      6161
 -1     35679    3    0    3
 -2      3883      5417      3849      5418
 -1     35680    3    0    3
 -2       732       492         6       833
 -1     35681    3    0    3
 -2      5416      3325      3856      6148
 -1     35682    3    0    3
 -2       803      5421       799      6140
 -1     35683    3    0    3
 -2      4858      4854      2513      6700
 -1     35684    3    0    3
 -2      3917      3883      4852      4853
 -1     35685    3    0    3
 -2      6099      4855      2002      6717
 -1     35686    3    0    3
 -2      2414      4854      2297      2298
 -1     35687    3    0    3
 -2      3792      4009      4855      4337
 -1     35688    3    0    3
 -2       490       491      3856      3325
 -1     35689    3    0    3
 -2      6330      5725      5036      5716
 -1     35690    3    0    3
 -2      4337      6162      6160      3820
 -1     35691    3    0    3
 -2      1246       966      6156      6468
 -1     35692    3    0    3
 -2      6099      2055      4853      6229
 -1     35693    3    0    3
 -2      4865      5420      3341      4857
 -1     35694    3    0    3
 -2      3409      6717      4042      3370
 -1     35695    3    0    3
 -2      4337      5420      4857      3439
 -1     35696    3    0    3
 -2      3734      4426      4867      4230
 -1     35697    3    0    3
 -2      5420      3341      5422      5427
 -1     35698    3    0    3
 -2      4856      4862      4009      2003
 -1     35699    3    0    3
 -2      4337      4009      4855      3464
 -1     35700    3    0    3
 -2      4337      4042      3409      3464
 -1     35701    3    0    3
 -2      1817      6703      6705      2033
 -1     35702    3    0    3
 -2      6238       392      2756      1809
 -1     35703    3    0    3
 -2      2055      1729      1730      6229
 -1     35704    3    0    3
 -2      6232      3349      3436      4455
 -1     35705    3    0    3
 -2      2008      1730      1781      6795
 -1     35706    3    0    3
 -2      5210      5213      3498      3951
 -1     35707    3    0    3
 -2      6099      1729      2055      6229
 -1     35708    3    0    3
 -2      4452      6140      5416      6160
 -1     35709    3    0    3
 -2      3318      3329      3328      5431
 -1     35710    3    0    3
 -2      2254      2255      2381      6716
 -1     35711    3    0    3
 -2      3547      5431       852      3328
 -1     35712    3    0    3
 -2      4876      3677      3888      4875
 -1     35713    3    0    3
 -2      5747      6666      6793      6050
 -1     35714    3    0    3
 -2      6143      2169      2111      2170
 -1     35715    3    0    3
 -2      4865      4866      4312      4511
 -1     35716    3    0    3
 -2      4866      4865      4092      4511
 -1     35717    3    0    3
 -2      6238       392      2734      2756
 -1     35718    3    0    3
 -2      6229      3370      4042      6717
 -1     35719    3    0    3
 -2      2003      1839      2002      6717
 -1     35720    3    0    3
 -2      1701      4862      1700      1964
 -1     35721    3    0    3
 -2      5061       536      3969      3997
 -1     35722    3    0    3
 -2      4864      3317      4867      3416
 -1     35723    3    0    3
 -2      4864      3317      3316      4092
 -1     35724    3    0    3
 -2      1014      5502       955       711
 -1     35725    3    0    3
 -2      3512      4866      4092      4863
 -1     35726    3    0    3
 -2      4511      4862      4092      4863
 -1     35727    3    0    3
 -2      3438      3919      5421      5419
 -1     35728    3    0    3
 -2      4862      4856      4009      4865
 -1     35729    3    0    3
 -2      5421       143       799      3402
 -1     35730    3    0    3
 -2      4865      3792      5420      4857
 -1     35731    3    0    3
 -2      4500      4869      3420      1857
 -1     35732    3    0    3
 -2      3317      4857      3408      3315
 -1     35733    3    0    3
 -2      6639       652      5583      6794
 -1     35734    3    0    3
 -2      3820      4337      3409      3439
 -1     35735    3    0    3
 -2      4862      4092      3315      4865
 -1     35736    3    0    3
 -2      4092      3317      3315      4865
 -1     35737    3    0    3
 -2      3408      3409      3333      4857
 -1     35738    3    0    3
 -2      3464      3333      3409      4857
 -1     35739    3    0    3
 -2      3409      6717      3333      3464
 -1     35740    3    0    3
 -2      3333      3464      4856      4857
 -1     35741    3    0    3
 -2      4865      4856      4009      4857
 -1     35742    3    0    3
 -2      6232      3349      4399      3357
 -1     35743    3    0    3
 -2      4865      3315      4856      4857
 -1     35744    3    0    3
 -2      3409      6717      3370      3333
 -1     35745    3    0    3
 -2      4876      4878      3641      6296
 -1     35746    3    0    3
 -2      4009      4865      3792      4312
 -1     35747    3    0    3
 -2      4092      4866      4511      4863
 -1     35748    3    0    3
 -2      4859      4009      3792      4312
 -1     35749    3    0    3
 -2      6102      5439      4094      6137
 -1     35750    3    0    3
 -2      2513      4854      2415      2414
 -1     35751    3    0    3
 -2      3677      3888      4426      4870
 -1     35752    3    0    3
 -2      5434      5433      4094      3547
 -1     35753    3    0    3
 -2      4426      3677      4870      4230
 -1     35754    3    0    3
 -2      6161      3385      4042      6229
 -1     35755    3    0    3
 -2      4288      4866      4092      4867
 -1     35756    3    0    3
 -2      5747      6666      4825      1882
 -1     35757    3    0    3
 -2      4288      4092      3317      4867
 -1     35758    3    0    3
 -2      3734      3401      3716      4230
 -1     35759    3    0    3
 -2      5425      4860      3877      3815
 -1     35760    3    0    3
 -2      3844      5435      3790      5425
 -1     35761    3    0    3
 -2      4681      6135      4200      6145
 -1     35762    3    0    3
 -2      4860      4861      3790      6704
 -1     35763    3    0    3
 -2      5436      1500      1251      6109
 -1     35764    3    0    3
 -2      2343      2381      4861      6704
 -1     35765    3    0    3
 -2      4092      1701      3316      4864
 -1     35766    3    0    3
 -2      4426      4867      3512      3734
 -1     35767    3    0    3
 -2      5431      3329      3716      4272
 -1     35768    3    0    3
 -2      1712      4015      1711      2053
 -1     35769    3    0    3
 -2      3318      3341      3329      4272
 -1     35770    3    0    3
 -2      4288      4865      4312      5427
 -1     35771    3    0    3
 -2      2254      4875      2033      6705
 -1     35772    3    0    3
 -2      3420       329       330      1857
 -1     35773    3    0    3
 -2      4392      4312      3764      5424
 -1     35774    3    0    3
 -2      5420      4865      3341      5427
 -1     35775    3    0    3
 -2      2337      2227      2180      6247
 -1     35776    3    0    3
 -2      2268      2452      2384      6088
 -1     35777    3    0    3
 -2      1962      2268      1961      6296
 -1     35778    3    0    3
 -2      2564      4836      4871      6706
 -1     35779    3    0    3
 -2      4824      3877      3844      4860
 -1     35780    3    0    3
 -2      4459      3382      3440      3442
 -1     35781    3    0    3
 -2      4860      3877      3844      5425
 -1     35782    3    0    3
 -2      4865      4862      4092      4511
 -1     35783    3    0    3
 -2      4009      4862      4865      4511
 -1     35784    3    0    3
 -2      4862      4009      4859      4511
 -1     35785    3    0    3
 -2      4312      4859      4009      4511
 -1     35786    3    0    3
 -2      4312      4009      4865      4511
 -1     35787    3    0    3
 -2      3329      3401      3716      3734
 -1     35788    3    0    3
 -2      4511      3981      4859      4863
 -1     35789    3    0    3
 -2      4867      4866      4092      3512
 -1     35790    3    0    3
 -2      4017      6461      5186      6480
 -1     35791    3    0    3
 -2      3981      4866      3764      3512
 -1     35792    3    0    3
 -2      3512      3764      4868      3734
 -1     35793    3    0    3
 -2      3581      4347      4151      4888
 -1     35794    3    0    3
 -2      5433      4870      3421      3645
 -1     35795    3    0    3
 -2      4092      4867      3512      4864
 -1     35796    3    0    3
 -2      5747      6666      1882      6793
 -1     35797    3    0    3
 -2      5459      3414      3411      3351
 -1     35798    3    0    3
 -2       553      4925      3901      4334
 -1     35799    3    0    3
 -2      3981      3764      4859      4861
 -1     35800    3    0    3
 -2      1814       564        84        83
 -1     35801    3    0    3
 -2      2564      4871      4860      6706
 -1     35802    3    0    3
 -2      3844      4860      4871      6706
 -1     35803    3    0    3
 -2      3799      6708      4889      2064
 -1     35804    3    0    3
 -2      2342      2185      2184      6224
 -1     35805    3    0    3
 -2      4875      3677      3888      4868
 -1     35806    3    0    3
 -2      3716      3885      5428      4392
 -1     35807    3    0    3
 -2      3612      5441      5442      3641
 -1     35808    3    0    3
 -2      6248      3606      3671      5332
 -1     35809    3    0    3
 -2      2268      2259      6088      6296
 -1     35810    3    0    3
 -2      1781      4660      6622      1950
 -1     35811    3    0    3
 -2      2474      4871      2527      2692
 -1     35812    3    0    3
 -2      4875      2033      2259      2254
 -1     35813    3    0    3
 -2      4875      2259      2452      2313
 -1     35814    3    0    3
 -2      2692      2691      2476      6246
 -1     35815    3    0    3
 -2      5436      4872      3758      3790
 -1     35816    3    0    3
 -2      4868      4875      3677      3733
 -1     35817    3    0    3
 -2      5439      4875      3703      3733
 -1     35818    3    0    3
 -2      2381      4872      2313      6716
 -1     35819    3    0    3
 -2      4875      4872      3703      3733
 -1     35820    3    0    3
 -2      2381      4861      2255      2343
 -1     35821    3    0    3
 -2      5436      3733      4872      3790
 -1     35822    3    0    3
 -2      4872      4874      2475      6582
 -1     35823    3    0    3
 -2      3703      4874      4872      6582
 -1     35824    3    0    3
 -2      6059      5398      3934      6060
 -1     35825    3    0    3
 -2      4866      4312      3764      5428
 -1     35826    3    0    3
 -2      5425      1629      5387      6264
 -1     35827    3    0    3
 -2      3790      4860      3844      5425
 -1     35828    3    0    3
 -2      3703      5439      3733      5436
 -1     35829    3    0    3
 -2      3758      5435      5436      3790
 -1     35830    3    0    3
 -2      2381      2343      2527      6704
 -1     35831    3    0    3
 -2      2255      2254      6701      6716
 -1     35832    3    0    3
 -2      3790      5436      3733      5426
 -1     35833    3    0    3
 -2      4877      3612      4878      3641
 -1     35834    3    0    3
 -2      4887       332      3353      6708
 -1     35835    3    0    3
 -2      4331      4891      3814      4892
 -1     35836    3    0    3
 -2      6130      2560      2681      2508
 -1     35837    3    0    3
 -2      4500      4151      3441      3645
 -1     35838    3    0    3
 -2      2631      6261      2711      4821
 -1     35839    3    0    3
 -2      5433      3677      4870      3645
 -1     35840    3    0    3
 -2      3547      5431      3328      3401
 -1     35841    3    0    3
 -2      6130      2560      6045      2681
 -1     35842    3    0    3
 -2      4867      4426      3417      4230
 -1     35843    3    0    3
 -2      4870      3677      3888      4500
 -1     35844    3    0    3
 -2      4891      3814      4890      4265
 -1     35845    3    0    3
 -2      3359      3814      4890      3399
 -1     35846    3    0    3
 -2      4887       332      1775       331
 -1     35847    3    0    3
 -2      4347      4876      4151      4500
 -1     35848    3    0    3
 -2      4151      3441      4347      4500
 -1     35849    3    0    3
 -2      6379      3675      4877      6084
 -1     35850    3    0    3
 -2      1891      3358       333       332
 -1     35851    3    0    3
 -2      4907      2116      6185      2123
 -1     35852    3    0    3
 -2       330      3420      1857      1906
 -1     35853    3    0    3
 -2      4870      3410      4426      3417
 -1     35854    3    0    3
 -2       329      3420      4869      1857
 -1     35855    3    0    3
 -2      4412      3358      3353      3360
 -1     35856    3    0    3
 -2      3581      4347      3799      4876
 -1     35857    3    0    3
 -2      4500      3888      4869      6703
 -1     35858    3    0    3
 -2      1962      1857      2033      6703
 -1     35859    3    0    3
 -2      4500      4876      3888      6703
 -1     35860    3    0    3
 -2      3410      4870      4426      4869
 -1     35861    3    0    3
 -2      3410      4870      3421      3417
 -1     35862    3    0    3
 -2      4864      3316      3416      3338
 -1     35863    3    0    3
 -2      2254      2381      2313      6716
 -1     35864    3    0    3
 -2      3318      5429       145      3319
 -1     35865    3    0    3
 -2      2320      4610      4659      4005
 -1     35866    3    0    3
 -2      3356      5466      3398      3349
 -1     35867    3    0    3
 -2      3338      4426      3410      3417
 -1     35868    3    0    3
 -2      2320      4610      4005      2577
 -1     35869    3    0    3
 -2      4347       331      3353      4887
 -1     35870    3    0    3
 -2      6054      2169      2299      6135
 -1     35871    3    0    3
 -2      6202      4096      4064      4608
 -1     35872    3    0    3
 -2      5433      4094      4459      5434
 -1     35873    3    0    3
 -2      4907      2116      2123      1767
 -1     35874    3    0    3
 -2      4907      2116      4905      6185
 -1     35875    3    0    3
 -2      4907      2116      1767      4905
 -1     35876    3    0    3
 -2      3359      3360      4412      3553
 -1     35877    3    0    3
 -2       332      1891      3358      6708
 -1     35878    3    0    3
 -2      4864      3417      3338      3416
 -1     35879    3    0    3
 -2      4890      1696      1891       333
 -1     35880    3    0    3
 -2      3426      3359      4067      3383
 -1     35881    3    0    3
 -2      3645      4307      4151      3440
 -1     35882    3    0    3
 -2      4323      5850      5016      5926
 -1     35883    3    0    3
 -2      4412      4887      3799      4888
 -1     35884    3    0    3
 -2      4887       332       331      3353
 -1     35885    3    0    3
 -2      3354      3353      4347      3352
 -1     35886    3    0    3
 -2      4347      3441      3354      3352
 -1     35887    3    0    3
 -2       151       152       767      3425
 -1     35888    3    0    3
 -2      4265      4890      4412      3359
 -1     35889    3    0    3
 -2      3354      4151      4347      4888
 -1     35890    3    0    3
 -2      2714      4834      4837      6214
 -1     35891    3    0    3
 -2      3553      3360      3354      3383
 -1     35892    3    0    3
 -2      4890      4265      4412      6708
 -1     35893    3    0    3
 -2      3352      4500      1906      4347
 -1     35894    3    0    3
 -2      1326      6306      1403      1502
 -1     35895    3    0    3
 -2      4887      3353      4412      6708
 -1     35896    3    0    3
 -2      3799      4412      4888      3553
 -1     35897    3    0    3
 -2      4890      4412      3358      6708
 -1     35898    3    0    3
 -2      4455      3414      4481      3351
 -1     35899    3    0    3
 -2      4412      4265      3359      4067
 -1     35900    3    0    3
 -2      3577      4883      3636      5447
 -1     35901    3    0    3
 -2      4864      3417      3416      4867
 -1     35902    3    0    3
 -2      1019      6288      5457      4491
 -1     35903    3    0    3
 -2      3389      3359      4039      3426
 -1     35904    3    0    3
 -2      6305      5335      6308      5333
 -1     35905    3    0    3
 -2      4888      4412      3360      3553
 -1     35906    3    0    3
 -2      5452      3378      3377      3379
 -1     35907    3    0    3
 -2      3360      3354      4888      3553
 -1     35908    3    0    3
 -2      5451      5452      4155      3379
 -1     35909    3    0    3
 -2      3490      4897      4898      3458
 -1     35910    3    0    3
 -2      1961      2268      4878      6296
 -1     35911    3    0    3
 -2      2629      2444      2318      4883
 -1     35912    3    0    3
 -2      3414      3591      3436      4455
 -1     35913    3    0    3
 -2      2094      5792      4981      2154
 -1     35914    3    0    3
 -2      5544      1086      6383       908
 -1     35915    3    0    3
 -2      5465      4455      4901      4481
 -1     35916    3    0    3
 -2        75      5070      1760      1761
 -1     35917    3    0    3
 -2      4902      4370      4974      4399
 -1     35918    3    0    3
 -2      3423       645       158       157
 -1     35919    3    0    3
 -2      4863      2185      3981      4859
 -1     35920    3    0    3
 -2      3591      3414      4481      4455
 -1     35921    3    0    3
 -2      3346      1750      5813      6564
 -1     35922    3    0    3
 -2      3389      4039      3814      4894
 -1     35923    3    0    3
 -2      3913      3423      5787      5771
 -1     35924    3    0    3
 -2       689       865       866      6207
 -1     35925    3    0    3
 -2      5541      4974      4370      4399
 -1     35926    3    0    3
 -2      4863      2185      4859      1964
 -1     35927    3    0    3
 -2      4900      2224      6573      6275
 -1     35928    3    0    3
 -2      3581      5442      5453      3755
 -1     35929    3    0    3
 -2      2063      1696      4891      2115
 -1     35930    3    0    3
 -2      4284      4507      4896      3654
 -1     35931    3    0    3
 -2      3389      3814      3399      3387
 -1     35932    3    0    3
 -2      4365      5456      3424      3426
 -1     35933    3    0    3
 -2      3412       336      3413      6562
 -1     35934    3    0    3
 -2       336      3412      1702      6562
 -1     35935    3    0    3
 -2       335      3412      1702       336
 -1     35936    3    0    3
 -2       338      1750      1860      5813
 -1     35937    3    0    3
 -2      4491      1019      3818      5457
 -1     35938    3    0    3
 -2      4478      4903      4424      5467
 -1     35939    3    0    3
 -2      4155      3425       767      5456
 -1     35940    3    0    3
 -2       553      4925      4334      4141
 -1     35941    3    0    3
 -2      1860      3345       339       338
 -1     35942    3    0    3
 -2      3420      4869      3410       329
 -1     35943    3    0    3
 -2      3553      3799      4412      4889
 -1     35944    3    0    3
 -2      1775      1961      4887      1906
 -1     35945    3    0    3
 -2      4323      5850      5807      5016
 -1     35946    3    0    3
 -2      3352      4500      3420      1906
 -1     35947    3    0    3
 -2       331      1775      4887      1906
 -1     35948    3    0    3
 -2       324      6717      3333      3370
 -1     35949    3    0    3
 -2      4426      4864      3338      6713
 -1     35950    3    0    3
 -2      3315      1701      4862      1700
 -1     35951    3    0    3
 -2       652      6639      5583      5754
 -1     35952    3    0    3
 -2      6379      3675      6084      4883
 -1     35953    3    0    3
 -2      1839      4856      3333      6717
 -1     35954    3    0    3
 -2      4864      1935      3512      4863
 -1     35955    3    0    3
 -2       327      4864      3316      1701
 -1     35956    3    0    3
 -2      4894      3387      4895      4892
 -1     35957    3    0    3
 -2      1266      1267      1255      6091
 -1     35958    3    0    3
 -2      2048      4284      4895      5741
 -1     35959    3    0    3
 -2      4889      4412      4265      6708
 -1     35960    3    0    3
 -2      4890      3399      1696       333
 -1     35961    3    0    3
 -2      5456      4365      3424      5458
 -1     35962    3    0    3
 -2       820      2762       246      2724
 -1     35963    3    0    3
 -2      2784      6751      5389      4049
 -1     35964    3    0    3
 -2      4284      1954      1702      6562
 -1     35965    3    0    3
 -2      4900      5784      6243      6752
 -1     35966    3    0    3
 -2      1696      3399       334       333
 -1     35967    3    0    3
 -2      4891      1696      4890      4892
 -1     35968    3    0    3
 -2      4892      4331      4891      2115
 -1     35969    3    0    3
 -2      2381      4872      4861      6704
 -1     35970    3    0    3
 -2      5439      4875      3677      3641
 -1     35971    3    0    3
 -2      3358      4890      1891       333
 -1     35972    3    0    3
 -2      2064      2227      2063      4889
 -1     35973    3    0    3
 -2      3799      6708      2064      4887
 -1     35974    3    0    3
 -2      1961      4887      2064      1775
 -1     35975    3    0    3
 -2      5868      6380      5514      3680
 -1     35976    3    0    3
 -2      5824      1351      1366      1240
 -1     35977    3    0    3
 -2      4491      5454      3994      5457
 -1     35978    3    0    3
 -2      3352      4500      4347      3441
 -1     35979    3    0    3
 -2      4323      5850      5926      5017
 -1     35980    3    0    3
 -2      4347      4887      1961      1906
 -1     35981    3    0    3
 -2      4323      5850      5017      5807
 -1     35982    3    0    3
 -2       331      3352       330      1906
 -1     35983    3    0    3
 -2      4859      3981      4861      2185
 -1     35984    3    0    3
 -2      3338      1784       328      6713
 -1     35985    3    0    3
 -2      3441      4870      3645      3421
 -1     35986    3    0    3
 -2      4426      3888      4868      6705
 -1     35987    3    0    3
 -2      2475      4874      2637      6582
 -1     35988    3    0    3
 -2      2384      4878      2268      6088
 -1     35989    3    0    3
 -2      4869       329      1857      1817
 -1     35990    3    0    3
 -2      2254      1934      2255      6701
 -1     35991    3    0    3
 -2       328      3410      3338      6713
 -1     35992    3    0    3
 -2      2313      2475      4872      2474
 -1     35993    3    0    3
 -2      3338      4864      3316       327
 -1     35994    3    0    3
 -2      2003      4856      4862      1700
 -1     35995    3    0    3
 -2      1817      3410       328      6713
 -1     35996    3    0    3
 -2      1784      3338       328       327
 -1     35997    3    0    3
 -2      6088      4878      2268      6296
 -1     35998    3    0    3
 -2       328      1784      1817      6713
 -1     35999    3    0    3
 -2      4426      3338      3410      6713
 -1     36000    3    0    3
 -2      4092      1701      4863      4862
 -1     36001    3    0    3
 -2      6296      1962      2259      6703
 -1     36002    3    0    3
 -2      4859      4861      3815      6224
 -1     36003    3    0    3
 -2      2255      1934      1935      6701
 -1     36004    3    0    3
 -2      3315      1701      1700       326
 -1     36005    3    0    3
 -2      6705      4869      1817      6713
 -1     36006    3    0    3
 -2      6703      3888      4869      6705
 -1     36007    3    0    3
 -2      1817      1784      1934      6713
 -1     36008    3    0    3
 -2      4864      1784      3338      6713
 -1     36009    3    0    3
 -2      3641      4878      6088      6296
 -1     36010    3    0    3
 -2      1934      2033      1817      6705
 -1     36011    3    0    3
 -2      3888      4875      4868      6705
 -1     36012    3    0    3
 -2      4872      2381      4861      6716
 -1     36013    3    0    3
 -2      3703      4877      4874      6582
 -1     36014    3    0    3
 -2      4871      4860      3790      6704
 -1     36015    3    0    3
 -2      4860      4871      2527      6704
 -1     36016    3    0    3
 -2      3329      4867      3401      3734
 -1     36017    3    0    3
 -2      3703      4875      4877      6582
 -1     36018    3    0    3
 -2      4871      4872      3758      6246
 -1     36019    3    0    3
 -2      2259      4875      2452      6088
 -1     36020    3    0    3
 -2      5663      5662      3624      5656
 -1     36021    3    0    3
 -2      2452      2467      2384      4877
 -1     36022    3    0    3
 -2      3335      4493      1888      3337
 -1     36023    3    0    3
 -2      2692      2476      2474      6246
 -1     36024    3    0    3
 -2      4426      4869      6705      6713
 -1     36025    3    0    3
 -2      2527      2343      4860      6704
 -1     36026    3    0    3
 -2      5743      1668      1604      1504
 -1     36027    3    0    3
 -2      4871      2564      4860      2527
 -1     36028    3    0    3
 -2      3716      5428      4288      3734
 -1     36029    3    0    3
 -2      2156      4423      2123      1969
 -1     36030    3    0    3
 -2      2512      4858      4860      2342
 -1     36031    3    0    3
 -2      4861      4859      2185      6224
 -1     36032    3    0    3
 -2      4871      2567      2564      2692
 -1     36033    3    0    3
 -2      4868      4861      3981      6701
 -1     36034    3    0    3
 -2      1934      2254      2033      6705
 -1     36035    3    0    3
 -2      4869      3888      4426      6705
 -1     36036    3    0    3
 -2      3356      5466      5787      3398
 -1     36037    3    0    3
 -2      3758      4874      4873      6246
 -1     36038    3    0    3
 -2      6685      2494      6691      2530
 -1     36039    3    0    3
 -2      6012      4813      4001      4814
 -1     36040    3    0    3
 -2      1668      5743      1604      6710
 -1     36041    3    0    3
 -2      4872      2313      2474      2381
 -1     36042    3    0    3
 -2      1935      4863      1701      1964
 -1     36043    3    0    3
 -2      2342      4858      4860      6224
 -1     36044    3    0    3
 -2      5761      5544      5542      6476
 -1     36045    3    0    3
 -2      4871      3758      4873      6246
 -1     36046    3    0    3
 -2      6012      4813      2471      6687
 -1     36047    3    0    3
 -2      2692      4871      2567      2691
 -1     36048    3    0    3
 -2      2691      2567      2659      6712
 -1     36049    3    0    3
 -2       872      3864      5485      6282
 -1     36050    3    0    3
 -2      4838      2630      2659      2477
 -1     36051    3    0    3
 -2       327      1784      4864      1701
 -1     36052    3    0    3
 -2      3315      1701       326      3316
 -1     36053    3    0    3
 -2      3815      4860      4858      6224
 -1     36054    3    0    3
 -2      2343      2527      4860      2528
 -1     36055    3    0    3
 -2      2343      4860      2342      2528
 -1     36056    3    0    3
 -2      4017      6461      4076      5186
 -1     36057    3    0    3
 -2      1014      5502      5501      3762
 -1     36058    3    0    3
 -2      3316       326       327      1701
 -1     36059    3    0    3
 -2      4858      2512      2513      2415
 -1     36060    3    0    3
 -2      4859      2003      1964      2184
 -1     36061    3    0    3
 -2       488        15       323      1730
 -1     36062    3    0    3
 -2      3356      5466      3349      4399
 -1     36063    3    0    3
 -2      6229      1729      3370      6717
 -1     36064    3    0    3
 -2      1839      1729      2002      6717
 -1     36065    3    0    3
 -2      3464      4856      4009      2003
 -1     36066    3    0    3
 -2      3464      4009      4855      2003
 -1     36067    3    0    3
 -2      1964      2185      4859      2184
 -1     36068    3    0    3
 -2      4856       325      1700      1839
 -1     36069    3    0    3
 -2      3315      3333      4857      3408
 -1     36070    3    0    3
 -2      2002      2055      6720      6099
 -1     36071    3    0    3
 -2       324      6717      3370      1729
 -1     36072    3    0    3
 -2      1839      3333       325       324
 -1     36073    3    0    3
 -2      3621      2289      4636      4091
 -1     36074    3    0    3
 -2      4004      6688      4429      5033
 -1     36075    3    0    3
 -2      4856      3315      4862      1700
 -1     36076    3    0    3
 -2      3315       325       326      1700
 -1     36077    3    0    3
 -2       325      3315      4856      1700
 -1     36078    3    0    3
 -2      2055      2002      6720      2298
 -1     36079    3    0    3
 -2      1549      6320      6321      5566
 -1     36080    3    0    3
 -2      2235      5999      6044      1951
 -1     36081    3    0    3
 -2      5459      3414      3351      4481
 -1     36082    3    0    3
 -2      2003      2297      4855      2002
 -1     36083    3    0    3
 -2       488      1781        15      1730
 -1     36084    3    0    3
 -2      4864      1935      4863      1701
 -1     36085    3    0    3
 -2      1700      2003      4856      1839
 -1     36086    3    0    3
 -2      4862      2003      1700      1964
 -1     36087    3    0    3
 -2      1729       323      3370       324
 -1     36088    3    0    3
 -2      3385      3370      4042      6229
 -1     36089    3    0    3
 -2      3464      3333      4856      6717
 -1     36090    3    0    3
 -2      1817      6703      4869      6705
 -1     36091    3    0    3
 -2       323      1729      3370      6229
 -1     36092    3    0    3
 -2      3849      4859      4858      6635
 -1     36093    3    0    3
 -2      2342      2184      4858      6224
 -1     36094    3    0    3
 -2      2184      4859      2003      6635
 -1     36095    3    0    3
 -2      4855      4859      3849      6635
 -1     36096    3    0    3
 -2      4859      4855      2003      6635
 -1     36097    3    0    3
 -2      4813      4609      2497      6685
 -1     36098    3    0    3
 -2      3849      4858      4854      6635
 -1     36099    3    0    3
 -2      4854      4858      2513      2415
 -1     36100    3    0    3
 -2      2184      2342      4858      2415
 -1     36101    3    0    3
 -2      2342      2512      4858      2415
 -1     36102    3    0    3
 -2      3464      4855      4042      6717
 -1     36103    3    0    3
 -2      4855      3464      2003      6717
 -1     36104    3    0    3
 -2      4855      3849      4854      6635
 -1     36105    3    0    3
 -2      4814      3976      4852      6698
 -1     36106    3    0    3
 -2      4658      4660      3945      6623
 -1     36107    3    0    3
 -2      5556      5818      5555      6611
 -1     36108    3    0    3
 -2      4585      6782      6565      4569
 -1     36109    3    0    3
 -2      2055      6720      6790      2298
 -1     36110    3    0    3
 -2      5818      5556      5555      3457
 -1     36111    3    0    3
 -2      2235      5999      1951      2172
 -1     36112    3    0    3
 -2      6607      6482      1872      6622
 -1     36113    3    0    3
 -2      2356      4852      4854      2298
 -1     36114    3    0    3
 -2      5061       536      4176      3969
 -1     36115    3    0    3
 -2      1817      6703      2033      1857
 -1     36116    3    0    3
 -2      6160      3919      5418      4337
 -1     36117    3    0    3
 -2      4864      1935      1701      1784
 -1     36118    3    0    3
 -2      4879      3753      4881      3699
 -1     36119    3    0    3
 -2      4898      2250      4897      3712
 -1     36120    3    0    3
 -2      3637      3943      5333      3609
 -1     36121    3    0    3
 -2      4071      4245       573      4442
 -1     36122    3    0    3
 -2      3591      3413      3414      3436
 -1     36123    3    0    3
 -2       338      3346       337      1750
 -1     36124    3    0    3
 -2      2232      2077      1916      4903
 -1     36125    3    0    3
 -2      4834      2480      5690      5692
 -1     36126    3    0    3
 -2      2314      2135      5674      6772
 -1     36127    3    0    3
 -2      3872      4836      4838      6080
 -1     36128    3    0    3
 -2      4908      2123      1805      4907
 -1     36129    3    0    3
 -2      5690      2469      2480      5712
 -1     36130    3    0    3
 -2      5704      4486      5004      5002
 -1     36131    3    0    3
 -2      6211      4833      6058      4831
 -1     36132    3    0    3
 -2      5712      5690      2469      6664
 -1     36133    3    0    3
 -2      2258      4819      2265      6215
 -1     36134    3    0    3
 -2      5690      5653      4833      5712
 -1     36135    3    0    3
 -2      5690      4833      6058      6664
 -1     36136    3    0    3
 -2      4179      5838      5762      1053
 -1     36137    3    0    3
 -2      5653      2717      2713      5654
 -1     36138    3    0    3
 -2      5653      4840      2717      5654
 -1     36139    3    0    3
 -2      2716      2713      2717      5654
 -1     36140    3    0    3
 -2      5841      1053      5838      1006
 -1     36141    3    0    3
 -2       926      5516      1236      5655
 -1     36142    3    0    3
 -2      1252      5517      5527      5655
 -1     36143    3    0    3
 -2      1252      1236      5517      5655
 -1     36144    3    0    3
 -2      3555      5517      5516      5655
 -1     36145    3    0    3
 -2      5517      5515      3584      5691
 -1     36146    3    0    3
 -2      1393      6007      1235      1349
 -1     36147    3    0    3
 -2      5715      5603      5918      5036
 -1     36148    3    0    3
 -2      5652       810       258       809
 -1     36149    3    0    3
 -2       990       927       807      5656
 -1     36150    3    0    3
 -2      4261      5731      5598      5658
 -1     36151    3    0    3
 -2       990       807       707      5656
 -1     36152    3    0    3
 -2      5662      5656      5731      6344
 -1     36153    3    0    3
 -2      5694      5658      1385      6344
 -1     36154    3    0    3
 -2      3182      6587      4348      6172
 -1     36155    3    0    3
 -2      3671      3834      3701      5329
 -1     36156    3    0    3
 -2      6066      1513      5385      1627
 -1     36157    3    0    3
 -2      1941      1793      1951      6044
 -1     36158    3    0    3
 -2      1905      2730       387      1783
 -1     36159    3    0    3
 -2      5999      4747      4081      6044
 -1     36160    3    0    3
 -2      5731      1375      5658      6344
 -1     36161    3    0    3
 -2      5037      1676      1684      5727
 -1     36162    3    0    3
 -2      3657      1039      3624      6344
 -1     36163    3    0    3
 -2      5604       807      5656      5663
 -1     36164    3    0    3
 -2      1876      4051      4970      4415
 -1     36165    3    0    3
 -2      5599      5694      1144      5693
 -1     36166    3    0    3
 -2      4050       859      5643      5644
 -1     36167    3    0    3
 -2      6077      6055      4107      5371
 -1     36168    3    0    3
 -2      5305      5308      1323      6062
 -1     36169    3    0    3
 -2      5386      1618      1613      6061
 -1     36170    3    0    3
 -2      1677      6692      5775      5776
 -1     36171    3    0    3
 -2      2531      4848      5699      2498
 -1     36172    3    0    3
 -2      5012      5010      4375      5660
 -1     36173    3    0    3
 -2      2336      5011      5010      5660
 -1     36174    3    0    3
 -2      5011      4375      5010      5660
 -1     36175    3    0    3
 -2      4375      5011      5013      5660
 -1     36176    3    0    3
 -2      3799      4347      1961      4876
 -1     36177    3    0    3
 -2      4347      3799      1961      4887
 -1     36178    3    0    3
 -2      4781      3795      3293      6262
 -1     36179    3    0    3
 -2       466      6228      6272      6273
 -1     36180    3    0    3
 -2      3513      5943      4782      6255
 -1     36181    3    0    3
 -2      5344      3578      3305      6265
 -1     36182    3    0    3
 -2      4753      4749      3800      3773
 -1     36183    3    0    3
 -2      6228      5345      6277      6278
 -1     36184    3    0    3
 -2      3793      4029      5492      4193
 -1     36185    3    0    3
 -2       814       777       867      5775
 -1     36186    3    0    3
 -2      3737      5534      3371      3672
 -1     36187    3    0    3
 -2      4597      1956      2238      5667
 -1     36188    3    0    3
 -2      5730      5603      5775      5776
 -1     36189    3    0    3
 -2        32      5644       577       546
 -1     36190    3    0    3
 -2      4515      6775      5567      5573
 -1     36191    3    0    3
 -2      5658      5600      5731      6344
 -1     36192    3    0    3
 -2       990      5656      1375       927
 -1     36193    3    0    3
 -2       256       807      1683      5663
 -1     36194    3    0    3
 -2      1670       256      1683      5663
 -1     36195    3    0    3
 -2      5656       990      1375      6344
 -1     36196    3    0    3
 -2      1670      3624       707      5663
 -1     36197    3    0    3
 -2       707       256      1670      5663
 -1     36198    3    0    3
 -2       707       807       256      5663
 -1     36199    3    0    3
 -2      2623      2705      2675      5664
 -1     36200    3    0    3
 -2      4786      3567      4789      5888
 -1     36201    3    0    3
 -2      2675      4776      2623      5664
 -1     36202    3    0    3
 -2      3625      4775      4776      5664
 -1     36203    3    0    3
 -2      4775      2623      4776      5664
 -1     36204    3    0    3
 -2       908      5612       823      5611
 -1     36205    3    0    3
 -2       110       258      1692      5665
 -1     36206    3    0    3
 -2       110       810       258      5665
 -1     36207    3    0    3
 -2      5651       810       110      5665
 -1     36208    3    0    3
 -2      1931      5074      2011      1798
 -1     36209    3    0    3
 -2      4414      4050      5644      5666
 -1     36210    3    0    3
 -2      5644      5647      4414      5666
 -1     36211    3    0    3
 -2      3546      4317      3769      5130
 -1     36212    3    0    3
 -2      1178      1169       878      5666
 -1     36213    3    0    3
 -2       878      5596      1178      5666
 -1     36214    3    0    3
 -2      5783      4364      5596      6362
 -1     36215    3    0    3
 -2      1378      1178      1384      5765
 -1     36216    3    0    3
 -2      5694      6718      5599      1144
 -1     36217    3    0    3
 -2      5666      1178      1169      5765
 -1     36218    3    0    3
 -2      1983      1957      2266      6537
 -1     36219    3    0    3
 -2      4591      4595      4279      6537
 -1     36220    3    0    3
 -2      5552      1490      1556      1470
 -1     36221    3    0    3
 -2      4603      4597      2238      5667
 -1     36222    3    0    3
 -2      5033      4214      4186      5668
 -1     36223    3    0    3
 -2      2859      1820      5017      1728
 -1     36224    3    0    3
 -2      5037      4376      4186      5668
 -1     36225    3    0    3
 -2      2372      2100      5725      5739
 -1     36226    3    0    3
 -2      5029      2261      6754      5745
 -1     36227    3    0    3
 -2      2261      5029      6754      5752
 -1     36228    3    0    3
 -2      6246      6222      2699      2637
 -1     36229    3    0    3
 -2      5683      4486      5568      5566
 -1     36230    3    0    3
 -2      5282      1381      1120      1241
 -1     36231    3    0    3
 -2      3836      5411      5412      6675
 -1     36232    3    0    3
 -2      5443      1366      1501      5848
 -1     36233    3    0    3
 -2      6283      6256      5446      6297
 -1     36234    3    0    3
 -2       518      3776      4450      5639
 -1     36235    3    0    3
 -2      5401      3836      5412      6675
 -1     36236    3    0    3
 -2      5414      5445      3753      5824
 -1     36237    3    0    3
 -2      1581      1483      5401      6082
 -1     36238    3    0    3
 -2      5401      1483      5848      6082
 -1     36239    3    0    3
 -2      5848      1483      1501      6082
 -1     36240    3    0    3
 -2      1581      5437      1609      6082
 -1     36241    3    0    3
 -2      5437      5443      5670      6082
 -1     36242    3    0    3
 -2      5414      5671      5412      5842
 -1     36243    3    0    3
 -2      5400      3836      5401      6675
 -1     36244    3    0    3
 -2      5842      5413      5414      5851
 -1     36245    3    0    3
 -2      1399      1412      5411      5840
 -1     36246    3    0    3
 -2      5401      5412      1444      6675
 -1     36247    3    0    3
 -2      5552      1490      1470      1338
 -1     36248    3    0    3
 -2      6709      5676      4849      6711
 -1     36249    3    0    3
 -2      2413      2386      2477      6711
 -1     36250    3    0    3
 -2      5672      4879      3785      6711
 -1     36251    3    0    3
 -2      3785      4879      4849      6711
 -1     36252    3    0    3
 -2      4897      2368      2338      2367
 -1     36253    3    0    3
 -2      5558      1490      5552      5673
 -1     36254    3    0    3
 -2      1490      5558      5552      1556
 -1     36255    3    0    3
 -2      1517      1608      1602      6404
 -1     36256    3    0    3
 -2      4851      1968      4423      5679
 -1     36257    3    0    3
 -2      2378      6770      2444      2600
 -1     36258    3    0    3
 -2       601       728       547        51
 -1     36259    3    0    3
 -2      4883      3636      4880      6245
 -1     36260    3    0    3
 -2      2318      2192      6249      6266
 -1     36261    3    0    3
 -2      5674      4880      4882      6245
 -1     36262    3    0    3
 -2      4882      4880      3636      6245
 -1     36263    3    0    3
 -2      6266      3577      4883      3636
 -1     36264    3    0    3
 -2      4840      6234      2717      5687
 -1     36265    3    0    3
 -2      2458      4838      2462      5696
 -1     36266    3    0    3
 -2      4838      2458      4849      5696
 -1     36267    3    0    3
 -2      4195      3876      4841      4828
 -1     36268    3    0    3
 -2      4838      4849      3836      5696
 -1     36269    3    0    3
 -2      2228      4851      1940      5682
 -1     36270    3    0    3
 -2      6772      4880      4882      5674
 -1     36271    3    0    3
 -2      2412      2155      2413      5676
 -1     36272    3    0    3
 -2      3027      4807      1836      1744
 -1     36273    3    0    3
 -2      4807      3027      1836      6766
 -1     36274    3    0    3
 -2      1968      2156      4423      5679
 -1     36275    3    0    3
 -2      4268      4016      4071       572
 -1     36276    3    0    3
 -2      2380      5030      2310      5677
 -1     36277    3    0    3
 -2      6795      6608      2008      4853
 -1     36278    3    0    3
 -2      2433      6801      4985      2490
 -1     36279    3    0    3
 -2      4429      5032      5033      6688
 -1     36280    3    0    3
 -2      5677      4261      5030      5738
 -1     36281    3    0    3
 -2      4261      5033      5032      5738
 -1     36282    3    0    3
 -2      5677      5033      4261      5738
 -1     36283    3    0    3
 -2      1691      5604       807      6692
 -1     36284    3    0    3
 -2      4984      2425      2426      5860
 -1     36285    3    0    3
 -2      5654      2464      2716      2714
 -1     36286    3    0    3
 -2      2521      4990      2432      5836
 -1     36287    3    0    3
 -2      4993      4992      5800      3704
 -1     36288    3    0    3
 -2      4991      2521      2430      5836
 -1     36289    3    0    3
 -2      5654      2464      2714      5844
 -1     36290    3    0    3
 -2      4992      3704      4377      5800
 -1     36291    3    0    3
 -2      4992      4377      2040      5800
 -1     36292    3    0    3
 -2      5817      2270      4983      2433
 -1     36293    3    0    3
 -2      4879      6772      2387      2481
 -1     36294    3    0    3
 -2      6772      4879      2387      5680
 -1     36295    3    0    3
 -2      6730      2253      2070      2069
 -1     36296    3    0    3
 -2      6730      2253      5033      5677
 -1     36297    3    0    3
 -2      5674      2135      2134      6677
 -1     36298    3    0    3
 -2      6677      5674      2135      6772
 -1     36299    3    0    3
 -2      5817      2270      2433      2140
 -1     36300    3    0    3
 -2      5817      2270      5856      4983
 -1     36301    3    0    3
 -2      3361      1727      3343       343
 -1     36302    3    0    3
 -2      2135      2387      5680      6772
 -1     36303    3    0    3
 -2      2314      2481      2387      6772
 -1     36304    3    0    3
 -2      5350      5356      1543      5681
 -1     36305    3    0    3
 -2      5350      3619      5356      5681
 -1     36306    3    0    3
 -2      5325      5356      3619      5681
 -1     36307    3    0    3
 -2      1543      5356      5325      5681
 -1     36308    3    0    3
 -2      3940      3530      4851      5682
 -1     36309    3    0    3
 -2      1940      4851      3530      5682
 -1     36310    3    0    3
 -2      5680      4881      4879      6709
 -1     36311    3    0    3
 -2      3753      4879      4881      6709
 -1     36312    3    0    3
 -2      5799      1669      5556      6710
 -1     36313    3    0    3
 -2      4026      6271      4818      6632
 -1     36314    3    0    3
 -2       987      5599      3742      5666
 -1     36315    3    0    3
 -2      5599       987      3742      5693
 -1     36316    3    0    3
 -2      4849      4879      3753      6709
 -1     36317    3    0    3
 -2      1549      1548      1599      5683
 -1     36318    3    0    3
 -2      3469      5568      5566      5886
 -1     36319    3    0    3
 -2      1548      1641      1599      5683
 -1     36320    3    0    3
 -2      1641      5568      1599      5683
 -1     36321    3    0    3
 -2      4233      6555      6122      5148
 -1     36322    3    0    3
 -2      1641      1600      5568      6661
 -1     36323    3    0    3
 -2      4799      4800      2406      6340
 -1     36324    3    0    3
 -2      5745      5026      6754      4364
 -1     36325    3    0    3
 -2      5746      4393      5026      5906
 -1     36326    3    0    3
 -2      4991      2521      5860      5837
 -1     36327    3    0    3
 -2      5549      5550      3611      3871
 -1     36328    3    0    3
 -2      2425      4984      4990      5860
 -1     36329    3    0    3
 -2      3868      5413      5410      5685
 -1     36330    3    0    3
 -2      4984      2425      4990      6758
 -1     36331    3    0    3
 -2      4807      1744      3027      6680
 -1     36332    3    0    3
 -2      5410      4847      3868      5685
 -1     36333    3    0    3
 -2      3076      4593      6494      6536
 -1     36334    3    0    3
 -2      4837      4835      3872      6080
 -1     36335    3    0    3
 -2      2463      2464      2546      5686
 -1     36336    3    0    3
 -2      2462      4837      2464      6714
 -1     36337    3    0    3
 -2      2738       826      5473      2746
 -1     36338    3    0    3
 -2      5686      4840      4848      5844
 -1     36339    3    0    3
 -2      5700      6057      6323      5881
 -1     36340    3    0    3
 -2      2601      6685      2487      2497
 -1     36341    3    0    3
 -2      5700      6057      5389      5861
 -1     36342    3    0    3
 -2      2601      6685      2497      4609
 -1     36343    3    0    3
 -2      1970      2707      2469      5712
 -1     36344    3    0    3
 -2      4842      4035      2122      5687
 -1     36345    3    0    3
 -2      4137      4035      4842      5687
 -1     36346    3    0    3
 -2      6362      4417      5595      5742
 -1     36347    3    0    3
 -2      2076      2649      2122      5698
 -1     36348    3    0    3
 -2      5811      2119      3851      4984
 -1     36349    3    0    3
 -2      6075      4056      5383      4023
 -1     36350    3    0    3
 -2      5564      4997      4446      4474
 -1     36351    3    0    3
 -2      6213      3966      4823      6674
 -1     36352    3    0    3
 -2      4144       954      5694      5693
 -1     36353    3    0    3
 -2       992      6009      5514      6741
 -1     36354    3    0    3
 -2      4434      5572      5570      5689
 -1     36355    3    0    3
 -2      5644        33       546        32
 -1     36356    3    0    3
 -2      1506      5689      1335      1334
 -1     36357    3    0    3
 -2      5015      5891      5016      5921
 -1     36358    3    0    3
 -2      5572      5571      4403      5889
 -1     36359    3    0    3
 -2      2446      2325      2264      6058
 -1     36360    3    0    3
 -2      4833      4831      3993      6058
 -1     36361    3    0    3
 -2      4833      3993      5690      6058
 -1     36362    3    0    3
 -2      2479      2480      2658      5692
 -1     36363    3    0    3
 -2      6215      2258      4819      6681
 -1     36364    3    0    3
 -2      4053      4831      4833      6211
 -1     36365    3    0    3
 -2      2469      6058      2446      6664
 -1     36366    3    0    3
 -2      2480      4834      2658      5692
 -1     36367    3    0    3
 -2      3993      4834      4833      5690
 -1     36368    3    0    3
 -2       992      1229       925      5691
 -1     36369    3    0    3
 -2      1229      5515      5691      6741
 -1     36370    3    0    3
 -2      5513      3365       805      6018
 -1     36371    3    0    3
 -2      1208      6235      1099      1272
 -1     36372    3    0    3
 -2      1401      6035      1527      1400
 -1     36373    3    0    3
 -2       805       690       925      6018
 -1     36374    3    0    3
 -2      3665      3365      4198      6018
 -1     36375    3    0    3
 -2      5516      3665      4198      6018
 -1     36376    3    0    3
 -2       807       927      6692      5656
 -1     36377    3    0    3
 -2      3934      4835      4837      6214
 -1     36378    3    0    3
 -2      5838      3848       648      5474
 -1     36379    3    0    3
 -2      4837      4834      3934      6214
 -1     36380    3    0    3
 -2      2498      5675      4848      5699
 -1     36381    3    0    3
 -2      4144      3657      5600      5694
 -1     36382    3    0    3
 -2      2458      6711      4849      2413
 -1     36383    3    0    3
 -2      4222      5712      5703      4833
 -1     36384    3    0    3
 -2      2458      6711      2477      4838
 -1     36385    3    0    3
 -2       954      1385      3657      5694
 -1     36386    3    0    3
 -2      5693      1144       954      5694
 -1     36387    3    0    3
 -2      1144      1385       954      5694
 -1     36388    3    0    3
 -2      2458      6711      2413      2477
 -1     36389    3    0    3
 -2      5658      1385      1144      5694
 -1     36390    3    0    3
 -2      6358      5589      4349      6776
 -1     36391    3    0    3
 -2      6358      4349      5579      6621
 -1     36392    3    0    3
 -2      1333      6358      6621      6776
 -1     36393    3    0    3
 -2      1329      1328      1475      6616
 -1     36394    3    0    3
 -2      1601      1362      1413      6343
 -1     36395    3    0    3
 -2      5591      1475      1328      6616
 -1     36396    3    0    3
 -2      5695      4321      5592      6616
 -1     36397    3    0    3
 -2      6103      6119      4229      5159
 -1     36398    3    0    3
 -2      4848      3836      4849      5696
 -1     36399    3    0    3
 -2      4776      4774      3599      5697
 -1     36400    3    0    3
 -2      4774      4777      3599      5697
 -1     36401    3    0    3
 -2      2544      2524      4777      5697
 -1     36402    3    0    3
 -2      4774      2544      4777      5697
 -1     36403    3    0    3
 -2      2542      2544      4774      5697
 -1     36404    3    0    3
 -2      2524      2544      2542      5697
 -1     36405    3    0    3
 -2      5687      4137      4035      5698
 -1     36406    3    0    3
 -2      4035      4137      4847      5698
 -1     36407    3    0    3
 -2      5687      4035      2122      5698
 -1     36408    3    0    3
 -2      2076      2122      4035      5698
 -1     36409    3    0    3
 -2      5687      4840      4137      5698
 -1     36410    3    0    3
 -2      4840      4847      4137      5698
 -1     36411    3    0    3
 -2      2156      2498      2123      5699
 -1     36412    3    0    3
 -2      4850      4423      2123      5699
 -1     36413    3    0    3
 -2      5679      4423      4850      5699
 -1     36414    3    0    3
 -2      5679      2156      4423      5699
 -1     36415    3    0    3
 -2      4050       859      5596      5702
 -1     36416    3    0    3
 -2      5700      4053      4020      6072
 -1     36417    3    0    3
 -2      4053      5700      4020      5396
 -1     36418    3    0    3
 -2      6050      2720      2725       459
 -1     36419    3    0    3
 -2      2209      5989      6212      2110
 -1     36420    3    0    3
 -2      5465      4507      4901      4478
 -1     36421    3    0    3
 -2      2739      2766      3521      5861
 -1     36422    3    0    3
 -2      6213      3966      6674      4832
 -1     36423    3    0    3
 -2      5397      1639      1637      6071
 -1     36424    3    0    3
 -2      5858      1015      1659      5859
 -1     36425    3    0    3
 -2      6211      5814      4083      4825
 -1     36426    3    0    3
 -2      5700      3933      5396      5859
 -1     36427    3    0    3
 -2      2756      1809      5701      6238
 -1     36428    3    0    3
 -2      2757      5880      5389      6751
 -1     36429    3    0    3
 -2      6350      6319      3449      5364
 -1     36430    3    0    3
 -2       458      2720       394      6665
 -1     36431    3    0    3
 -2      4718      4719      4040      4246
 -1     36432    3    0    3
 -2      4816      2710      6669      2627
 -1     36433    3    0    3
 -2      5384      1666      6008      1628
 -1     36434    3    0    3
 -2      4833      6211      6058      6664
 -1     36435    3    0    3
 -2      5643      3643      5640      5702
 -1     36436    3    0    3
 -2      5643      5640      1032      5702
 -1     36437    3    0    3
 -2      3643      5643      4050      5702
 -1     36438    3    0    3
 -2      6213      3966      4835      4823
 -1     36439    3    0    3
 -2      6213      3966      4832      4835
 -1     36440    3    0    3
 -2      5675      2156      5679      5699
 -1     36441    3    0    3
 -2      5704      5001      2554      2590
 -1     36442    3    0    3
 -2      5675      2155      5679      2156
 -1     36443    3    0    3
 -2      5704      5001      2590      5004
 -1     36444    3    0    3
 -2      5701      1919      1980      6664
 -1     36445    3    0    3
 -2      5703      5701      4826      6664
 -1     36446    3    0    3
 -2      4267      5716      4240      5025
 -1     36447    3    0    3
 -2      2707      5653      5712      6234
 -1     36448    3    0    3
 -2      4222      4827      3825      5703
 -1     36449    3    0    3
 -2      4222      3825      4826      5703
 -1     36450    3    0    3
 -2      5644        33      5643       546
 -1     36451    3    0    3
 -2      2682      2532      2533      6025
 -1     36452    3    0    3
 -2      2801      5014      2862      5867
 -1     36453    3    0    3
 -2      1946      5828      2050      2136
 -1     36454    3    0    3
 -2      5991      2540      4799      5993
 -1     36455    3    0    3
 -2      2522      5706      2453      2594
 -1     36456    3    0    3
 -2      5827      2703      5007      5899
 -1     36457    3    0    3
 -2      6238      2760      2756      2734
 -1     36458    3    0    3
 -2      2590      2589      2554      5704
 -1     36459    3    0    3
 -2      2590      5004      2589      5704
 -1     36460    3    0    3
 -2      2664      2595      2540      5991
 -1     36461    3    0    3
 -2      5705      5002      4999      5810
 -1     36462    3    0    3
 -2      6238      2760      3825      4826
 -1     36463    3    0    3
 -2      1946      5828      2136      5896
 -1     36464    3    0    3
 -2      2547      5710      4617      6618
 -1     36465    3    0    3
 -2      2547      5710      2656      2539
 -1     36466    3    0    3
 -2      2522      5706      6258      2453
 -1     36467    3    0    3
 -2      2523      4777      2331      5953
 -1     36468    3    0    3
 -2      3513      4772      4782      5945
 -1     36469    3    0    3
 -2      5708      4771      2594      5953
 -1     36470    3    0    3
 -2      2331      4777      2524      5970
 -1     36471    3    0    3
 -2      5940      2875      6274      2805
 -1     36472    3    0    3
 -2      5925      2163      5945      6253
 -1     36473    3    0    3
 -2      6251      2422      5924      6258
 -1     36474    3    0    3
 -2      1967      1966      2198      5865
 -1     36475    3    0    3
 -2      2410      4790      4789      5969
 -1     36476    3    0    3
 -2      2028      4784      1967      5973
 -1     36477    3    0    3
 -2      2197      4780      2028      5973
 -1     36478    3    0    3
 -2      5706      4771      2594      5708
 -1     36479    3    0    3
 -2      4772      5924      6251      4770
 -1     36480    3    0    3
 -2      5924      4772      6251      6258
 -1     36481    3    0    3
 -2      4770      4044      5924      6251
 -1     36482    3    0    3
 -2      5448      6218      5450      3518
 -1     36483    3    0    3
 -2      6070      1170      1315      6064
 -1     36484    3    0    3
 -2      2603      2607      2345      5735
 -1     36485    3    0    3
 -2      5021      4341      5027      5917
 -1     36486    3    0    3
 -2      2607      2662      5021      6367
 -1     36487    3    0    3
 -2       885      1142      6005      6729
 -1     36488    3    0    3
 -2      5677      2310      2253      5738
 -1     36489    3    0    3
 -2      4974      2202      2160      2082
 -1     36490    3    0    3
 -2      4623      2361      2656      5710
 -1     36491    3    0    3
 -2      2656      2361      2539      5710
 -1     36492    3    0    3
 -2      5856      4958      1887      4493
 -1     36493    3    0    3
 -2      5856      4958      2104      1887
 -1     36494    3    0    3
 -2       927      5730      6692      5656
 -1     36495    3    0    3
 -2      1755      4591      1983      5711
 -1     36496    3    0    3
 -2      1984      1755      1983      5711
 -1     36497    3    0    3
 -2      1984      2194      2086      6644
 -1     36498    3    0    3
 -2      5816      4284      6562      1954
 -1     36499    3    0    3
 -2      3044      3057      3042      6649
 -1     36500    3    0    3
 -2      1858      4591      1755      6649
 -1     36501    3    0    3
 -2      2707      2717      5653      6234
 -1     36502    3    0    3
 -2      2480      4834      5690      5653
 -1     36503    3    0    3
 -2      5704      5001      5810      2554
 -1     36504    3    0    3
 -2      4839      3876      4222      6234
 -1     36505    3    0    3
 -2      6064       891      1170      1171
 -1     36506    3    0    3
 -2      4267      5716      5902      5035
 -1     36507    3    0    3
 -2      6754      2261      2404      5745
 -1     36508    3    0    3
 -2      5663      5662      5604      3838
 -1     36509    3    0    3
 -2      4347       331      4887      1906
 -1     36510    3    0    3
 -2      5037      1684      1688      5727
 -1     36511    3    0    3
 -2      5037      1688      5713      5727
 -1     36512    3    0    3
 -2      4600      6499      4599      2652
 -1     36513    3    0    3
 -2      5604      4186      4214      5727
 -1     36514    3    0    3
 -2      5728      1684      5727      1688
 -1     36515    3    0    3
 -2      5716      2095      2277      2103
 -1     36516    3    0    3
 -2      4186      5037      5668      5727
 -1     36517    3    0    3
 -2      6452      4021      3991      5181
 -1     36518    3    0    3
 -2      4623      6595      2587      4620
 -1     36519    3    0    3
 -2      1456      1457      5714      6070
 -1     36520    3    0    3
 -2      1315      1457      1456      6070
 -1     36521    3    0    3
 -2      1591      1456      1458      6188
 -1     36522    3    0    3
 -2      5224       732      6467      6465
 -1     36523    3    0    3
 -2      5714      1458      1456      6188
 -1     36524    3    0    3
 -2       732      5224      6467      6157
 -1     36525    3    0    3
 -2      4995      2619      2617      4989
 -1     36526    3    0    3
 -2      5713       289      5715      5728
 -1     36527    3    0    3
 -2       289       288      5713      5715
 -1     36528    3    0    3
 -2       289      2830       288      5715
 -1     36529    3    0    3
 -2      6000      6658      5979      6005
 -1     36530    3    0    3
 -2      2186      2187      5025      5902
 -1     36531    3    0    3
 -2      5749      5031      2380      5750
 -1     36532    3    0    3
 -2      1093      5726      1094      6475
 -1     36533    3    0    3
 -2      5717      5668      5037      5739
 -1     36534    3    0    3
 -2      5716      5036      5031      5725
 -1     36535    3    0    3
 -2      5031      4214      5033      5739
 -1     36536    3    0    3
 -2      1709      1865       282      5718
 -1     36537    3    0    3
 -2      5728      1684      5604      5727
 -1     36538    3    0    3
 -2      2069      3507      1824      6730
 -1     36539    3    0    3
 -2      5717      2100      5739      6774
 -1     36540    3    0    3
 -2      1687      5037      1688      5713
 -1     36541    3    0    3
 -2      1709       282       287      5718
 -1     36542    3    0    3
 -2      4289      5599      5032      4316
 -1     36543    3    0    3
 -2      5803      2307      2308      5022
 -1     36544    3    0    3
 -2      5727      5036      5739      4214
 -1     36545    3    0    3
 -2      5739      5727      5037      5713
 -1     36546    3    0    3
 -2      3482      5837      5862      4991
 -1     36547    3    0    3
 -2      6415      1071      1072      1080
 -1     36548    3    0    3
 -2      6192      5661      3545      6260
 -1     36549    3    0    3
 -2       672      6077      6034       921
 -1     36550    3    0    3
 -2      5716      4293      5025      5750
 -1     36551    3    0    3
 -2      1504      6707      1604      5743
 -1     36552    3    0    3
 -2      1504      6707      5743      6767
 -1     36553    3    0    3
 -2      3136       671       222      6746
 -1     36554    3    0    3
 -2       671      5087      6545      6746
 -1     36555    3    0    3
 -2      6142      1409      1408      6557
 -1     36556    3    0    3
 -2      2988      3595      3623      2985
 -1     36557    3    0    3
 -2      5145      4292      5142      6557
 -1     36558    3    0    3
 -2      6122      1655      1661      5151
 -1     36559    3    0    3
 -2       670       956      1066      6548
 -1     36560    3    0    3
 -2      5720       884      4359      5721
 -1     36561    3    0    3
 -2       884      1070      4359      5721
 -1     36562    3    0    3
 -2      2240      6566      2260      2389
 -1     36563    3    0    3
 -2      6142      6545      5140      6771
 -1     36564    3    0    3
 -2       493      1879      1772      4928
 -1     36565    3    0    3
 -2      5722      2831      2838      6797
 -1     36566    3    0    3
 -2      2838      4189      2815      5722
 -1     36567    3    0    3
 -2      6679      5602      5722      6686
 -1     36568    3    0    3
 -2      6699       786      1009       814
 -1     36569    3    0    3
 -2      6330      5918      5035      5716
 -1     36570    3    0    3
 -2      5923      5015      2866      5812
 -1     36571    3    0    3
 -2      4122      4621      4590      6641
 -1     36572    3    0    3
 -2      4619      2670      2704      5723
 -1     36573    3    0    3
 -2      2669      2704      2670      5723
 -1     36574    3    0    3
 -2      5176      3660      4338      6444
 -1     36575    3    0    3
 -2      5176      4080      4105      6129
 -1     36576    3    0    3
 -2      1118       984       892      6444
 -1     36577    3    0    3
 -2      5179      5181      4021      5724
 -1     36578    3    0    3
 -2      4004      6688      5033      2069
 -1     36579    3    0    3
 -2      5182      5180      4021      6441
 -1     36580    3    0    3
 -2      4021      5179      5724      6441
 -1     36581    3    0    3
 -2      5180      5179      4021      6441
 -1     36582    3    0    3
 -2      6447      6441      1096      6448
 -1     36583    3    0    3
 -2      2069      5033      3507      6730
 -1     36584    3    0    3
 -2      3076      6494      3077      6536
 -1     36585    3    0    3
 -2      4225      6503      4255      5157
 -1     36586    3    0    3
 -2      3482      5837      4991      3542
 -1     36587    3    0    3
 -2      2380      2277      2411      5750
 -1     36588    3    0    3
 -2      5851      5413      3848      6800
 -1     36589    3    0    3
 -2      2498      5675      5699      2156
 -1     36590    3    0    3
 -2      4004      6688      2069      5082
 -1     36591    3    0    3
 -2      3935      1922      5782      5786
 -1     36592    3    0    3
 -2      3076      6494      6651      3050
 -1     36593    3    0    3
 -2      5803      2274      5025      2187
 -1     36594    3    0    3
 -2      3076      6494      3050      3077
 -1     36595    3    0    3
 -2      5803      2274      2187      2308
 -1     36596    3    0    3
 -2      5189      1093       999      6475
 -1     36597    3    0    3
 -2      5668      4214      4186      5727
 -1     36598    3    0    3
 -2      5079      1825      5078      1930
 -1     36599    3    0    3
 -2      5730      5656      5731      5776
 -1     36600    3    0    3
 -2      5727      1688      5713      5728
 -1     36601    3    0    3
 -2      5775       777      6334      6764
 -1     36602    3    0    3
 -2      2871      2815      2851      6686
 -1     36603    3    0    3
 -2      3507      5082      4004      2069
 -1     36604    3    0    3
 -2      3482      5837      3542      4985
 -1     36605    3    0    3
 -2      5603      5036      4240      5918
 -1     36606    3    0    3
 -2      5715      5036      5713      5728
 -1     36607    3    0    3
 -2      3482      5837      4985      5862
 -1     36608    3    0    3
 -2      4214      5036      5603      5728
 -1     36609    3    0    3
 -2      4214      5662      5604      5776
 -1     36610    3    0    3
 -2      5603      4214      5728      5776
 -1     36611    3    0    3
 -2      4186      5604      4214      5662
 -1     36612    3    0    3
 -2      5305      5304      4115      6390
 -1     36613    3    0    3
 -2      1245       928      5305      5729
 -1     36614    3    0    3
 -2      5312      5729      6397      6400
 -1     36615    3    0    3
 -2      1623      1439      6369      1436
 -1     36616    3    0    3
 -2      5598      1375      5658      5731
 -1     36617    3    0    3
 -2      3624       990      1039       707
 -1     36618    3    0    3
 -2      1375      5598      5730      5731
 -1     36619    3    0    3
 -2      5662      4214      5600      5731
 -1     36620    3    0    3
 -2      1003       927      1375      5730
 -1     36621    3    0    3
 -2      5730      5598      5603      5731
 -1     36622    3    0    3
 -2      6073      5859      6071      1438
 -1     36623    3    0    3
 -2      5847      1242      6346      5580
 -1     36624    3    0    3
 -2      5847      1242      1002      6346
 -1     36625    3    0    3
 -2      6185      2096      6257      6259
 -1     36626    3    0    3
 -2      5903      2867      2812      5919
 -1     36627    3    0    3
 -2      2871      2831      5722      6679
 -1     36628    3    0    3
 -2       747       279      2871      6679
 -1     36629    3    0    3
 -2      5602      5722      5732      6679
 -1     36630    3    0    3
 -2      5732      5903      6797      5035
 -1     36631    3    0    3
 -2      6624       747      5602      6679
 -1     36632    3    0    3
 -2      5722      2815      2871      6686
 -1     36633    3    0    3
 -2      3733      6716      4872      4861
 -1     36634    3    0    3
 -2      4816      2513      4854      6700
 -1     36635    3    0    3
 -2      5030      2603      5917      5749
 -1     36636    3    0    3
 -2      5733      1821      1833      5903
 -1     36637    3    0    3
 -2      1833      2811      5034      5903
 -1     36638    3    0    3
 -2      1833      5034      5733      5903
 -1     36639    3    0    3
 -2      2859      1820      2839      5017
 -1     36640    3    0    3
 -2      2613      6271      2565      2640
 -1     36641    3    0    3
 -2      1882      6666      5737      6793
 -1     36642    3    0    3
 -2      6404      5556      6611      6707
 -1     36643    3    0    3
 -2      4960      4983      3611      3822
 -1     36644    3    0    3
 -2      1413      1362      1391      6725
 -1     36645    3    0    3
 -2      1142       885      6005       886
 -1     36646    3    0    3
 -2      2953       751       640       210
 -1     36647    3    0    3
 -2      5803      2187      2398      2308
 -1     36648    3    0    3
 -2      5032      4316      5030      5736
 -1     36649    3    0    3
 -2      5027      5030      4316      5736
 -1     36650    3    0    3
 -2      5709      2248      2249      5736
 -1     36651    3    0    3
 -2      2249      5029      5709      5736
 -1     36652    3    0    3
 -2      5027      4316      5029      5736
 -1     36653    3    0    3
 -2      3071      3073      3072      6267
 -1     36654    3    0    3
 -2      5737      1881      1882      6670
 -1     36655    3    0    3
 -2      6573      6752      4900      4898
 -1     36656    3    0    3
 -2      6050      5814      4825      6666
 -1     36657    3    0    3
 -2      3561      3236      3178      4661
 -1     36658    3    0    3
 -2      1881      1981      1982      5737
 -1     36659    3    0    3
 -2      2613      6271      6796      6632
 -1     36660    3    0    3
 -2      6670      5737      3063      6793
 -1     36661    3    0    3
 -2      6050      4132      6666      6793
 -1     36662    3    0    3
 -2      4841      4839      3520      3876
 -1     36663    3    0    3
 -2      5817      3576      4985      4983
 -1     36664    3    0    3
 -2      5032      5030      4261      5738
 -1     36665    3    0    3
 -2      5677      5030      2310      5738
 -1     36666    3    0    3
 -2      5030      5032      5736      5738
 -1     36667    3    0    3
 -2      5736      2310      5030      5738
 -1     36668    3    0    3
 -2      5736      2248      2310      5738
 -1     36669    3    0    3
 -2      2248      2263      2310      5738
 -1     36670    3    0    3
 -2      6023      2638      2532      2557
 -1     36671    3    0    3
 -2      2433      6801      2490      2491
 -1     36672    3    0    3
 -2      5713      1709       287      5718
 -1     36673    3    0    3
 -2      5728      1684      1680      5604
 -1     36674    3    0    3
 -2      4812      2529      2311      5740
 -1     36675    3    0    3
 -2      4810      2408      2529      5740
 -1     36676    3    0    3
 -2      2529      2408      2311      5740
 -1     36677    3    0    3
 -2      2095      5716      2277      5725
 -1     36678    3    0    3
 -2      2530      2529      2494      6691
 -1     36679    3    0    3
 -2      2529      2530      4810      6691
 -1     36680    3    0    3
 -2      4897      3458      4899      6243
 -1     36681    3    0    3
 -2      2199      4961      4962      5825
 -1     36682    3    0    3
 -2      1037      6762      6637      1008
 -1     36683    3    0    3
 -2      4284      2221      2048      1954
 -1     36684    3    0    3
 -2      2272      2441      2367      6243
 -1     36685    3    0    3
 -2      2224      4903      6225      6573
 -1     36686    3    0    3
 -2      2223      2222      2224      5784
 -1     36687    3    0    3
 -2      6405      1270      5759      6428
 -1     36688    3    0    3
 -2      5400      5411      6675      5833
 -1     36689    3    0    3
 -2      5561      5759      1270      6428
 -1     36690    3    0    3
 -2      1321      1203      1149      5742
 -1     36691    3    0    3
 -2      3946      5595      5564      6329
 -1     36692    3    0    3
 -2      1668      1505      1504      5743
 -1     36693    3    0    3
 -2      5728      1677      5604      1680
 -1     36694    3    0    3
 -2      5556      4447      5587      5743
 -1     36695    3    0    3
 -2      1454      1598      1584      6619
 -1     36696    3    0    3
 -2      5588      5587      1584      5898
 -1     36697    3    0    3
 -2      1503      1321      5759      6767
 -1     36698    3    0    3
 -2      2282      4993      5797      5678
 -1     36699    3    0    3
 -2      2418      2383      2242      5744
 -1     36700    3    0    3
 -2      2383      2418      4995      5744
 -1     36701    3    0    3
 -2       989      3494      5190      4072
 -1     36702    3    0    3
 -2      4996      3642      4993      5809
 -1     36703    3    0    3
 -2      5798      4994      4995      6723
 -1     36704    3    0    3
 -2      2382      5798      6723      4994
 -1     36705    3    0    3
 -2      1138      1137      6740      6803
 -1     36706    3    0    3
 -2      3541      3791      4006       615
 -1     36707    3    0    3
 -2      2065      2261      2262      6754
 -1     36708    3    0    3
 -2      1517      5759      1270      5561
 -1     36709    3    0    3
 -2      5850      5897      5017      5807
 -1     36710    3    0    3
 -2      5746      5026      2404      5906
 -1     36711    3    0    3
 -2      2404      2261      2369      5745
 -1     36712    3    0    3
 -2      5803      2307      2274      2308
 -1     36713    3    0    3
 -2      5026      2404      2417      5746
 -1     36714    3    0    3
 -2      5020      5021      4393      5906
 -1     36715    3    0    3
 -2      5031      2372      5739      5677
 -1     36716    3    0    3
 -2      5763      1761      5070      5067
 -1     36717    3    0    3
 -2      4973      5540      3667      3602
 -1     36718    3    0    3
 -2      1325      6619      1505      1598
 -1     36719    3    0    3
 -2      4971      3435      4250      3344
 -1     36720    3    0    3
 -2       680      3034      5369      5979
 -1     36721    3    0    3
 -2      4825      4083      6048      6666
 -1     36722    3    0    3
 -2      6774      6330      5713      1710
 -1     36723    3    0    3
 -2      5747      2720       458      6665
 -1     36724    3    0    3
 -2       846      2770       248       779
 -1     36725    3    0    3
 -2      6216      2749      2720      6665
 -1     36726    3    0    3
 -2      5385      1511      5379      5748
 -1     36727    3    0    3
 -2      3711      4463      3222      3287
 -1     36728    3    0    3
 -2      1626      1628      5384      6033
 -1     36729    3    0    3
 -2      5384      5378      4026      6008
 -1     36730    3    0    3
 -2      5385      1627      1511      5748
 -1     36731    3    0    3
 -2      1627      1666      1511      5748
 -1     36732    3    0    3
 -2      5025      4293      5024      5853
 -1     36733    3    0    3
 -2      5030      4293      5031      5749
 -1     36734    3    0    3
 -2      2102      2187      2186      5902
 -1     36735    3    0    3
 -2      2277      2186      2411      5750
 -1     36736    3    0    3
 -2      2569      5751      4994      2666
 -1     36737    3    0    3
 -2      2277      5031      5716      5750
 -1     36738    3    0    3
 -2      5031      2277      5716      5725
 -1     36739    3    0    3
 -2      2569      5751      2666      2492
 -1     36740    3    0    3
 -2      2569      5751      2492      5862
 -1     36741    3    0    3
 -2      2569      5751      5862      4994
 -1     36742    3    0    3
 -2      5749      4293      5031      5750
 -1     36743    3    0    3
 -2      5749      5024      4293      5853
 -1     36744    3    0    3
 -2        83      5054      1813      5051
 -1     36745    3    0    3
 -2      5862      2569      4994      6760
 -1     36746    3    0    3
 -2      2570      2521      4991      5837
 -1     36747    3    0    3
 -2      4446      5767      4474      4997
 -1     36748    3    0    3
 -2      1037      5572      5582      5829
 -1     36749    3    0    3
 -2      5074      3463      4113      5752
 -1     36750    3    0    3
 -2      2011      5074      4113      5752
 -1     36751    3    0    3
 -2      5811      5778      2164      2425
 -1     36752    3    0    3
 -2      5071      3463      5074      5752
 -1     36753    3    0    3
 -2      5071      4170      3463      5752
 -1     36754    3    0    3
 -2      5071      2065      4170      5752
 -1     36755    3    0    3
 -2      1230      6637       994      1008
 -1     36756    3    0    3
 -2      4233      6555      5150      6122
 -1     36757    3    0    3
 -2      1200       903      1077      5753
 -1     36758    3    0    3
 -2      5695      5590      1200      5753
 -1     36759    3    0    3
 -2      1200      1077      5695      5753
 -1     36760    3    0    3
 -2      5695      1077      5592      5753
 -1     36761    3    0    3
 -2      5695      5592      5590      5753
 -1     36762    3    0    3
 -2      5590      5601      4299      5847
 -1     36763    3    0    3
 -2       783       874       873      5754
 -1     36764    3    0    3
 -2      5584       874       783      5754
 -1     36765    3    0    3
 -2       783       652       275      6671
 -1     36766    3    0    3
 -2      5732      6624      5602      6679
 -1     36767    3    0    3
 -2       873       652       783      5754
 -1     36768    3    0    3
 -2       381      5823      2868      1823
 -1     36769    3    0    3
 -2      1916      4939      4940      4227
 -1     36770    3    0    3
 -2      4056      5992      5381      4087
 -1     36771    3    0    3
 -2      2858      6350      2849      2819
 -1     36772    3    0    3
 -2       370      1757      1758      5755
 -1     36773    3    0    3
 -2       370      1758      2822      5755
 -1     36774    3    0    3
 -2      1757       370      2800      5755
 -1     36775    3    0    3
 -2       370      2822      2800      5755
 -1     36776    3    0    3
 -2       836      5772      5582      6762
 -1     36777    3    0    3
 -2      2801      2800      2822      5755
 -1     36778    3    0    3
 -2      2843      2862      2870      5867
 -1     36779    3    0    3
 -2      2843      2870      5581      5867
 -1     36780    3    0    3
 -2      5601      5034      5849      5919
 -1     36781    3    0    3
 -2      5034      5017      4299      5849
 -1     36782    3    0    3
 -2      4284      6574      2221      1954
 -1     36783    3    0    3
 -2      2833      2831      5601      5919
 -1     36784    3    0    3
 -2      1230      6637      1008      5757
 -1     36785    3    0    3
 -2      5601      2831      5732      5919
 -1     36786    3    0    3
 -2      5903      2812      5034      5919
 -1     36787    3    0    3
 -2      5028      4997      5744      5763
 -1     36788    3    0    3
 -2      4991      5769      4990      5836
 -1     36789    3    0    3
 -2      5923      5582      5772      6637
 -1     36790    3    0    3
 -2      5923      4378      5582      6637
 -1     36791    3    0    3
 -2      5923      5772      5581      6637
 -1     36792    3    0    3
 -2      1050      4418      5559      6422
 -1     36793    3    0    3
 -2      5562      5593      6767      5742
 -1     36794    3    0    3
 -2      5023      5902      2274      5733
 -1     36795    3    0    3
 -2      5562      5759      5742      6767
 -1     36796    3    0    3
 -2      1321      1269      1503      5759
 -1     36797    3    0    3
 -2      1604      1503      1602      6707
 -1     36798    3    0    3
 -2      6611      1608      6404      6707
 -1     36799    3    0    3
 -2      1997      4825      6678      6048
 -1     36800    3    0    3
 -2      5411      5400      6675      3836
 -1     36801    3    0    3
 -2      5079       630       595      3481
 -1     36802    3    0    3
 -2      5717      1824      1955      1785
 -1     36803    3    0    3
 -2      5082      5083      4501      5760
 -1     36804    3    0    3
 -2      5083      1681      4501      5760
 -1     36805    3    0    3
 -2      6553      2502      2715      6510
 -1     36806    3    0    3
 -2      1087      1086      6383      6476
 -1     36807    3    0    3
 -2       908      4241      5611      6383
 -1     36808    3    0    3
 -2       752      2762      2772       245
 -1     36809    3    0    3
 -2      5544      4241       908      6383
 -1     36810    3    0    3
 -2      4241      3845      5611      6383
 -1     36811    3    0    3
 -2       908       975      1087      6383
 -1     36812    3    0    3
 -2      3396       784      4300      5531
 -1     36813    3    0    3
 -2      5516      3615      4951      3555
 -1     36814    3    0    3
 -2      5406      2773      2745      2763
 -1     36815    3    0    3
 -2      1053      4179      1033      5762
 -1     36816    3    0    3
 -2      5376      1587      1656      6014
 -1     36817    3    0    3
 -2      2071      4170      5071      2065
 -1     36818    3    0    3
 -2      2071      4170      5028      5763
 -1     36819    3    0    3
 -2      6722      4979      5792      4981
 -1     36820    3    0    3
 -2      2071      4170      2065      5028
 -1     36821    3    0    3
 -2      5406      2773      2763      3732
 -1     36822    3    0    3
 -2      3994       767      5456      4155
 -1     36823    3    0    3
 -2      1500      6105      5436      1369
 -1     36824    3    0    3
 -2      6722      4979      4981      5795
 -1     36825    3    0    3
 -2      5063      1975      1974      1762
 -1     36826    3    0    3
 -2      5063      1975      5062      4274
 -1     36827    3    0    3
 -2      2242      2181      5744      5763
 -1     36828    3    0    3
 -2      5744      4997      2242      5763
 -1     36829    3    0    3
 -2      1990      6733      5767      4997
 -1     36830    3    0    3
 -2      1990      6733      4997      2242
 -1     36831    3    0    3
 -2      2666      4994      2382      6723
 -1     36832    3    0    3
 -2      5545      5547      6778      6393
 -1     36833    3    0    3
 -2      4428      6631      5574      4483
 -1     36834    3    0    3
 -2      4983      4985      2433      5684
 -1     36835    3    0    3
 -2      4502      4995      4994      5764
 -1     36836    3    0    3
 -2      4985      4983      2433      5817
 -1     36837    3    0    3
 -2      6022      1386      1597      5170
 -1     36838    3    0    3
 -2      4988      4989      4502      5764
 -1     36839    3    0    3
 -2      1379      1144      1169      6718
 -1     36840    3    0    3
 -2      5734      1379      1378      5765
 -1     36841    3    0    3
 -2      5597      1379      5734      5765
 -1     36842    3    0    3
 -2      1169      1378      1379      5765
 -1     36843    3    0    3
 -2      1379      1169      5765      6718
 -1     36844    3    0    3
 -2      5559      1161      1160      6421
 -1     36845    3    0    3
 -2      5557      1490      1295      6410
 -1     36846    3    0    3
 -2      4886      6589      4885      6249
 -1     36847    3    0    3
 -2      1201      1367      1297      6392
 -1     36848    3    0    3
 -2      5546      5793      1297      6392
 -1     36849    3    0    3
 -2      1974      3583      1990      5767
 -1     36850    3    0    3
 -2      2251      1974      1990      5767
 -1     36851    3    0    3
 -2      6005       744       885      5979
 -1     36852    3    0    3
 -2      4993      2296      2291      2066
 -1     36853    3    0    3
 -2      1990      3583      4997      5767
 -1     36854    3    0    3
 -2      2200      5785      5790      2202
 -1     36855    3    0    3
 -2      3567      6802      4776      4779
 -1     36856    3    0    3
 -2      3567      6802      4779      5888
 -1     36857    3    0    3
 -2      4993      5797      4991      3453
 -1     36858    3    0    3
 -2      5797      4993      4991      5678
 -1     36859    3    0    3
 -2      6326      1199      6409      6747
 -1     36860    3    0    3
 -2      1340      1518      1271      6409
 -1     36861    3    0    3
 -2      1271      1518      5561      6409
 -1     36862    3    0    3
 -2      1518      1556      5768      6409
 -1     36863    3    0    3
 -2      5555      5552      3482      5768
 -1     36864    3    0    3
 -2      5552      5555      1472      5768
 -1     36865    3    0    3
 -2      6683      2808      6671       275
 -1     36866    3    0    3
 -2      6683      2808      2786      6671
 -1     36867    3    0    3
 -2      2164      2425      2141      5811
 -1     36868    3    0    3
 -2      2229      6757      4978      5794
 -1     36869    3    0    3
 -2      5004      2391      5005      5832
 -1     36870    3    0    3
 -2      2290      2229      5781      5794
 -1     36871    3    0    3
 -2      4980      4978      3631      6757
 -1     36872    3    0    3
 -2      3494      6475      5190      3632
 -1     36873    3    0    3
 -2      4975      4978      3693      5781
 -1     36874    3    0    3
 -2      2229      2230      2290      5781
 -1     36875    3    0    3
 -2        43      5623       498      5620
 -1     36876    3    0    3
 -2       951       645       785      5771
 -1     36877    3    0    3
 -2      5541      5542      3913      6395
 -1     36878    3    0    3
 -2       869      1108       951      6395
 -1     36879    3    0    3
 -2      3913      3326      5771      6223
 -1     36880    3    0    3
 -2       157      5787      3398      3423
 -1     36881    3    0    3
 -2       272       836       780      5772
 -1     36882    3    0    3
 -2       272      2818       836      5772
 -1     36883    3    0    3
 -2       780      2834       272      5772
 -1     36884    3    0    3
 -2      2818       272      2834      5772
 -1     36885    3    0    3
 -2      5922      5014      5015      5923
 -1     36886    3    0    3
 -2      4428      5854      5574      5852
 -1     36887    3    0    3
 -2      2866      2877      2869      5812
 -1     36888    3    0    3
 -2      5891      5857      5016      5921
 -1     36889    3    0    3
 -2      6658      5979      6005      5369
 -1     36890    3    0    3
 -2      6658      5979      3040      3086
 -1     36891    3    0    3
 -2      3499      6321      5566      4520
 -1     36892    3    0    3
 -2      5858      4242      1015      3933
 -1     36893    3    0    3
 -2      4434      5005      5004      5773
 -1     36894    3    0    3
 -2      3948       906      5547      6445
 -1     36895    3    0    3
 -2      5615      3948      3540      6445
 -1     36896    3    0    3
 -2      3659      5544      3540      5774
 -1     36897    3    0    3
 -2      3659      3693      5544      5774
 -1     36898    3    0    3
 -2      3659      3540      5547      5774
 -1     36899    3    0    3
 -2      5547      3693      3659      5774
 -1     36900    3    0    3
 -2      5730      1098       867      6699
 -1     36901    3    0    3
 -2      5039        89       526       503
 -1     36902    3    0    3
 -2      5918      6699      4240      5603
 -1     36903    3    0    3
 -2        66      4908       382      2729
 -1     36904    3    0    3
 -2       867      1003      5730      5775
 -1     36905    3    0    3
 -2      1003       867       777      5775
 -1     36906    3    0    3
 -2      2601      6685      4609      6634
 -1     36907    3    0    3
 -2      2601      6685      6634      2487
 -1     36908    3    0    3
 -2      5694      4261      5658      5600
 -1     36909    3    0    3
 -2      1691       254      1677      6334
 -1     36910    3    0    3
 -2      1691       808       254      6334
 -1     36911    3    0    3
 -2       777       254       808      6334
 -1     36912    3    0    3
 -2      4976      4977      3715      3935
 -1     36913    3    0    3
 -2      5588      1464      5591      6361
 -1     36914    3    0    3
 -2      4994      2283      2382      5767
 -1     36915    3    0    3
 -2      5694      4261      5600      4144
 -1     36916    3    0    3
 -2      5777      5792      4979      6757
 -1     36917    3    0    3
 -2      5792      5777      2395      6757
 -1     36918    3    0    3
 -2      4981      3631      4979      5792
 -1     36919    3    0    3
 -2      6005       744      5979      6000
 -1     36920    3    0    3
 -2      5770      3631      4981      5792
 -1     36921    3    0    3
 -2      3435      5530      3397      4971
 -1     36922    3    0    3
 -2      4983      4960      5780      5831
 -1     36923    3    0    3
 -2      6005       744       886       885
 -1     36924    3    0    3
 -2      2420      2344      2425      5778
 -1     36925    3    0    3
 -2      5701      1929      1980      1731
 -1     36926    3    0    3
 -2      4983      4960      5831      3822
 -1     36927    3    0    3
 -2      2383      6733      4995      6723
 -1     36928    3    0    3
 -2      5732      6624      5601      4267
 -1     36929    3    0    3
 -2       873      5754      6346      6639
 -1     36930    3    0    3
 -2      1487      5806      1485      5589
 -1     36931    3    0    3
 -2      5017      2855      5756      5849
 -1     36932    3    0    3
 -2      5584      2794      5779      6756
 -1     36933    3    0    3
 -2      2794      2795      2793      6756
 -1     36934    3    0    3
 -2       277      2794      2793      5779
 -1     36935    3    0    3
 -2       277       665      2794      5779
 -1     36936    3    0    3
 -2      3798      4472      4955      5863
 -1     36937    3    0    3
 -2      5863      4960      4472      5873
 -1     36938    3    0    3
 -2      4472      4960      4368      5873
 -1     36939    3    0    3
 -2      5792      5770      3631      6757
 -1     36940    3    0    3
 -2      1751      5816      6564      6562
 -1     36941    3    0    3
 -2      6776      5847      1231      5590
 -1     36942    3    0    3
 -2      4980      5770      5794      6757
 -1     36943    3    0    3
 -2      1923      1922      2201      5782
 -1     36944    3    0    3
 -2      1922      3466      4977      3935
 -1     36945    3    0    3
 -2      2230      2200      2290      5790
 -1     36946    3    0    3
 -2      2085      5780      2212      2150
 -1     36947    3    0    3
 -2      5783      1325      5593      6362
 -1     36948    3    0    3
 -2      4827      2734      3825      6238
 -1     36949    3    0    3
 -2      4369      5803      5022      4321
 -1     36950    3    0    3
 -2      5765      1178      1384      5783
 -1     36951    3    0    3
 -2      1178      1102      1384      5783
 -1     36952    3    0    3
 -2      6187      4676      6180      3857
 -1     36953    3    0    3
 -2      4119      3208      3206      4721
 -1     36954    3    0    3
 -2      6275      3585      4903      6573
 -1     36955    3    0    3
 -2      2296      5678      4993      2291
 -1     36956    3    0    3
 -2      4900      2092      2224      6275
 -1     36957    3    0    3
 -2      6275      4903      2224      6573
 -1     36958    3    0    3
 -2      2296      5678      2291      2430
 -1     36959    3    0    3
 -2      5050      4134       565       566
 -1     36960    3    0    3
 -2      2200      1922      4977      5786
 -1     36961    3    0    3
 -2      4977      4976      3749      5785
 -1     36962    3    0    3
 -2      3935      1922      5042      5039
 -1     36963    3    0    3
 -2      2201      1922      2200      5786
 -1     36964    3    0    3
 -2      5781      2230      2290      5790
 -1     36965    3    0    3
 -2      4976      3935      5782      5786
 -1     36966    3    0    3
 -2      4977      3935      4976      5786
 -1     36967    3    0    3
 -2      3998      2083      4975      5788
 -1     36968    3    0    3
 -2      6237      5338      3717      5336
 -1     36969    3    0    3
 -2      3959      5688      5397      6309
 -1     36970    3    0    3
 -2      2083      3998      4975      3528
 -1     36971    3    0    3
 -2      4976      5782      5785      5786
 -1     36972    3    0    3
 -2      5785      4977      4976      5786
 -1     36973    3    0    3
 -2      4863      2185      1964      1935
 -1     36974    3    0    3
 -2      3398      3356      3423      5787
 -1     36975    3    0    3
 -2      5546      1296      5557      6392
 -1     36976    3    0    3
 -2      5771      3913      5541      5787
 -1     36977    3    0    3
 -2       142       492       833         6
 -1     36978    3    0    3
 -2      3998      4975      4974      5788
 -1     36979    3    0    3
 -2      2241      5758      2154      2091
 -1     36980    3    0    3
 -2      2241      5758      4981      2154
 -1     36981    3    0    3
 -2      3959      5688      5403      3902
 -1     36982    3    0    3
 -2      3959      5688      3902      5397
 -1     36983    3    0    3
 -2      5184      5187      6480      4017
 -1     36984    3    0    3
 -2       918      4480      1069      5789
 -1     36985    3    0    3
 -2       918      1069      1663      5789
 -1     36986    3    0    3
 -2      5402      5403      3959      5858
 -1     36987    3    0    3
 -2      1222      5418      5417      6147
 -1     36988    3    0    3
 -2      5418      1222      5417      6151
 -1     36989    3    0    3
 -2      6442      5184      5178      4047
 -1     36990    3    0    3
 -2      2202      2200      2230      5790
 -1     36991    3    0    3
 -2      2310      5735      5030      2603
 -1     36992    3    0    3
 -2      3935      1922      5786      4977
 -1     36993    3    0    3
 -2        72      5075      1798       631
 -1     36994    3    0    3
 -2      1795      2082      5788      5791
 -1     36995    3    0    3
 -2      2082      1795      1860      5791
 -1     36996    3    0    3
 -2      5788      2082      4974      5791
 -1     36997    3    0    3
 -2      4974      2082      1860      5791
 -1     36998    3    0    3
 -2      2229      2290      2256      5794
 -1     36999    3    0    3
 -2      5777      2165      2395      6757
 -1     37000    3    0    3
 -2      6005       744      6000       886
 -1     37001    3    0    3
 -2      4979      4978      2165      6757
 -1     37002    3    0    3
 -2      3494      6475       719       989
 -1     37003    3    0    3
 -2      3874      5540       934      5793
 -1     37004    3    0    3
 -2      5540      3874      4384      5793
 -1     37005    3    0    3
 -2      5551      5552      1338      5673
 -1     37006    3    0    3
 -2      4481      3388      4284      4896
 -1     37007    3    0    3
 -2      5552      5551      1338      6496
 -1     37008    3    0    3
 -2      1297      1367      1296      6392
 -1     37009    3    0    3
 -2      5540      5546      3602      6392
 -1     37010    3    0    3
 -2      5546      5540      5793      6392
 -1     37011    3    0    3
 -2      5781      4978      3693      5794
 -1     37012    3    0    3
 -2      3693      4978      4980      5794
 -1     37013    3    0    3
 -2      5781      3693      5790      5794
 -1     37014    3    0    3
 -2      5774      1155      1109      1213
 -1     37015    3    0    3
 -2      2290      5781      5790      5794
 -1     37016    3    0    3
 -2      3537       974      3946      5564
 -1     37017    3    0    3
 -2      4984      4973      5811      6758
 -1     37018    3    0    3
 -2      5184      5187      6442      6480
 -1     37019    3    0    3
 -2      2464      4837      5844      6714
 -1     37020    3    0    3
 -2      2550      5907      4987      2651
 -1     37021    3    0    3
 -2      6152      2289      4630      6588
 -1     37022    3    0    3
 -2      6683      2808       275      2788
 -1     37023    3    0    3
 -2      4979      3571      4981      5795
 -1     37024    3    0    3
 -2      5619      3646      4328      5796
 -1     37025    3    0    3
 -2      4453       529       544      5615
 -1     37026    3    0    3
 -2      4328      5616      5619      5796
 -1     37027    3    0    3
 -2      4453       529      4088       579
 -1     37028    3    0    3
 -2      3948       907      5616      5796
 -1     37029    3    0    3
 -2      3948      5616      4328      5796
 -1     37030    3    0    3
 -2      5547       907      3948      5796
 -1     37031    3    0    3
 -2      5547      3948      4328      5796
 -1     37032    3    0    3
 -2      2051      2282      4993      5809
 -1     37033    3    0    3
 -2      2570      4991      2388      6760
 -1     37034    3    0    3
 -2      2282      2388      5678      5797
 -1     37035    3    0    3
 -2      2282      2339      2388      5797
 -1     37036    3    0    3
 -2      5862      2570      2569      6760
 -1     37037    3    0    3
 -2      4113      5029      2011      5752
 -1     37038    3    0    3
 -2      4994      4991      6760      5797
 -1     37039    3    0    3
 -2      5029      4113      2011      1931
 -1     37040    3    0    3
 -2      6753      1379      1463      5734
 -1     37041    3    0    3
 -2      4993      2296      2066      5800
 -1     37042    3    0    3
 -2      2382      5798      4994      5767
 -1     37043    3    0    3
 -2      2382      5798      5767      6733
 -1     37044    3    0    3
 -2      4477      5585      5554      5799
 -1     37045    3    0    3
 -2      5587      4422      5585      5898
 -1     37046    3    0    3
 -2      1645      1585      1584      5898
 -1     37047    3    0    3
 -2      6683      2808      2788      2786
 -1     37048    3    0    3
 -2      4767      2218      5967      4765
 -1     37049    3    0    3
 -2      5055      4377      3704      5800
 -1     37050    3    0    3
 -2      3723      6043      6024      5330
 -1     37051    3    0    3
 -2      5935      5932      4804      4406
 -1     37052    3    0    3
 -2      4981      2241      4992      5801
 -1     37053    3    0    3
 -2      3723      6043      5331      6024
 -1     37054    3    0    3
 -2      3723      6043      5330      3695
 -1     37055    3    0    3
 -2      5918      4267      5716      4240
 -1     37056    3    0    3
 -2       883      6372      1188      1127
 -1     37057    3    0    3
 -2      4816      2566      4854      2513
 -1     37058    3    0    3
 -2      2566      4816      4854      6697
 -1     37059    3    0    3
 -2      5935      5932      5755      4804
 -1     37060    3    0    3
 -2      5533      5549      5839      4138
 -1     37061    3    0    3
 -2      4981      4992      3759      5801
 -1     37062    3    0    3
 -2      2812      2855      5034      5849
 -1     37063    3    0    3
 -2      2839      2810      2855      5802
 -1     37064    3    0    3
 -2      2839      2855      5017      5802
 -1     37065    3    0    3
 -2      2154      5795      2241      2344
 -1     37066    3    0    3
 -2      5023      5733      2274      5914
 -1     37067    3    0    3
 -2      2273      2274      2054      5914
 -1     37068    3    0    3
 -2      5850      2049      1986      5807
 -1     37069    3    0    3
 -2      1500      6105      5438      5436
 -1     37070    3    0    3
 -2      5025      5024      4321      5803
 -1     37071    3    0    3
 -2      5727      5036      4214      5728
 -1     37072    3    0    3
 -2      2274      5023      2307      6696
 -1     37073    3    0    3
 -2      5727      5036      5728      5713
 -1     37074    3    0    3
 -2      5911      2719      5019      5018
 -1     37075    3    0    3
 -2      1231      5847      1001      6625
 -1     37076    3    0    3
 -2      5917      5027      2607      5735
 -1     37077    3    0    3
 -2      4321      5025      5803      6696
 -1     37078    3    0    3
 -2      3871      5525      4408      6550
 -1     37079    3    0    3
 -2       543      4942      3854      4077
 -1     37080    3    0    3
 -2      1111       982       959      6550
 -1     37081    3    0    3
 -2      1367      5551      5557      6392
 -1     37082    3    0    3
 -2      5804      5550      1111      6550
 -1     37083    3    0    3
 -2      4408      5524      3871      6550
 -1     37084    3    0    3
 -2      2655      2625      5008      5805
 -1     37085    3    0    3
 -2      2625      5006      5008      5805
 -1     37086    3    0    3
 -2      2698      2625      2655      5805
 -1     37087    3    0    3
 -2      2698      5006      2625      5805
 -1     37088    3    0    3
 -2      2698      5007      5006      5805
 -1     37089    3    0    3
 -2      1468      5579      1485      5806
 -1     37090    3    0    3
 -2      1311      1485      1333      6358
 -1     37091    3    0    3
 -2      5001      2556      2554      2555
 -1     37092    3    0    3
 -2      5719      2308      2514      5022
 -1     37093    3    0    3
 -2      5001      2556      5810      2554
 -1     37094    3    0    3
 -2      5001      2556      4999      5810
 -1     37095    3    0    3
 -2      4398      5586      5589      5806
 -1     37096    3    0    3
 -2      4189      5035      5602      5722
 -1     37097    3    0    3
 -2      6710      1644      5799      1669
 -1     37098    3    0    3
 -2      5017      5013      5807      5897
 -1     37099    3    0    3
 -2      5590      1311      5589      5695
 -1     37100    3    0    3
 -2      5778      5795      2344      6758
 -1     37101    3    0    3
 -2       375      1728      2859      5850
 -1     37102    3    0    3
 -2      1637      6010      6071      6073
 -1     37103    3    0    3
 -2      4975      2230      2202      2083
 -1     37104    3    0    3
 -2      4994      2283      5797      2339
 -1     37105    3    0    3
 -2      5390      5393      2776      2777
 -1     37106    3    0    3
 -2      6010      1637      1509      6073
 -1     37107    3    0    3
 -2      6010      5396      6071      6073
 -1     37108    3    0    3
 -2      5700      5396      5394      6073
 -1     37109    3    0    3
 -2      3859      6062      5305      4115
 -1     37110    3    0    3
 -2      2775      5469      3970      5470
 -1     37111    3    0    3
 -2      2775      5469      5470      2781
 -1     37112    3    0    3
 -2      2775      5469      2781      2780
 -1     37113    3    0    3
 -2      3575      3969       510      3997
 -1     37114    3    0    3
 -2      3575      3969      3985       510
 -1     37115    3    0    3
 -2       169      5520       653       655
 -1     37116    3    0    3
 -2      5705      4999      2556      5810
 -1     37117    3    0    3
 -2      5353      6319      5951      5364
 -1     37118    3    0    3
 -2      3584      5825      3555      4951
 -1     37119    3    0    3
 -2      4902      4974      2073      5813
 -1     37120    3    0    3
 -2      6758      4973      4979      3602
 -1     37121    3    0    3
 -2      2141      2425      4984      5811
 -1     37122    3    0    3
 -2      5820      2399      4795      2582
 -1     37123    3    0    3
 -2      4982      4983      5817      5856
 -1     37124    3    0    3
 -2       883      6372      1127      6741
 -1     37125    3    0    3
 -2      5780      3798      4963      5863
 -1     37126    3    0    3
 -2      5701      1929      1731      6662
 -1     37127    3    0    3
 -2      2878      5857      5921      5016
 -1     37128    3    0    3
 -2      6751      2761      2783      2760
 -1     37129    3    0    3
 -2      6683       275       783       276
 -1     37130    3    0    3
 -2      1953      1750      1751      6564
 -1     37131    3    0    3
 -2      5430      4420      3885      5424
 -1     37132    3    0    3
 -2      4399      4902      4455      6232
 -1     37133    3    0    3
 -2      4399      3357      3345      6232
 -1     37134    3    0    3
 -2      5813      3345      3346      6232
 -1     37135    3    0    3
 -2      5813      4974      3345      6232
 -1     37136    3    0    3
 -2      3357      3346      3345      6232
 -1     37137    3    0    3
 -2      2162      2247      2231      6568
 -1     37138    3    0    3
 -2      3584      5825      5879      4952
 -1     37139    3    0    3
 -2      4370      4902      4974      6250
 -1     37140    3    0    3
 -2      2725      2722      2758      5815
 -1     37141    3    0    3
 -2      4053      5388      4083      5814
 -1     37142    3    0    3
 -2      3521      4020      3933      5390
 -1     37143    3    0    3
 -2      4049      5389      6072      6751
 -1     37144    3    0    3
 -2      2757      2758      5815      5880
 -1     37145    3    0    3
 -2       739      1057      1035      6323
 -1     37146    3    0    3
 -2      5880      5881      5389      6072
 -1     37147    3    0    3
 -2      5875      4808      6055      6799
 -1     37148    3    0    3
 -2      2722      2725       460      5815
 -1     37149    3    0    3
 -2       460       461      2722      5815
 -1     37150    3    0    3
 -2      3084       459      3062      6793
 -1     37151    3    0    3
 -2      4132       461       460      5815
 -1     37152    3    0    3
 -2       753       226      3059      5874
 -1     37153    3    0    3
 -2      5871      3031       462      5874
 -1     37154    3    0    3
 -2      3413      3591      6562      6564
 -1     37155    3    0    3
 -2      1751      3413       336      6562
 -1     37156    3    0    3
 -2      6562      1751      3413      6564
 -1     37157    3    0    3
 -2      6250      4904      2159      6485
 -1     37158    3    0    3
 -2      1702      1751       336      6562
 -1     37159    3    0    3
 -2      4961      2199      4962      5834
 -1     37160    3    0    3
 -2      5273      3309      3295      3308
 -1     37161    3    0    3
 -2      4954      4953      1832      3392
 -1     37162    3    0    3
 -2      5550      5549      3611      3576
 -1     37163    3    0    3
 -2      4985      2426      4984      5817
 -1     37164    3    0    3
 -2      4984      2426      2140      5817
 -1     37165    3    0    3
 -2      2433      2426      4985      5817
 -1     37166    3    0    3
 -2      2140      2426      2433      5817
 -1     37167    3    0    3
 -2      5799      1482      5554      5818
 -1     37168    3    0    3
 -2      1482      1669      1624      5818
 -1     37169    3    0    3
 -2      5556      1624      1669      5818
 -1     37170    3    0    3
 -2      5799      1669      1482      5818
 -1     37171    3    0    3
 -2      1472      1556      5552      5768
 -1     37172    3    0    3
 -2      5719      2308      5022      5803
 -1     37173    3    0    3
 -2      2555      2562      5819      5900
 -1     37174    3    0    3
 -2      5353      6319      3449      6759
 -1     37175    3    0    3
 -2      5001      3469      4999      5900
 -1     37176    3    0    3
 -2      3616      5821      5826      6095
 -1     37177    3    0    3
 -2      1240      5824      5445      1237
 -1     37178    3    0    3
 -2      5317       114      3226       733
 -1     37179    3    0    3
 -2      6586       310      3229      4643
 -1     37180    3    0    3
 -2      6282      5445      5446      3455
 -1     37181    3    0    3
 -2      5822      1880      1726      6750
 -1     37182    3    0    3
 -2      4949      3616      5826      6095
 -1     37183    3    0    3
 -2      5376      1423      6693      1553
 -1     37184    3    0    3
 -2      2400      4764      2280      5821
 -1     37185    3    0    3
 -2      6519      6527      6540      6563
 -1     37186    3    0    3
 -2      3863      4373      3374      5822
 -1     37187    3    0    3
 -2      3863      3374      3430      5822
 -1     37188    3    0    3
 -2      3430      3374      1851      5822
 -1     37189    3    0    3
 -2      2830      2837      2840      5823
 -1     37190    3    0    3
 -2      5715      4189      2830      5823
 -1     37191    3    0    3
 -2      2830      4189      2837      5823
 -1     37192    3    0    3
 -2      2654      5912      5009      2515
 -1     37193    3    0    3
 -2      4189      5035      2837      5823
 -1     37194    3    0    3
 -2      5822      1880      6750      5883
 -1     37195    3    0    3
 -2      1366      1237      5671      5824
 -1     37196    3    0    3
 -2      6281      5445      1233      6279
 -1     37197    3    0    3
 -2      6758      4984      2425      5811
 -1     37198    3    0    3
 -2      5010      2551      5012      5827
 -1     37199    3    0    3
 -2      1994      2199      2295      5825
 -1     37200    3    0    3
 -2      2199      1994      4961      5825
 -1     37201    3    0    3
 -2      4952      2295      2352      5825
 -1     37202    3    0    3
 -2      4962      4952      2352      5825
 -1     37203    3    0    3
 -2      5361      1219      6335      1206
 -1     37204    3    0    3
 -2      5826      2006      2294      5879
 -1     37205    3    0    3
 -2      2039      2006      5822      5879
 -1     37206    3    0    3
 -2      3584      4951      5843      5879
 -1     37207    3    0    3
 -2      4951      5516      3584      5843
 -1     37208    3    0    3
 -2      4899      1979      6432      2287
 -1     37209    3    0    3
 -2      3647      4951      3863      5843
 -1     37210    3    0    3
 -2      5296      1290      5302      6406
 -1     37211    3    0    3
 -2      5821      4950      3616      5826
 -1     37212    3    0    3
 -2      3766      3255      3165      3256
 -1     37213    3    0    3
 -2      3616      4764      5821      6095
 -1     37214    3    0    3
 -2      5821      2280      2007      6095
 -1     37215    3    0    3
 -2      6634      4607      2695      6504
 -1     37216    3    0    3
 -2       730      4420      5429       968
 -1     37217    3    0    3
 -2      2654      2499      2551      5916
 -1     37218    3    0    3
 -2       730      4420       968       887
 -1     37219    3    0    3
 -2      2239      6593      6139      6144
 -1     37220    3    0    3
 -2      5588      5734      5594      4341
 -1     37221    3    0    3
 -2      5588      5734      4341      6753
 -1     37222    3    0    3
 -2      2137      2136      2050      5828
 -1     37223    3    0    3
 -2      2379      5967      2424      2271
 -1     37224    3    0    3
 -2      2379      5967      2271      6040
 -1     37225    3    0    3
 -2      5572      5578      1097      5889
 -1     37226    3    0    3
 -2      4803      1863      5928      5929
 -1     37227    3    0    3
 -2      2835       780       754      5581
 -1     37228    3    0    3
 -2      2835       780      2834       271
 -1     37229    3    0    3
 -2      6672      5583       652      6794
 -1     37230    3    0    3
 -2      5028      4997      5763      3523
 -1     37231    3    0    3
 -2      2827      1838      5015      1736
 -1     37232    3    0    3
 -2      2827      1838      2826      5015
 -1     37233    3    0    3
 -2      5582      4352      5891      6794
 -1     37234    3    0    3
 -2      6683       275      6671       783
 -1     37235    3    0    3
 -2      5575      3460      5529      5830
 -1     37236    3    0    3
 -2      1583      5575      5529      5830
 -1     37237    3    0    3
 -2      5527      5529      3460      5830
 -1     37238    3    0    3
 -2      5527      1583      5529      5830
 -1     37239    3    0    3
 -2      4982      3822      4983      5856
 -1     37240    3    0    3
 -2      4961      3615      4951      3826
 -1     37241    3    0    3
 -2      2085      2104      2212      5831
 -1     37242    3    0    3
 -2      2212      4983      5780      5831
 -1     37243    3    0    3
 -2      4983      2212      2104      5831
 -1     37244    3    0    3
 -2      1500      6105      1612      5438
 -1     37245    3    0    3
 -2      5010      5011      2335      5832
 -1     37246    3    0    3
 -2      5010      4403      5011      5832
 -1     37247    3    0    3
 -2      5010      2335      2466      5832
 -1     37248    3    0    3
 -2      5004      5010      2466      5832
 -1     37249    3    0    3
 -2      1412      1554      1445      5833
 -1     37250    3    0    3
 -2      5688      1554      1412      5833
 -1     37251    3    0    3
 -2      5688      1412      5411      5833
 -1     37252    3    0    3
 -2      5688      5397      1664      6059
 -1     37253    3    0    3
 -2      5400      5397      5688      6059
 -1     37254    3    0    3
 -2      5397      3934      5659      6059
 -1     37255    3    0    3
 -2      3522      4963      4961      5834
 -1     37256    3    0    3
 -2      4964      4963      3522      5834
 -1     37257    3    0    3
 -2      3522      4962      4964      5834
 -1     37258    3    0    3
 -2      2375      4964      4962      5834
 -1     37259    3    0    3
 -2      2390      4964      2375      5834
 -1     37260    3    0    3
 -2      2390      4963      4964      5834
 -1     37261    3    0    3
 -2      5951      1116       920      6759
 -1     37262    3    0    3
 -2      1417      1535      6356      6359
 -1     37263    3    0    3
 -2      1257      1371      1417      6359
 -1     37264    3    0    3
 -2      1417      1371      1535      6359
 -1     37265    3    0    3
 -2      5352      1535      1371      6359
 -1     37266    3    0    3
 -2      5352      5353      3508      5835
 -1     37267    3    0    3
 -2      5837      3542      4984      5860
 -1     37268    3    0    3
 -2      5820      2399      2400      4764
 -1     37269    3    0    3
 -2      5837      2426      2521      5860
 -1     37270    3    0    3
 -2      2426      4985      4984      5837
 -1     37271    3    0    3
 -2      2430      5769      4991      5836
 -1     37272    3    0    3
 -2      5769      2430      4991      5678
 -1     37273    3    0    3
 -2      2186      5853      5750      5025
 -1     37274    3    0    3
 -2      5654      2649      2717      2716
 -1     37275    3    0    3
 -2      2521      2570      2490      5837
 -1     37276    3    0    3
 -2      2570      2388      2569      6760
 -1     37277    3    0    3
 -2      3105      3103      4391      4566
 -1     37278    3    0    3
 -2      4994      4991      3482      5862
 -1     37279    3    0    3
 -2      4991      4994      6760      5862
 -1     37280    3    0    3
 -2      3615      5516      4951      4182
 -1     37281    3    0    3
 -2      5840      1399      1411      5841
 -1     37282    3    0    3
 -2      1035      5861      5859      1034
 -1     37283    3    0    3
 -2      1411      1399      1006      5841
 -1     37284    3    0    3
 -2       826      1006       648      5838
 -1     37285    3    0    3
 -2      5473       826       648      5838
 -1     37286    3    0    3
 -2      3871      3461      5549      6547
 -1     37287    3    0    3
 -2       543      4942      3884      3854
 -1     37288    3    0    3
 -2      3871      5524      3461      6547
 -1     37289    3    0    3
 -2      1211      5550      5839      6547
 -1     37290    3    0    3
 -2      1339      5550      5552      6496
 -1     37291    3    0    3
 -2      5551      1198      1338      6496
 -1     37292    3    0    3
 -2      5411      5403      3868      5840
 -1     37293    3    0    3
 -2      4441      5933      4800      5884
 -1     37294    3    0    3
 -2      5474        70       241      2747
 -1     37295    3    0    3
 -2      5414      5412      3806      5842
 -1     37296    3    0    3
 -2      5414      1055      3848      4438
 -1     37297    3    0    3
 -2      3445       344      1876      3361
 -1     37298    3    0    3
 -2      5413      5840      5762      5841
 -1     37299    3    0    3
 -2      5840      5413      5762      3868
 -1     37300    3    0    3
 -2      4441      5933      5934      4804
 -1     37301    3    0    3
 -2      5414      1055      4438       962
 -1     37302    3    0    3
 -2      5414      1055      5851      3848
 -1     37303    3    0    3
 -2      5842      5411      5413      6800
 -1     37304    3    0    3
 -2      2186      5853      2411      5750
 -1     37305    3    0    3
 -2      5411      1399      5840      6800
 -1     37306    3    0    3
 -2      2186      5853      2398      2411
 -1     37307    3    0    3
 -2      2186      5853      5025      2398
 -1     37308    3    0    3
 -2      1302      1167      1399      5842
 -1     37309    3    0    3
 -2      5401      1658      5400      6675
 -1     37310    3    0    3
 -2      5841      5840      1399      6800
 -1     37311    3    0    3
 -2      1168      5842      1167      1302
 -1     37312    3    0    3
 -2      4952      2294      2295      5879
 -1     37313    3    0    3
 -2      5843      5822      4949      5879
 -1     37314    3    0    3
 -2      5517      5516      1236      5691
 -1     37315    3    0    3
 -2      3367      3415      3647      3431
 -1     37316    3    0    3
 -2      4743      6394      4740      2615
 -1     37317    3    0    3
 -2      4743      6394      5882      3827
 -1     37318    3    0    3
 -2      4848      4840      3902      5844
 -1     37319    3    0    3
 -2      5844      4837      4848      6714
 -1     37320    3    0    3
 -2      4851      1968      1940      3530
 -1     37321    3    0    3
 -2      3612      6379      4878      4884
 -1     37322    3    0    3
 -2      3612      6379      4877      4878
 -1     37323    3    0    3
 -2      4851      1968      3530      4423
 -1     37324    3    0    3
 -2      1168      5842      1302      5671
 -1     37325    3    0    3
 -2      1168      5842      5851      1167
 -1     37326    3    0    3
 -2      5400      1657      1658      5845
 -1     37327    3    0    3
 -2      1657      1575      1658      5845
 -1     37328    3    0    3
 -2      1664      1657      1554      6059
 -1     37329    3    0    3
 -2      1638      1664      5397      6059
 -1     37330    3    0    3
 -2      5400      1554      1657      6059
 -1     37331    3    0    3
 -2      5362      5569      4465      6332
 -1     37332    3    0    3
 -2      4019       582      4387       550
 -1     37333    3    0    3
 -2      6321      5569      5362      6332
 -1     37334    3    0    3
 -2      5009      2515      5019      5911
 -1     37335    3    0    3
 -2      1447      5569      6321      6332
 -1     37336    3    0    3
 -2      5362      4465      5363      5846
 -1     37337    3    0    3
 -2      6767      6707      5759      1503
 -1     37338    3    0    3
 -2      1001      1002      5779      5847
 -1     37339    3    0    3
 -2      5779      5601      1001      5847
 -1     37340    3    0    3
 -2      4847      2076      4035      5698
 -1     37341    3    0    3
 -2      5034      4299      5601      5849
 -1     37342    3    0    3
 -2      6246      6222      4874      4873
 -1     37343    3    0    3
 -2      5376      1587      1588      1656
 -1     37344    3    0    3
 -2      5376      1587      5377      1588
 -1     37345    3    0    3
 -2      5034      2812      5849      5919
 -1     37346    3    0    3
 -2      5779      2793      5601      6756
 -1     37347    3    0    3
 -2      5584      2795      2794      6756
 -1     37348    3    0    3
 -2      5847      5779      5601      5849
 -1     37349    3    0    3
 -2      5584      5779      5847      5849
 -1     37350    3    0    3
 -2      5756      2795      5584      5849
 -1     37351    3    0    3
 -2      5074        73      1798       631
 -1     37352    3    0    3
 -2      5847      5601      4299      5849
 -1     37353    3    0    3
 -2      5850      2859      2825      5926
 -1     37354    3    0    3
 -2      5756      4323      5857      5926
 -1     37355    3    0    3
 -2      5648       650       987      5647
 -1     37356    3    0    3
 -2      5648       650      5647       549
 -1     37357    3    0    3
 -2      5035      4189      5602      5918
 -1     37358    3    0    3
 -2      5017      1728      1991      5850
 -1     37359    3    0    3
 -2      2531      4848      5686      6259
 -1     37360    3    0    3
 -2      1055      1168      5414      5851
 -1     37361    3    0    3
 -2      1168      1055      5414       962
 -1     37362    3    0    3
 -2      5852      1478      1450      5577
 -1     37363    3    0    3
 -2      5852      1478      5577      5854
 -1     37364    3    0    3
 -2      5852      1478      1479      1450
 -1     37365    3    0    3
 -2      5852      1478      5854      1479
 -1     37366    3    0    3
 -2      5820      3588      3559      4795
 -1     37367    3    0    3
 -2      1479      1572      5574      6631
 -1     37368    3    0    3
 -2      1479      5574      5852      6631
 -1     37369    3    0    3
 -2      4949      2006      5879      5822
 -1     37370    3    0    3
 -2      1571      1570      5575      6631
 -1     37371    3    0    3
 -2      1570      5576      5575      6631
 -1     37372    3    0    3
 -2      4950      2663      4998      6654
 -1     37373    3    0    3
 -2      3822      2104      4983      5856
 -1     37374    3    0    3
 -2      2547      5710      2539      4617
 -1     37375    3    0    3
 -2      3822      2104      4958      5831
 -1     37376    3    0    3
 -2      3822      2104      5831      4983
 -1     37377    3    0    3
 -2      4293      5025      5750      5853
 -1     37378    3    0    3
 -2      5750      5749      4293      5853
 -1     37379    3    0    3
 -2      5577      1478      1473      5854
 -1     37380    3    0    3
 -2      1473      1478      1642      5854
 -1     37381    3    0    3
 -2      1478      1479      1642      5854
 -1     37382    3    0    3
 -2      1743      5863      2085      2105
 -1     37383    3    0    3
 -2      1743      5863      2105      4955
 -1     37384    3    0    3
 -2      1743      5863      4955      5873
 -1     37385    3    0    3
 -2      1743      5863      5873      2085
 -1     37386    3    0    3
 -2      1686      3838      4186      5650
 -1     37387    3    0    3
 -2      2499      2334      5012      5855
 -1     37388    3    0    3
 -2      2334      2499      2500      5855
 -1     37389    3    0    3
 -2      2499      5912      5012      5916
 -1     37390    3    0    3
 -2      2149      5948      2148      1960
 -1     37391    3    0    3
 -2      2547      5710      6618      2656
 -1     37392    3    0    3
 -2      1887      1949      2104      5856
 -1     37393    3    0    3
 -2      1949      2270      2104      5856
 -1     37394    3    0    3
 -2      2104      2270      4983      5856
 -1     37395    3    0    3
 -2      5861      5700      3933      5389
 -1     37396    3    0    3
 -2      2786      6683      5857      2813
 -1     37397    3    0    3
 -2      2786      6683      2813      2788
 -1     37398    3    0    3
 -2      1916      4939      2077      1774
 -1     37399    3    0    3
 -2      2296      4993      4992      5800
 -1     37400    3    0    3
 -2      4323      5584      5756      5857
 -1     37401    3    0    3
 -2      5584      4323      5583      5857
 -1     37402    3    0    3
 -2      4323      5016      5583      5857
 -1     37403    3    0    3
 -2      2854      2785      2859      5926
 -1     37404    3    0    3
 -2      5756      2854      5017      5926
 -1     37405    3    0    3
 -2      5017      2854      2859      5926
 -1     37406    3    0    3
 -2      5858      3959      5396      6071
 -1     37407    3    0    3
 -2      5396      5397      6010      6071
 -1     37408    3    0    3
 -2      1431      6775      1529      1571
 -1     37409    3    0    3
 -2      4990      2521      4991      5836
 -1     37410    3    0    3
 -2      5396      3959      5397      6071
 -1     37411    3    0    3
 -2      6075      4056      5382      6007
 -1     37412    3    0    3
 -2      1637      1639      1659      6071
 -1     37413    3    0    3
 -2      1015      3933      5861      5859
 -1     37414    3    0    3
 -2      1034      1035      1438      5859
 -1     37415    3    0    3
 -2      5728      5604      4214      5727
 -1     37416    3    0    3
 -2      1438      1281      1509      6073
 -1     37417    3    0    3
 -2      1423      5376      5173      6312
 -1     37418    3    0    3
 -2      5376      1423      5173      6493
 -1     37419    3    0    3
 -2      2425      2521      2426      5860
 -1     37420    3    0    3
 -2      5403      3930      5402      3959
 -1     37421    3    0    3
 -2      1150      5742      1203      1320
 -1     37422    3    0    3
 -2      5837      4991      3542      5860
 -1     37423    3    0    3
 -2      3930      5403      5402      3590
 -1     37424    3    0    3
 -2      1431      6775      5573      5567
 -1     37425    3    0    3
 -2      3542      4991      4990      5860
 -1     37426    3    0    3
 -2      2552      4952      5000      2614
 -1     37427    3    0    3
 -2      5392      3933      3521      5861
 -1     37428    3    0    3
 -2      5528       958      5525      6544
 -1     37429    3    0    3
 -2      5389      3521      3933      5861
 -1     37430    3    0    3
 -2      5960      6318      3633      5337
 -1     37431    3    0    3
 -2      6318      5960      3633      5864
 -1     37432    3    0    3
 -2      3480      5945      5865      4778
 -1     37433    3    0    3
 -2      4985      4988      3482      5862
 -1     37434    3    0    3
 -2      4446      5767      4997      3583
 -1     37435    3    0    3
 -2      6318      5331      1502      6306
 -1     37436    3    0    3
 -2      4958      3364      4368      5873
 -1     37437    3    0    3
 -2      1742      4958      5831      5873
 -1     37438    3    0    3
 -2      4368      4960      5831      5873
 -1     37439    3    0    3
 -2      4960      5525      3580      3614
 -1     37440    3    0    3
 -2      5525      4960      3580      3549
 -1     37441    3    0    3
 -2       889       657      6277      6276
 -1     37442    3    0    3
 -2      3480      5945      4778      3513
 -1     37443    3    0    3
 -2      6658      3085      5971      5370
 -1     37444    3    0    3
 -2      6658      3085      3088      5971
 -1     37445    3    0    3
 -2      5948      2281      4792      5887
 -1     37446    3    0    3
 -2      2522      2309      2422      6258
 -1     37447    3    0    3
 -2      3480      4784      4780      5973
 -1     37448    3    0    3
 -2      5707      3480      5865      5973
 -1     37449    3    0    3
 -2      2198      2330      2197      5964
 -1     37450    3    0    3
 -2      5707      4784      3480      5973
 -1     37451    3    0    3
 -2      2197      2028      1967      5973
 -1     37452    3    0    3
 -2      5878      6799      6055      5371
 -1     37453    3    0    3
 -2      3480      4783      5707      5865
 -1     37454    3    0    3
 -2      6187      4676      3857      4677
 -1     37455    3    0    3
 -2      4390      4982      3851      5866
 -1     37456    3    0    3
 -2      4390      4967      1888      5866
 -1     37457    3    0    3
 -2      4967      2119      1888      5866
 -1     37458    3    0    3
 -2      2076      6257      4847      4280
 -1     37459    3    0    3
 -2      5817      4982      5856      5866
 -1     37460    3    0    3
 -2      3361      1727      1876      4051
 -1     37461    3    0    3
 -2      2009      5928      1863      1714
 -1     37462    3    0    3
 -2      3018      1807      1846      4529
 -1     37463    3    0    3
 -2      6671      5584       783      5754
 -1     37464    3    0    3
 -2      2843      2817      2802      5932
 -1     37465    3    0    3
 -2      2800      2802      4804      5932
 -1     37466    3    0    3
 -2      4949      5514      3680      6761
 -1     37467    3    0    3
 -2      5324      5326      3652      6382
 -1     37468    3    0    3
 -2      5514      5868      3680      6761
 -1     37469    3    0    3
 -2      3863      3367      3647      6761
 -1     37470    3    0    3
 -2      3366       484      3367      5883
 -1     37471    3    0    3
 -2      5883      3367      3863      6761
 -1     37472    3    0    3
 -2      3647      3665      5516      6009
 -1     37473    3    0    3
 -2      2785      5756      5926      2854
 -1     37474    3    0    3
 -2      4132      5815      5388      5871
 -1     37475    3    0    3
 -2      5815      4132      5388      5814
 -1     37476    3    0    3
 -2      4740      6045      6130      6131
 -1     37477    3    0    3
 -2      3865      4740      4734      6045
 -1     37478    3    0    3
 -2      6045      4737      4743      6132
 -1     37479    3    0    3
 -2      2508      4740      6130      6131
 -1     37480    3    0    3
 -2      5312      4749      3859      3801
 -1     37481    3    0    3
 -2      6666      4808      5875      6799
 -1     37482    3    0    3
 -2      1189      5527      5526      5655
 -1     37483    3    0    3
 -2      5527      1189      5526      5876
 -1     37484    3    0    3
 -2      2102      5716      2186      2103
 -1     37485    3    0    3
 -2      4107      5370      4807      6055
 -1     37486    3    0    3
 -2      5875      3046      3083      5878
 -1     37487    3    0    3
 -2      1836      5737      1881      1982
 -1     37488    3    0    3
 -2      3200      3592      4730      3201
 -1     37489    3    0    3
 -2      6123      4717      4719      6183
 -1     37490    3    0    3
 -2      5828      5986      5935      2179
 -1     37491    3    0    3
 -2      1941      2220      1942      6046
 -1     37492    3    0    3
 -2      5777      2165      4979      5778
 -1     37493    3    0    3
 -2      2165      5777      4979      6757
 -1     37494    3    0    3
 -2      5863      4472      4955      5873
 -1     37495    3    0    3
 -2      2085      1742      5831      5873
 -1     37496    3    0    3
 -2      1742      2085      1743      5873
 -1     37497    3    0    3
 -2      5863      2085      5831      5873
 -1     37498    3    0    3
 -2      3031      3059       226      5874
 -1     37499    3    0    3
 -2      3045      3031      3032      5877
 -1     37500    3    0    3
 -2       790       861       860      6067
 -1     37501    3    0    3
 -2      6049      4083      5388      6074
 -1     37502    3    0    3
 -2      3059       753      5874      5877
 -1     37503    3    0    3
 -2      5934      5755      4804      5933
 -1     37504    3    0    3
 -2      2358      5993      2595      5002
 -1     37505    3    0    3
 -2      5371      5966      6034      6055
 -1     37506    3    0    3
 -2      5971      4807      5370      6055
 -1     37507    3    0    3
 -2      3046      3045      3083      5878
 -1     37508    3    0    3
 -2      5880      5388      4053      5814
 -1     37509    3    0    3
 -2      6670      3063      3062      6793
 -1     37510    3    0    3
 -2      5875      4132      3084      6793
 -1     37511    3    0    3
 -2      6666      4132      5875      6793
 -1     37512    3    0    3
 -2      1836      5737      3063      1881
 -1     37513    3    0    3
 -2      3764      4859      5424      4312
 -1     37514    3    0    3
 -2      3059      3045      3047      5966
 -1     37515    3    0    3
 -2      5527      1330      1189      5876
 -1     37516    3    0    3
 -2      4743      2615      4740      6130
 -1     37517    3    0    3
 -2      3084      6050      4132       460
 -1     37518    3    0    3
 -2      3084      6050      6793      4132
 -1     37519    3    0    3
 -2      3522      5529      5527      5876
 -1     37520    3    0    3
 -2      5527      5529      1330      5876
 -1     37521    3    0    3
 -2      4121      6412      6417      5282
 -1     37522    3    0    3
 -2      4121      6412      5282      4075
 -1     37523    3    0    3
 -2       753       672      5371      5966
 -1     37524    3    0    3
 -2      6057       252      2739       760
 -1     37525    3    0    3
 -2       122      5290       845       121
 -1     37526    3    0    3
 -2      4121      6412      5280      6417
 -1     37527    3    0    3
 -2      6064       891      1171      5176
 -1     37528    3    0    3
 -2      5871      5388      4132      6074
 -1     37529    3    0    3
 -2      3084      6050       459      6793
 -1     37530    3    0    3
 -2      4779      2541      2526      6802
 -1     37531    3    0    3
 -2      3368      5868      3340      3376
 -1     37532    3    0    3
 -2      4952      3584      4950      5879
 -1     37533    3    0    3
 -2      2294      4950      5826      5879
 -1     37534    3    0    3
 -2      4952      4950      2294      5879
 -1     37535    3    0    3
 -2       394      2720      2749      6665
 -1     37536    3    0    3
 -2      5815      2725       460      6050
 -1     37537    3    0    3
 -2       459       460      2725      6050
 -1     37538    3    0    3
 -2      3521      4020      4049      5389
 -1     37539    3    0    3
 -2      6216      6211      5701      6662
 -1     37540    3    0    3
 -2      4020      4826      4049      6072
 -1     37541    3    0    3
 -2      4050       859       878      5596
 -1     37542    3    0    3
 -2      5700      5388      4053      5881
 -1     37543    3    0    3
 -2      6688      1930      5032      5738
 -1     37544    3    0    3
 -2      5126       192       848      2929
 -1     37545    3    0    3
 -2      1862      6028      4763      6032
 -1     37546    3    0    3
 -2      5313      5312      4461      3788
 -1     37547    3    0    3
 -2      2346      4742      2316      6394
 -1     37548    3    0    3
 -2      1862      6028      6032      3218
 -1     37549    3    0    3
 -2      2561      2602      2508      6131
 -1     37550    3    0    3
 -2      2523      4771      2594      2643
 -1     37551    3    0    3
 -2      1862       483      1880      6097
 -1     37552    3    0    3
 -2      1862      2007      4763      6097
 -1     37553    3    0    3
 -2      5888      2442      5954      4789
 -1     37554    3    0    3
 -2      5888      2442      2526      5954
 -1     37555    3    0    3
 -2      4949      3680      4763      6028
 -1     37556    3    0    3
 -2      5296      1290      1258      5302
 -1     37557    3    0    3
 -2      5868      6380      3680       486
 -1     37558    3    0    3
 -2      5883       484      3367      6761
 -1     37559    3    0    3
 -2      1960      2097      4803      5884
 -1     37560    3    0    3
 -2      4441      4798      4803      5884
 -1     37561    3    0    3
 -2      4950      2400      4764      5820
 -1     37562    3    0    3
 -2       830       578       625        58
 -1     37563    3    0    3
 -2      6688      1930      2087      5079
 -1     37564    3    0    3
 -2      4757      4758      2203      6001
 -1     37565    3    0    3
 -2      2175      2176      2090      5933
 -1     37566    3    0    3
 -2      1232      5449      6300       947
 -1     37567    3    0    3
 -2      5828      5014      2023      5935
 -1     37568    3    0    3
 -2      2045      5978      4801      2046
 -1     37569    3    0    3
 -2      2526      4779      5888      5954
 -1     37570    3    0    3
 -2      5888      4779      4789      5954
 -1     37571    3    0    3
 -2      2526      2442      2438      5954
 -1     37572    3    0    3
 -2      2526      2438      4779      5954
 -1     37573    3    0    3
 -2      2168      2438      2442      5954
 -1     37574    3    0    3
 -2      5885      2168      2442      5954
 -1     37575    3    0    3
 -2      5566      1599      1522      5886
 -1     37576    3    0    3
 -2      1599      1528      1522      5886
 -1     37577    3    0    3
 -2      5565      5566      1522      5886
 -1     37578    3    0    3
 -2      5565      1522      1528      5886
 -1     37579    3    0    3
 -2      3469      5566      5565      5886
 -1     37580    3    0    3
 -2      2990      1768       447       448
 -1     37581    3    0    3
 -2      1869      5909      4680      4677
 -1     37582    3    0    3
 -2      5887      4497      5949      5978
 -1     37583    3    0    3
 -2      2559      4786      5996      4788
 -1     37584    3    0    3
 -2      2010      1713      2045      5949
 -1     37585    3    0    3
 -2      1020      1104      5968      1021
 -1     37586    3    0    3
 -2      2046      2147      2045      5978
 -1     37587    3    0    3
 -2       706      6327       879       678
 -1     37588    3    0    3
 -2      4786      4776      2675      5664
 -1     37589    3    0    3
 -2      4375      4352      5578      4323
 -1     37590    3    0    3
 -2      2649      5686      4840      6259
 -1     37591    3    0    3
 -2      4261      5731      5658      5600
 -1     37592    3    0    3
 -2      5074        73      1797      1798
 -1     37593    3    0    3
 -2      4403      5571      5577      5889
 -1     37594    3    0    3
 -2      5577      5578      4403      5889
 -1     37595    3    0    3
 -2      1274      5578      5577      5889
 -1     37596    3    0    3
 -2      5578      5572      4403      5889
 -1     37597    3    0    3
 -2       514      1859        91      1773
 -1     37598    3    0    3
 -2      2649      5686      2546      2716
 -1     37599    3    0    3
 -2      5841      1053      5762      5838
 -1     37600    3    0    3
 -2      5006      3497      5000      5890
 -1     37601    3    0    3
 -2      3830      5413      5410      4344
 -1     37602    3    0    3
 -2      2689      5965      4773      5893
 -1     37603    3    0    3
 -2      3661      5965      5893      4773
 -1     37604    3    0    3
 -2      5413      3830      5410      5685
 -1     37605    3    0    3
 -2      5583      5016      4352      5891
 -1     37606    3    0    3
 -2      5892      1737      1740      5941
 -1     37607    3    0    3
 -2      5941      5661      3300      6121
 -1     37608    3    0    3
 -2      1745      1917      1740      5892
 -1     37609    3    0    3
 -2      1740       463       358      6121
 -1     37610    3    0    3
 -2      3297      3293      3312      6262
 -1     37611    3    0    3
 -2      2309      2053      2422      5924
 -1     37612    3    0    3
 -2      4782      5892      5925      6737
 -1     37613    3    0    3
 -2      6236      6339      5462      6292
 -1     37614    3    0    3
 -2      1343      5341      5947      1131
 -1     37615    3    0    3
 -2      6292      1177      5465      6236
 -1     37616    3    0    3
 -2      2619      5907      4989      5020
 -1     37617    3    0    3
 -2      5389      5815      5881      5880
 -1     37618    3    0    3
 -2      5389      5815      2757      6057
 -1     37619    3    0    3
 -2      3695      4773      4767      5965
 -1     37620    3    0    3
 -2      5947      1131      5341      5957
 -1     37621    3    0    3
 -2      6308      5335      6304      6311
 -1     37622    3    0    3
 -2      6236      6339      6292      1177
 -1     37623    3    0    3
 -2      6231      5894      5334      6311
 -1     37624    3    0    3
 -2      3606      5333      5332      6308
 -1     37625    3    0    3
 -2      5334      5335      3606      6308
 -1     37626    3    0    3
 -2      3027      1836      6766      3073
 -1     37627    3    0    3
 -2      5881      5700      5388      6323
 -1     37628    3    0    3
 -2      4050       859      5644       878
 -1     37629    3    0    3
 -2      6350      6319      5364      6726
 -1     37630    3    0    3
 -2      5807      5013      2269      5897
 -1     37631    3    0    3
 -2      5901      5015      5016      5921
 -1     37632    3    0    3
 -2      5900      2556      2555      2563
 -1     37633    3    0    3
 -2      4634      3183      3158      3244
 -1     37634    3    0    3
 -2      3469      5819      4515      5000
 -1     37635    3    0    3
 -2      5829      1182      1097      5578
 -1     37636    3    0    3
 -2      3469      5819      5001      4515
 -1     37637    3    0    3
 -2      5828      5005      2136      5896
 -1     37638    3    0    3
 -2      3469      5819      5000      5900
 -1     37639    3    0    3
 -2      5017      5802      5034      5914
 -1     37640    3    0    3
 -2      5013      2306      2269      5897
 -1     37641    3    0    3
 -2      2306      1991      2269      5897
 -1     37642    3    0    3
 -2      5807      2269      1986      5897
 -1     37643    3    0    3
 -2      2269      1991      1986      5897
 -1     37644    3    0    3
 -2      5001      5007      2709      5899
 -1     37645    3    0    3
 -2      5007      5001      2709      5819
 -1     37646    3    0    3
 -2      5585      4422      5586      5898
 -1     37647    3    0    3
 -2      1645      5585      5586      5898
 -1     37648    3    0    3
 -2      4422      5588      5586      5898
 -1     37649    3    0    3
 -2      1487      1475      1488      6361
 -1     37650    3    0    3
 -2      5395      1614      6061      6069
 -1     37651    3    0    3
 -2      1614      5395      6061      6060
 -1     37652    3    0    3
 -2      4796      2664      4999      6373
 -1     37653    3    0    3
 -2      2664      4796      4999      5991
 -1     37654    3    0    3
 -2      5819      2562      5000      5900
 -1     37655    3    0    3
 -2      4998      5000      3526      6654
 -1     37656    3    0    3
 -2      3469      5000      4998      5900
 -1     37657    3    0    3
 -2      4998      2562      2563      5900
 -1     37658    3    0    3
 -2      5912      5009      5012      5916
 -1     37659    3    0    3
 -2      2877      2787      5891      5921
 -1     37660    3    0    3
 -2      2825       374      1812      5901
 -1     37661    3    0    3
 -2      2826       374      2825      5901
 -1     37662    3    0    3
 -2      2344      6722      2154      5795
 -1     37663    3    0    3
 -2      6079      5197      6769      6459
 -1     37664    3    0    3
 -2      5197      6079      6769      3787
 -1     37665    3    0    3
 -2      5884      2090      2175      2097
 -1     37666    3    0    3
 -2      5884      2090      5933      2175
 -1     37667    3    0    3
 -2      5025      2398      5024      5803
 -1     37668    3    0    3
 -2      6000      6658      6005      5370
 -1     37669    3    0    3
 -2      1093      5726      5189      1264
 -1     37670    3    0    3
 -2      4980      4977      3659      3693
 -1     37671    3    0    3
 -2      4977      4980      3659      3873
 -1     37672    3    0    3
 -2      5713      6330      5036      5715
 -1     37673    3    0    3
 -2      5906      2620      2404      5746
 -1     37674    3    0    3
 -2      5919      5903      2867      6797
 -1     37675    3    0    3
 -2      2833      2812      2831      5919
 -1     37676    3    0    3
 -2      4267      5903      5732      5035
 -1     37677    3    0    3
 -2      2836      5903      5035      6797
 -1     37678    3    0    3
 -2      2836      5035      2838      6797
 -1     37679    3    0    3
 -2      4267      5903      5035      5733
 -1     37680    3    0    3
 -2      4454      5576      5575      5904
 -1     37681    3    0    3
 -2      5576      1651      5575      5904
 -1     37682    3    0    3
 -2      4454      5575      5585      5904
 -1     37683    3    0    3
 -2      1651      5585      5575      5904
 -1     37684    3    0    3
 -2      1128       863      5196      6458
 -1     37685    3    0    3
 -2      2344      6722      5777      2419
 -1     37686    3    0    3
 -2      2114      4634      6585      6124
 -1     37687    3    0    3
 -2      3756      6769      5197      4282
 -1     37688    3    0    3
 -2      5194      1147      1028      6155
 -1     37689    3    0    3
 -2      1011      3895      5208      6155
 -1     37690    3    0    3
 -2      3487      5194      4194      6155
 -1     37691    3    0    3
 -2      5891      5015      2877      5921
 -1     37692    3    0    3
 -2      1393      6007      5383      6075
 -1     37693    3    0    3
 -2      2457      2662      2607      6367
 -1     37694    3    0    3
 -2      5909      4677      6187      4248
 -1     37695    3    0    3
 -2       899      6420      1194      1183
 -1     37696    3    0    3
 -2      5909      4677      2021      6187
 -1     37697    3    0    3
 -2      5909      4677      4248      4680
 -1     37698    3    0    3
 -2      2618      2667      2651      5907
 -1     37699    3    0    3
 -2      4989      2618      2651      5907
 -1     37700    3    0    3
 -2      6187      6180      4717      3857
 -1     37701    3    0    3
 -2      6180      6183      6187      4717
 -1     37702    3    0    3
 -2       663       506      5489       507
 -1     37703    3    0    3
 -2      6187      6180      2020      2278
 -1     37704    3    0    3
 -2      5018      2550      4987      5908
 -1     37705    3    0    3
 -2      4506      5018      4987      5908
 -1     37706    3    0    3
 -2      4506      4987      4964      5908
 -1     37707    3    0    3
 -2      4964      4987      2550      5908
 -1     37708    3    0    3
 -2      6756      2812      5919      5849
 -1     37709    3    0    3
 -2      6756      2812      5849      2795
 -1     37710    3    0    3
 -2      5289      6431      3685      1241
 -1     37711    3    0    3
 -2      2020      2278      2021      6187
 -1     37712    3    0    3
 -2      2642      5910      2688      5020
 -1     37713    3    0    3
 -2      6252      3447      3915      4769
 -1     37714    3    0    3
 -2      2719      2688      2662      5910
 -1     37715    3    0    3
 -2      5917      5021      5024      6367
 -1     37716    3    0    3
 -2      4075      6412      5282      6743
 -1     37717    3    0    3
 -2      5019      5018      4454      5911
 -1     37718    3    0    3
 -2      5008      5018      2712      5911
 -1     37719    3    0    3
 -2      5018      5008      4454      5911
 -1     37720    3    0    3
 -2       377      5802      1818      2810
 -1     37721    3    0    3
 -2      5827      5012      5009      5916
 -1     37722    3    0    3
 -2      5917      2607      2603      5735
 -1     37723    3    0    3
 -2      2514      5022      2500      5912
 -1     37724    3    0    3
 -2      2515      2514      2500      5912
 -1     37725    3    0    3
 -2      2607      5917      2603      2457
 -1     37726    3    0    3
 -2      2515      5019      2514      5912
 -1     37727    3    0    3
 -2      5897      5017      5013      5914
 -1     37728    3    0    3
 -2      5727      5036      5713      5739
 -1     37729    3    0    3
 -2      4056      5992      4087      5380
 -1     37730    3    0    3
 -2      5855      4349      5023      5913
 -1     37731    3    0    3
 -2      5013      5023      4349      5913
 -1     37732    3    0    3
 -2      2307      2334      5855      5913
 -1     37733    3    0    3
 -2      2334      2307      2273      5913
 -1     37734    3    0    3
 -2      5034      5017      2855      5802
 -1     37735    3    0    3
 -2      5913      2273      2306      5914
 -1     37736    3    0    3
 -2      5017      5034      2855      5849
 -1     37737    3    0    3
 -2      5913      5013      5023      5914
 -1     37738    3    0    3
 -2      1336      6301      1291      5301
 -1     37739    3    0    3
 -2      2561      2560      2447      6194
 -1     37740    3    0    3
 -2      4345      4521      3473      4683
 -1     37741    3    0    3
 -2      6045      3896      6194      4734
 -1     37742    3    0    3
 -2      1533      5339      1507      1579
 -1     37743    3    0    3
 -2      2061      4672      4673      1719
 -1     37744    3    0    3
 -2      5915      3896      4735      6189
 -1     37745    3    0    3
 -2      4143      6493      5170      6022
 -1     37746    3    0    3
 -2      5827      2551      5012      5916
 -1     37747    3    0    3
 -2      2076      6259      2096      2649
 -1     37748    3    0    3
 -2      2076      6259      2649      5698
 -1     37749    3    0    3
 -2      2076      6259      5698      4847
 -1     37750    3    0    3
 -2       377      5802      2810      2839
 -1     37751    3    0    3
 -2      4797      2638      2605      2506
 -1     37752    3    0    3
 -2      4447      6619      5593      4393
 -1     37753    3    0    3
 -2      5403      1412      5688      1555
 -1     37754    3    0    3
 -2      2638      4797      2605      5972
 -1     37755    3    0    3
 -2      2445      4797      6340      4798
 -1     37756    3    0    3
 -2      3583      1974      4996      5767
 -1     37757    3    0    3
 -2      1974      3583      4996      4274
 -1     37758    3    0    3
 -2      1230      6637      5570      6331
 -1     37759    3    0    3
 -2      6637      1230      5570      5757
 -1     37760    3    0    3
 -2      3679      4501      3648       107
 -1     37761    3    0    3
 -2      5599      4289      5032      4259
 -1     37762    3    0    3
 -2      5823      4189      5035      5918
 -1     37763    3    0    3
 -2      5823      5715      4189      5918
 -1     37764    3    0    3
 -2      1230      6637      6331       994
 -1     37765    3    0    3
 -2      5849      5779      5601      6756
 -1     37766    3    0    3
 -2      4284      6574      5816      4901
 -1     37767    3    0    3
 -2      5779      2794      2793      6756
 -1     37768    3    0    3
 -2      5849      5601      5919      6756
 -1     37769    3    0    3
 -2      5849      5584      5779      6756
 -1     37770    3    0    3
 -2      2819       699      5347      6726
 -1     37771    3    0    3
 -2      2892      4505      2913      4669
 -1     37772    3    0    3
 -2      5864      1558      6318      5960
 -1     37773    3    0    3
 -2      2870      5772      5581      5923
 -1     37774    3    0    3
 -2      2329      2275      2448      6219
 -1     37775    3    0    3
 -2      5920      2329      2448      6219
 -1     37776    3    0    3
 -2      3740       929      6037      5328
 -1     37777    3    0    3
 -2      2491      5869      2535      2650
 -1     37778    3    0    3
 -2      2491      5869      4986      4988
 -1     37779    3    0    3
 -2      2491      5869      4988      2535
 -1     37780    3    0    3
 -2      2491      5869      2650      4986
 -1     37781    3    0    3
 -2      2878      2877      2826      5921
 -1     37782    3    0    3
 -2      5901      2826      5015      5921
 -1     37783    3    0    3
 -2      2877      5015      2826      5921
 -1     37784    3    0    3
 -2      5922       372      1736      6724
 -1     37785    3    0    3
 -2      6348      5975      5365      2864
 -1     37786    3    0    3
 -2      5004      5005      2392      5773
 -1     37787    3    0    3
 -2      6348      5975       677      1022
 -1     37788    3    0    3
 -2      2009      5928      4802      5948
 -1     37789    3    0    3
 -2      2009      5928      1714      4802
 -1     37790    3    0    3
 -2      5812      5772      2876      5923
 -1     37791    3    0    3
 -2      5582      5772      5812      5923
 -1     37792    3    0    3
 -2      6348      5975      2864       677
 -1     37793    3    0    3
 -2      2009      5928      5948      1863
 -1     37794    3    0    3
 -2      5867      2862      2870      5923
 -1     37795    3    0    3
 -2      2866      2870      2862      5923
 -1     37796    3    0    3
 -2      5812      2876      2866      5923
 -1     37797    3    0    3
 -2      2876      2870      2866      5923
 -1     37798    3    0    3
 -2      2163      2068      2309      5925
 -1     37799    3    0    3
 -2      3545      4772      4770      5924
 -1     37800    3    0    3
 -2      5985       364      1895      2806
 -1     37801    3    0    3
 -2      3795      4770      4015      6260
 -1     37802    3    0    3
 -2      5453      4889      3581      3553
 -1     37803    3    0    3
 -2      2053      2117      1712      5944
 -1     37804    3    0    3
 -2      5944      2053      2117      6737
 -1     37805    3    0    3
 -2      3298      4781      3297      5944
 -1     37806    3    0    3
 -2      5355      5365      1022      6327
 -1     37807    3    0    3
 -2      5925      2068      2309      6737
 -1     37808    3    0    3
 -2      1917      5892      5944      6737
 -1     37809    3    0    3
 -2      4889      5453      3581      3550
 -1     37810    3    0    3
 -2      5944      2117      1917      6737
 -1     37811    3    0    3
 -2      1917      2068      5892      6737
 -1     37812    3    0    3
 -2      2219      6046      1942      2220
 -1     37813    3    0    3
 -2      4783      4782      3513      5943
 -1     37814    3    0    3
 -2      5857      4323      5016      5926
 -1     37815    3    0    3
 -2      5366      6777      2880      5930
 -1     37816    3    0    3
 -2      6777      5366      2880      6366
 -1     37817    3    0    3
 -2      5016      5850      2825      5926
 -1     37818    3    0    3
 -2      2785      5016      2825      5926
 -1     37819    3    0    3
 -2       678      5366      5975      6366
 -1     37820    3    0    3
 -2      2406      6015      6340      2445
 -1     37821    3    0    3
 -2      5906      4364      5745      5027
 -1     37822    3    0    3
 -2      5864      1502      1402      1403
 -1     37823    3    0    3
 -2       901      6779      1194      5295
 -1     37824    3    0    3
 -2      6121      3298      3300       358
 -1     37825    3    0    3
 -2      5864      1502      6306      6318
 -1     37826    3    0    3
 -2      5936      2879      2845      6345
 -1     37827    3    0    3
 -2      5364      2847      6345      6350
 -1     37828    3    0    3
 -2      2879      2820      2861      5936
 -1     37829    3    0    3
 -2      2809      6777      2880      6366
 -1     37830    3    0    3
 -2      2809      6777      6366      5975
 -1     37831    3    0    3
 -2       366      2799      1714      5928
 -1     37832    3    0    3
 -2      1863       366      1714      5928
 -1     37833    3    0    3
 -2      2856      2853      2857      5929
 -1     37834    3    0    3
 -2      1863      4803      1790      5929
 -1     37835    3    0    3
 -2      2856       367      2853      5929
 -1     37836    3    0    3
 -2       367      1790      2853      5929
 -1     37837    3    0    3
 -2       367      2856      1863      5929
 -1     37838    3    0    3
 -2       367      1863      1790      5929
 -1     37839    3    0    3
 -2      2821      5927      5928      5929
 -1     37840    3    0    3
 -2      2557      4794      4788      6370
 -1     37841    3    0    3
 -2      6335       880       953      6341
 -1     37842    3    0    3
 -2      4385       716      3002      5246
 -1     37843    3    0    3
 -2      5366      2880      2798      5930
 -1     37844    3    0    3
 -2      2857      2798      2880      5930
 -1     37845    3    0    3
 -2      5354      5351      1623      6365
 -1     37846    3    0    3
 -2      2870      5772      5923      2876
 -1     37847    3    0    3
 -2      4168      6658      5963      4806
 -1     37848    3    0    3
 -2      5927      5365      4467      6777
 -1     37849    3    0    3
 -2      1204      1256      1239      5931
 -1     37850    3    0    3
 -2      5956      2848      2849      6350
 -1     37851    3    0    3
 -2      5341      1239      1382      5931
 -1     37852    3    0    3
 -2      1256      1382      1239      5931
 -1     37853    3    0    3
 -2      6324      1126       856      1135
 -1     37854    3    0    3
 -2      2873      6755      4804      5937
 -1     37855    3    0    3
 -2      6755      2873      4804      1789
 -1     37856    3    0    3
 -2      2800      2801      2802      5932
 -1     37857    3    0    3
 -2      5755      2801      2800      5932
 -1     37858    3    0    3
 -2      2800      4804      5755      5932
 -1     37859    3    0    3
 -2      6252      3447      4769      6217
 -1     37860    3    0    3
 -2      4729      3199      1788      3592
 -1     37861    3    0    3
 -2      2219      6046      2067      1942
 -1     37862    3    0    3
 -2      4729      3199      3592      3200
 -1     37863    3    0    3
 -2      6324      1126      6325      5467
 -1     37864    3    0    3
 -2       718      5968      1021      1020
 -1     37865    3    0    3
 -2       678      6327       879      1022
 -1     37866    3    0    3
 -2      4783      2872      2829      1738
 -1     37867    3    0    3
 -2      2090      1789      2097      5934
 -1     37868    3    0    3
 -2      4783      2872      6104      5943
 -1     37869    3    0    3
 -2      4783      2872      1738      6104
 -1     37870    3    0    3
 -2      6678      1929      2446      6211
 -1     37871    3    0    3
 -2      5930      4441      5937      6333
 -1     37872    3    0    3
 -2      2797      5366       706      6366
 -1     37873    3    0    3
 -2      4441      4803      5930      5937
 -1     37874    3    0    3
 -2      5366      2797       706      6341
 -1     37875    3    0    3
 -2        56      5498       710       516
 -1     37876    3    0    3
 -2      4783      2872      5943      2829
 -1     37877    3    0    3
 -2      4803      4441      5884      5934
 -1     37878    3    0    3
 -2      5012      5827      5009      4428
 -1     37879    3    0    3
 -2      5934      5755      2090      1789
 -1     37880    3    0    3
 -2      2406      2540      2357      5993
 -1     37881    3    0    3
 -2      5933      2176      2024      5935
 -1     37882    3    0    3
 -2      2024      2176      2179      5935
 -1     37883    3    0    3
 -2      6335      5366       880      6341
 -1     37884    3    0    3
 -2      5985      1895      1713      4801
 -1     37885    3    0    3
 -2      5958      3671      6100      4768
 -1     37886    3    0    3
 -2      2879      2847      2845      6345
 -1     37887    3    0    3
 -2      1883       363      2790      5959
 -1     37888    3    0    3
 -2      5885      2168      4780      5938
 -1     37889    3    0    3
 -2      2028      4780      2168      5938
 -1     37890    3    0    3
 -2      6340      4441      4490      4800
 -1     37891    3    0    3
 -2      4780      4784      3449      5938
 -1     37892    3    0    3
 -2      5949      4497      4801      5978
 -1     37893    3    0    3
 -2      3449      4784      4801      5938
 -1     37894    3    0    3
 -2       365      1713      1714      5939
 -1     37895    3    0    3
 -2      2799       365      1714      5939
 -1     37896    3    0    3
 -2      1374      5757      5689      5570
 -1     37897    3    0    3
 -2      4428      6631      5576      5852
 -1     37898    3    0    3
 -2      5761      6240      6383      1073
 -1     37899    3    0    3
 -2      2806      2845      4801      5985
 -1     37900    3    0    3
 -2      4468      4112      5488      4090
 -1     37901    3    0    3
 -2      2850      2805      2875      5940
 -1     37902    3    0    3
 -2      5936      3449      4497      5364
 -1     37903    3    0    3
 -2      5691      3665      6009      5516
 -1     37904    3    0    3
 -2      2329      4768      6219      5920
 -1     37905    3    0    3
 -2      2870      5772      2876      2834
 -1     37906    3    0    3
 -2      6335      6333      4441      5366
 -1     37907    3    0    3
 -2      6024      1326      1088      1365
 -1     37908    3    0    3
 -2      2849      2803      2850      5956
 -1     37909    3    0    3
 -2      1740      1745      5892      6121
 -1     37910    3    0    3
 -2      3311      3292       466      6272
 -1     37911    3    0    3
 -2      5661      3300      3301      5941
 -1     37912    3    0    3
 -2      3301      3300       464      5941
 -1     37913    3    0    3
 -2      1740      5892      5941      6121
 -1     37914    3    0    3
 -2      3300       358       463      6121
 -1     37915    3    0    3
 -2      6273      6228      5345      6274
 -1     37916    3    0    3
 -2      5943      2841      6273      6274
 -1     37917    3    0    3
 -2      5463      6342      1081      6218
 -1     37918    3    0    3
 -2      4784      5707      5940      5942
 -1     37919    3    0    3
 -2      5707      4784      1827      5942
 -1     37920    3    0    3
 -2      6340      4441      4800      5884
 -1     37921    3    0    3
 -2      3795      5273      4711      3609
 -1     37922    3    0    3
 -2      3305      3578      4781      6265
 -1     37923    3    0    3
 -2      6192      3578      5344      6265
 -1     37924    3    0    3
 -2      1232      5450      6290      6291
 -1     37925    3    0    3
 -2      5438      1500      1611      1612
 -1     37926    3    0    3
 -2      3297      1712      3298      5944
 -1     37927    3    0    3
 -2      3795      4015      3312      6262
 -1     37928    3    0    3
 -2      5944      3297      1712      6262
 -1     37929    3    0    3
 -2      6192      3545      4770      6260
 -1     37930    3    0    3
 -2      3295      4711      5273      3303
 -1     37931    3    0    3
 -2      4781      3304      3305      6265
 -1     37932    3    0    3
 -2      5941      5892      1737      6104
 -1     37933    3    0    3
 -2      5444      1428      5447      6287
 -1     37934    3    0    3
 -2      1737      2056      1738      6104
 -1     37935    3    0    3
 -2      6202      4096      4608      6628
 -1     37936    3    0    3
 -2      4783      4782      5943      6104
 -1     37937    3    0    3
 -2      5958      3671      4768      3633
 -1     37938    3    0    3
 -2      5958      3671      4771      6100
 -1     37939    3    0    3
 -2      1360      1089      1207      6248
 -1     37940    3    0    3
 -2      3943      6738      4322      4154
 -1     37941    3    0    3
 -2      1970      6664      5703      5712
 -1     37942    3    0    3
 -2      4798      5948      4467      4803
 -1     37943    3    0    3
 -2      6301      3831      6295      5299
 -1     37944    3    0    3
 -2      4697       453      1841      4696
 -1     37945    3    0    3
 -2      5894      5335      5334      6311
 -1     37946    3    0    3
 -2      4697       453      2916       454
 -1     37947    3    0    3
 -2      5952      6304      5335      6311
 -1     37948    3    0    3
 -2      3449      5956      6350      4784
 -1     37949    3    0    3
 -2      5955      5329      6303      1202
 -1     37950    3    0    3
 -2      2559      6370      2557      4788
 -1     37951    3    0    3
 -2      2819      2849      2847      6350
 -1     37952    3    0    3
 -2      5888      2410      4789      2460
 -1     37953    3    0    3
 -2      5885      4789      2442      2410
 -1     37954    3    0    3
 -2      4792      4467      4798      6727
 -1     37955    3    0    3
 -2      5885      4789      2410      4790
 -1     37956    3    0    3
 -2      4803      1960      5884      5948
 -1     37957    3    0    3
 -2      5142      5140      4339      4034
 -1     37958    3    0    3
 -2      1869      5909      1925      4680
 -1     37959    3    0    3
 -2      2675      2541      4776      6802
 -1     37960    3    0    3
 -2      4497      4802      5887      5949
 -1     37961    3    0    3
 -2      5963      6792      4806      6657
 -1     37962    3    0    3
 -2      5963      6792      6657      5962
 -1     37963    3    0    3
 -2      5963      6792      4168      4806
 -1     37964    3    0    3
 -2      5939      1714      4802      5949
 -1     37965    3    0    3
 -2      2990      1768      4684       447
 -1     37966    3    0    3
 -2      5950      4771      3671      6100
 -1     37967    3    0    3
 -2      2190      2191      2402      5950
 -1     37968    3    0    3
 -2      2349      4044      6217      6251
 -1     37969    3    0    3
 -2      3606      4772      5706      6251
 -1     37970    3    0    3
 -2      4770      4772      3606      6251
 -1     37971    3    0    3
 -2      3606      4769      4770      6251
 -1     37972    3    0    3
 -2      3606      5706      4769      6251
 -1     37973    3    0    3
 -2      2288      4778      5945      6253
 -1     37974    3    0    3
 -2      2453      2402      5706      5950
 -1     37975    3    0    3
 -2      2402      2453      2190      5950
 -1     37976    3    0    3
 -2       699       920       919      6319
 -1     37977    3    0    3
 -2      6522      1327      1196      1398
 -1     37978    3    0    3
 -2      5355      1104      1103      5968
 -1     37979    3    0    3
 -2      6525      3030      6789      3078
 -1     37980    3    0    3
 -2      5938      4790      5978      4801
 -1     37981    3    0    3
 -2      1104      1021      1103      5968
 -1     37982    3    0    3
 -2      5951      5364      1020      5968
 -1     37983    3    0    3
 -2      1022      5355      1103      5968
 -1     37984    3    0    3
 -2      5947      1214       931      5952
 -1     37985    3    0    3
 -2      1214      1047       931      5952
 -1     37986    3    0    3
 -2      6277      6278      6276      6314
 -1     37987    3    0    3
 -2      4783      5943      3513      6274
 -1     37988    3    0    3
 -2       931       791       876      6739
 -1     37989    3    0    3
 -2      6227       791       931      6739
 -1     37990    3    0    3
 -2      6036      1623      1536      5351
 -1     37991    3    0    3
 -2      2643      2402      2403      6100
 -1     37992    3    0    3
 -2      4778      4772      5945      6253
 -1     37993    3    0    3
 -2      4778      4777      3572      5953
 -1     37994    3    0    3
 -2      5708      3572      4771      5953
 -1     37995    3    0    3
 -2      4771      3572      4777      5953
 -1     37996    3    0    3
 -2      2200      5785      5786      4977
 -1     37997    3    0    3
 -2      5885      3449      3508      4790
 -1     37998    3    0    3
 -2      1282      6301      1291      1153
 -1     37999    3    0    3
 -2      1282      6301      1153      5955
 -1     38000    3    0    3
 -2      3478      4790      4792      5969
 -1     38001    3    0    3
 -2      6295      5299      1205      6301
 -1     38002    3    0    3
 -2      2331      5964      4778      5970
 -1     38003    3    0    3
 -2      5330      3780      5301      6301
 -1     38004    3    0    3
 -2      2331      5964      2330      2198
 -1     38005    3    0    3
 -2       515      3894      3486      5498
 -1     38006    3    0    3
 -2      5301      3750      5330      6399
 -1     38007    3    0    3
 -2      6555      1327      1564      6133
 -1     38008    3    0    3
 -2        56      5498       515       745
 -1     38009    3    0    3
 -2      5438      1500      5436      6115
 -1     38010    3    0    3
 -2      2829      1738      2872       360
 -1     38011    3    0    3
 -2      4467      5887      4792      4497
 -1     38012    3    0    3
 -2      5346      3480      5940      5956
 -1     38013    3    0    3
 -2      4467      5887      4802      5948
 -1     38014    3    0    3
 -2      3480      4784      5940      5956
 -1     38015    3    0    3
 -2      1348      6310      6305      1045
 -1     38016    3    0    3
 -2       761       877       876      6352
 -1     38017    3    0    3
 -2      2559      6370      5996      2558
 -1     38018    3    0    3
 -2      4770      6217      4769      3853
 -1     38019    3    0    3
 -2      2514      5910      5019      2719
 -1     38020    3    0    3
 -2      5947       876      1131      5957
 -1     38021    3    0    3
 -2      1131       876      1239      5957
 -1     38022    3    0    3
 -2      2806      1895      4801      5959
 -1     38023    3    0    3
 -2      4322      6276      5333      6192
 -1     38024    3    0    3
 -2      4771      4777      3633      5958
 -1     38025    3    0    3
 -2      2329      2276      2275      6110
 -1     38026    3    0    3
 -2      2329      2403      2276      6110
 -1     38027    3    0    3
 -2      3596      6365      6036      5351
 -1     38028    3    0    3
 -2      2276      4766      2275      6110
 -1     38029    3    0    3
 -2      1895       363      1883      5959
 -1     38030    3    0    3
 -2      1895      2806       363      5959
 -1     38031    3    0    3
 -2      2806      2790       363      5959
 -1     38032    3    0    3
 -2      6792      2208      4811      6668
 -1     38033    3    0    3
 -2       723      2791      2792       264
 -1     38034    3    0    3
 -2       791      6227      5346      6739
 -1     38035    3    0    3
 -2      5342      6356      1417      6736
 -1     38036    3    0    3
 -2      6352      5956      5346      6316
 -1     38037    3    0    3
 -2      5328      5955      1153      6301
 -1     38038    3    0    3
 -2      5339      5960      1507      6736
 -1     38039    3    0    3
 -2      6555      1327      6133      5150
 -1     38040    3    0    3
 -2      6356      5339      1507      6736
 -1     38041    3    0    3
 -2      5389      5815      6057      5881
 -1     38042    3    0    3
 -2      2619      5907      2618      4989
 -1     38043    3    0    3
 -2      5961      2545      4774      5965
 -1     38044    3    0    3
 -2      2619      5907      5020      2667
 -1     38045    3    0    3
 -2      4771      2402      5950      5706
 -1     38046    3    0    3
 -2      4767      4768      3695      5965
 -1     38047    3    0    3
 -2      4768      5920      5961      5965
 -1     38048    3    0    3
 -2      4767      2423      2448      6230
 -1     38049    3    0    3
 -2      5961      5920      2628      5965
 -1     38050    3    0    3
 -2      5924      2121      4044      4015
 -1     38051    3    0    3
 -2      4807      5370      4136      6658
 -1     38052    3    0    3
 -2      5963      5962      3039      5995
 -1     38053    3    0    3
 -2      3052      3053      3051      6270
 -1     38054    3    0    3
 -2      5705      2664      2595      2556
 -1     38055    3    0    3
 -2      6479      4076      4017      4620
 -1     38056    3    0    3
 -2      6538      4225      5158      6655
 -1     38057    3    0    3
 -2      5962      3039      3091      5963
 -1     38058    3    0    3
 -2      3091      3039      3041      5963
 -1     38059    3    0    3
 -2      6657      4806      1815      6792
 -1     38060    3    0    3
 -2      4805      4168      5962      6792
 -1     38061    3    0    3
 -2      3091      3075      5962      6657
 -1     38062    3    0    3
 -2      5708      4778      6253      4772
 -1     38063    3    0    3
 -2      3091      5962      5963      6657
 -1     38064    3    0    3
 -2      2424      4767      2423      2218
 -1     38065    3    0    3
 -2      2541      4779      2330      5970
 -1     38066    3    0    3
 -2      2524      2541      2330      5970
 -1     38067    3    0    3
 -2      4779      3539      5964      5970
 -1     38068    3    0    3
 -2      5760      1679      5083      1681
 -1     38069    3    0    3
 -2      5964      2330      4779      5970
 -1     38070    3    0    3
 -2      2424      4767      2218      5967
 -1     38071    3    0    3
 -2      4777      2331      4778      5970
 -1     38072    3    0    3
 -2      3661      5965      4773      3695
 -1     38073    3    0    3
 -2      5961      4774      4768      5965
 -1     38074    3    0    3
 -2      4774      3695      4768      5965
 -1     38075    3    0    3
 -2      5880      5388      5881      4053
 -1     38076    3    0    3
 -2      2675      2526      2541      6802
 -1     38077    3    0    3
 -2      5878      3045      5877      5966
 -1     38078    3    0    3
 -2      5878      3046      3045      5966
 -1     38079    3    0    3
 -2      3046      3047      3045      5966
 -1     38080    3    0    3
 -2      4807      3088      3072      5971
 -1     38081    3    0    3
 -2      6055      4808      4107      6799
 -1     38082    3    0    3
 -2      6004      2459      2461      4786
 -1     38083    3    0    3
 -2      2460      5969      2363      2410
 -1     38084    3    0    3
 -2      4483      6631      5574      5573
 -1     38085    3    0    3
 -2      4483      6631      5573      5575
 -1     38086    3    0    3
 -2      2217      2448      2275      6219
 -1     38087    3    0    3
 -2      2585      5920      2448      6230
 -1     38088    3    0    3
 -2      4765      4767      3780      5967
 -1     38089    3    0    3
 -2      5968      5365      5364      6348
 -1     38090    3    0    3
 -2      5984      5364      5365      6348
 -1     38091    3    0    3
 -2       718      5364      5984      6348
 -1     38092    3    0    3
 -2      5951      5353      5364      5968
 -1     38093    3    0    3
 -2      5353      4497      5364      5968
 -1     38094    3    0    3
 -2      5918      4267      4240      5602
 -1     38095    3    0    3
 -2      4779      2526      5888      6802
 -1     38096    3    0    3
 -2      4249      4445       581       580
 -1     38097    3    0    3
 -2       731      3060      5370      6034
 -1     38098    3    0    3
 -2      4791      2363      2604      6013
 -1     38099    3    0    3
 -2      2327      6374      4762      4758
 -1     38100    3    0    3
 -2      2327      6374      4758      2203
 -1     38101    3    0    3
 -2      5906      4364      4393      5026
 -1     38102    3    0    3
 -2       147      5434       148       813
 -1     38103    3    0    3
 -2      5977      5372      5976      5987
 -1     38104    3    0    3
 -2      2331      4777      4778      5953
 -1     38105    3    0    3
 -2      2424      4767      6042      2423
 -1     38106    3    0    3
 -2      5770      5047      1926      5050
 -1     38107    3    0    3
 -2      3539      4777      4778      5970
 -1     38108    3    0    3
 -2      6075      5395      5383      6069
 -1     38109    3    0    3
 -2      4807      4808      4107      6055
 -1     38110    3    0    3
 -2      1574      1575      5401      1550
 -1     38111    3    0    3
 -2       921       672       731      6034
 -1     38112    3    0    3
 -2      6004      2459      5888      2460
 -1     38113    3    0    3
 -2      5966       672      5371      6034
 -1     38114    3    0    3
 -2      3071      3063      3073      6267
 -1     38115    3    0    3
 -2      2676      4744      4746      6039
 -1     38116    3    0    3
 -2      5966      5371      5878      6055
 -1     38117    3    0    3
 -2      4408       167      3321      3422
 -1     38118    3    0    3
 -2      4797      4799      3475      5982
 -1     38119    3    0    3
 -2      4797      2638      4794      5972
 -1     38120    3    0    3
 -2      4797      3446      4798      6017
 -1     38121    3    0    3
 -2      5922      2862      2866      2844
 -1     38122    3    0    3
 -2      5140      5142      4339      4292
 -1     38123    3    0    3
 -2      2364      2149      4792      6017
 -1     38124    3    0    3
 -2      2149      2364      2435      6017
 -1     38125    3    0    3
 -2      5865      3480      4778      5973
 -1     38126    3    0    3
 -2      4898      2250      2223      6752
 -1     38127    3    0    3
 -2      5878      6799      5371      4132
 -1     38128    3    0    3
 -2      5878      6799      4132      5875
 -1     38129    3    0    3
 -2      5865      4778      2198      5973
 -1     38130    3    0    3
 -2      5878      6799      5875      6055
 -1     38131    3    0    3
 -2      5974      4594      4202      6270
 -1     38132    3    0    3
 -2      4202      4594      4805      6270
 -1     38133    3    0    3
 -2      4805      5368      4202      6270
 -1     38134    3    0    3
 -2      5368      3066       682      6728
 -1     38135    3    0    3
 -2      3907      3996      3937      4823
 -1     38136    3    0    3
 -2      1959      6792      4806      6668
 -1     38137    3    0    3
 -2       233       771       682      6728
 -1     38138    3    0    3
 -2      5144      4264      4580      4239
 -1     38139    3    0    3
 -2       235      3054       827      6490
 -1     38140    3    0    3
 -2      6210      4593      4225      6655
 -1     38141    3    0    3
 -2      2809       678       266      5975
 -1     38142    3    0    3
 -2       677      2864       266      5975
 -1     38143    3    0    3
 -2       678       677       266      5975
 -1     38144    3    0    3
 -2      2809      2797       267      6366
 -1     38145    3    0    3
 -2       267       706       678      6366
 -1     38146    3    0    3
 -2       267       678      2809      6366
 -1     38147    3    0    3
 -2      5980      6319      5347       919
 -1     38148    3    0    3
 -2      2940      4670      3683      3893
 -1     38149    3    0    3
 -2       678      6327      5975      5366
 -1     38150    3    0    3
 -2      5991      4465      4520      5002
 -1     38151    3    0    3
 -2      5169      6184      5167      6502
 -1     38152    3    0    3
 -2      5700      1035      1281      1057
 -1     38153    3    0    3
 -2      6538      6210      4225      6655
 -1     38154    3    0    3
 -2      5158      5169      4225      6502
 -1     38155    3    0    3
 -2      5993      2176      5986      2357
 -1     38156    3    0    3
 -2      1217      1220       997      5976
 -1     38157    3    0    3
 -2       912       911      1226      5987
 -1     38158    3    0    3
 -2      5993      2176      2357      2406
 -1     38159    3    0    3
 -2      1239      5343      1204      5931
 -1     38160    3    0    3
 -2      6006      1656      1647      5378
 -1     38161    3    0    3
 -2      4816      6669      2470      2627
 -1     38162    3    0    3
 -2      5977       911       912      5987
 -1     38163    3    0    3
 -2      6669      4816      2470      6012
 -1     38164    3    0    3
 -2      2010      5887      5949      5978
 -1     38165    3    0    3
 -2      5887      2010      2146      5978
 -1     38166    3    0    3
 -2      6364      1433      5354      1307
 -1     38167    3    0    3
 -2      1239      5343      5980      1204
 -1     38168    3    0    3
 -2      6023      2591      4793      2610
 -1     38169    3    0    3
 -2      2045      2010      5949      5978
 -1     38170    3    0    3
 -2      2010      2045      2146      5978
 -1     38171    3    0    3
 -2      2358      5993      2357      2595
 -1     38172    3    0    3
 -2      5371      6055      4107      6799
 -1     38173    3    0    3
 -2      5971      4807      3088      6658
 -1     38174    3    0    3
 -2      5370       886      5380      6005
 -1     38175    3    0    3
 -2      3060       229       731      6000
 -1     38176    3    0    3
 -2      5966      5878      3046      6055
 -1     38177    3    0    3
 -2       877       919      1204      5980
 -1     38178    3    0    3
 -2       877      1239      5957      5980
 -1     38179    3    0    3
 -2      1204      1239       877      5980
 -1     38180    3    0    3
 -2      5990      5995      5368      4168
 -1     38181    3    0    3
 -2      5990      5995      4168      5369
 -1     38182    3    0    3
 -2      5990      5995      5369      5998
 -1     38183    3    0    3
 -2      5990      5995      5998      5368
 -1     38184    3    0    3
 -2      2540      2406      4799      5993
 -1     38185    3    0    3
 -2      5995      3040      3034      3039
 -1     38186    3    0    3
 -2      4520      5002      4999      5991
 -1     38187    3    0    3
 -2      6751      2761      2760      4049
 -1     38188    3    0    3
 -2      2801      5014      5932      5755
 -1     38189    3    0    3
 -2      5991      2595      5002      5705
 -1     38190    3    0    3
 -2      5870      2439      4733      2602
 -1     38191    3    0    3
 -2      2056      5925      5945      6104
 -1     38192    3    0    3
 -2      5982      4797      4799      6015
 -1     38193    3    0    3
 -2      5980      1115      1204      5343
 -1     38194    3    0    3
 -2      5980      1115       919      1204
 -1     38195    3    0    3
 -2      5361      3446      5983      6315
 -1     38196    3    0    3
 -2      3446      5361      5355      6315
 -1     38197    3    0    3
 -2      5983      1370      1390      6315
 -1     38198    3    0    3
 -2      5936      2879      5364      5984
 -1     38199    3    0    3
 -2      2861      2879      5936      5984
 -1     38200    3    0    3
 -2      5936      5365      2861      5984
 -1     38201    3    0    3
 -2      5364      5365      5936      5984
 -1     38202    3    0    3
 -2      1637      6010      5397      6071
 -1     38203    3    0    3
 -2      2147      5938      4790      5978
 -1     38204    3    0    3
 -2      5938      2147      4790      5885
 -1     38205    3    0    3
 -2       718       677      1021      6348
 -1     38206    3    0    3
 -2      2828      2820      2845      5985
 -1     38207    3    0    3
 -2      5939      5936      2820      5985
 -1     38208    3    0    3
 -2      2845      2820      5936      5985
 -1     38209    3    0    3
 -2      2406      6015      2507      4799
 -1     38210    3    0    3
 -2      2870      5772      2834      5581
 -1     38211    3    0    3
 -2      5009      5007      2653      5805
 -1     38212    3    0    3
 -2       997      5977      5158      5976
 -1     38213    3    0    3
 -2      5935      2176      2179      5986
 -1     38214    3    0    3
 -2      2357      2179      2176      5986
 -1     38215    3    0    3
 -2      2837      6682      2868      5823
 -1     38216    3    0    3
 -2      4758      4757      2203      6374
 -1     38217    3    0    3
 -2      2837      6682      5823      5035
 -1     38218    3    0    3
 -2      5977      5372      4202      5976
 -1     38219    3    0    3
 -2      5683      4486      6349      5571
 -1     38220    3    0    3
 -2      1792      3445      1876      2001
 -1     38221    3    0    3
 -2      2207      5740      4811      2311
 -1     38222    3    0    3
 -2      5976       911      5977      5987
 -1     38223    3    0    3
 -2      5976      1226       911      5987
 -1     38224    3    0    3
 -2      5988      5374      1283      6695
 -1     38225    3    0    3
 -2      1283      5374      1083      6695
 -1     38226    3    0    3
 -2      5372      5988      1284      6695
 -1     38227    3    0    3
 -2      1283      1284      5988      6695
 -1     38228    3    0    3
 -2      1283      1082      1284      6695
 -1     38229    3    0    3
 -2      1603      6557      5142      6771
 -1     38230    3    0    3
 -2      1283      1083      1082      6695
 -1     38231    3    0    3
 -2      3054      5157       827      6490
 -1     38232    3    0    3
 -2      5708      4778      3572      5953
 -1     38233    3    0    3
 -2       789      3014      5243      2949
 -1     38234    3    0    3
 -2      4136      4817      6221      6668
 -1     38235    3    0    3
 -2      6270      3048      3052      6684
 -1     38236    3    0    3
 -2       458      6793      1882      6670
 -1     38237    3    0    3
 -2      1364      6613      5528      1331
 -1     38238    3    0    3
 -2      1364      6613      1331      1481
 -1     38239    3    0    3
 -2      1364      6613      5553      5528
 -1     38240    3    0    3
 -2      6370      3596      3562      4788
 -1     38241    3    0    3
 -2      6792      2110      4805      5989
 -1     38242    3    0    3
 -2      6053      2437      2348      6732
 -1     38243    3    0    3
 -2      5995      3035      3034      5998
 -1     38244    3    0    3
 -2       885      5979       744       680
 -1     38245    3    0    3
 -2      5981      2664      2682      2540
 -1     38246    3    0    3
 -2      5981      2664      2540      5991
 -1     38247    3    0    3
 -2      5981      2664      5991      4796
 -1     38248    3    0    3
 -2      6751      2761      4049      2784
 -1     38249    3    0    3
 -2      4795      4796      3499      6373
 -1     38250    3    0    3
 -2      3941      1356      5377      1449
 -1     38251    3    0    3
 -2      4796      4999      3499      6373
 -1     38252    3    0    3
 -2      2801      5014      5867      5932
 -1     38253    3    0    3
 -2      5353      6319      5364      3449
 -1     38254    3    0    3
 -2      5353      6319      6759      5951
 -1     38255    3    0    3
 -2      5375      1283      5988      5374
 -1     38256    3    0    3
 -2      5381      5375      4087      6656
 -1     38257    3    0    3
 -2      1350      1453      5381      6656
 -1     38258    3    0    3
 -2      1453      1389      5375      6656
 -1     38259    3    0    3
 -2      5992      5381      4087      6656
 -1     38260    3    0    3
 -2      6121      3298       358      1745
 -1     38261    3    0    3
 -2      4722       303      3161      1893
 -1     38262    3    0    3
 -2      5986      5002      4465      5993
 -1     38263    3    0    3
 -2      5995      3040      5369      3034
 -1     38264    3    0    3
 -2      5986      4465      4800      5993
 -1     38265    3    0    3
 -2      4465      4799      4800      5993
 -1     38266    3    0    3
 -2      5994      5327      1188      6372
 -1     38267    3    0    3
 -2      1188      1353      1127      6372
 -1     38268    3    0    3
 -2      4308      3788      1060      5320
 -1     38269    3    0    3
 -2      3616      5327      5994      6372
 -1     38270    3    0    3
 -2      3788      4308      1060      5316
 -1     38271    3    0    3
 -2       883       992      5514      6741
 -1     38272    3    0    3
 -2       147      5434      3547      3400
 -1     38273    3    0    3
 -2       147      5434      3400       148
 -1     38274    3    0    3
 -2      5962      5368      4805      6270
 -1     38275    3    0    3
 -2      5974      5368      3053      6270
 -1     38276    3    0    3
 -2      5705      2664      2556      4999
 -1     38277    3    0    3
 -2      5963      4168      5962      5995
 -1     38278    3    0    3
 -2      5963      5369      4168      5995
 -1     38279    3    0    3
 -2      4788      3596      4786      5996
 -1     38280    3    0    3
 -2      5990      5977      5368       912
 -1     38281    3    0    3
 -2      4060      6008      5375      4026
 -1     38282    3    0    3
 -2      3596      4787      4785      5996
 -1     38283    3    0    3
 -2      1614      5659      1595      1397
 -1     38284    3    0    3
 -2      5996      4787      2558      6370
 -1     38285    3    0    3
 -2      1364      5528      5804      1110
 -1     38286    3    0    3
 -2      5990       681      5368      5998
 -1     38287    3    0    3
 -2       890       881      5324      5997
 -1     38288    3    0    3
 -2       881       890       687      5997
 -1     38289    3    0    3
 -2      4275      3725      5324      5997
 -1     38290    3    0    3
 -2       882       759       684      6371
 -1     38291    3    0    3
 -2      1012      5369       680      5998
 -1     38292    3    0    3
 -2      4654       319      3210      3245
 -1     38293    3    0    3
 -2      4654       319      3245      1819
 -1     38294    3    0    3
 -2      4654       319      1819      1884
 -1     38295    3    0    3
 -2      4654       319      1884      3210
 -1     38296    3    0    3
 -2       885      5979      5369      6005
 -1     38297    3    0    3
 -2      5981      2664      4796      2682
 -1     38298    3    0    3
 -2      2171      2172      2124      6063
 -1     38299    3    0    3
 -2      5353      5968      1104      5355
 -1     38300    3    0    3
 -2      5863      2151      4963      2150
 -1     38301    3    0    3
 -2      4746      2473      2609      6085
 -1     38302    3    0    3
 -2      3801      4742      4745      6065
 -1     38303    3    0    3
 -2       744       731       229      6000
 -1     38304    3    0    3
 -2       229      3060      3067      6000
 -1     38305    3    0    3
 -2      3067       744       229      6000
 -1     38306    3    0    3
 -2      5979      3067      3086      6000
 -1     38307    3    0    3
 -2      3086      3067      3060      6000
 -1     38308    3    0    3
 -2      1938      3980      4532      4405
 -1     38309    3    0    3
 -2      1938      3980      4405      4611
 -1     38310    3    0    3
 -2      2431      4756      4755      6001
 -1     38311    3    0    3
 -2      2431      2326      4756      6001
 -1     38312    3    0    3
 -2      3714      4756      4758      6001
 -1     38313    3    0    3
 -2      4758      4756      2326      6001
 -1     38314    3    0    3
 -2      1469      1332      1341      6002
 -1     38315    3    0    3
 -2      1332      5318      1341      6002
 -1     38316    3    0    3
 -2      5319      1332      1469      6002
 -1     38317    3    0    3
 -2      3714      5320      5321      6386
 -1     38318    3    0    3
 -2      5935      4441      4406      4804
 -1     38319    3    0    3
 -2      5309      1576      5307      6389
 -1     38320    3    0    3
 -2      5935      4441      4800      4406
 -1     38321    3    0    3
 -2      5247       899       898      6003
 -1     38322    3    0    3
 -2      5294       898      1183      6003
 -1     38323    3    0    3
 -2       898       899      1183      6003
 -1     38324    3    0    3
 -2      5247      3840      4237      6003
 -1     38325    3    0    3
 -2      3840      5294      4237      6003
 -1     38326    3    0    3
 -2       898      3840      5247      6003
 -1     38327    3    0    3
 -2      3840       898      5294      6003
 -1     38328    3    0    3
 -2      6004      2460      4789      6013
 -1     38329    3    0    3
 -2      6004      4789      4791      6013
 -1     38330    3    0    3
 -2      2327      6374      2203      2214
 -1     38331    3    0    3
 -2      2327      6374      2214      4762
 -1     38332    3    0    3
 -2      2461      2604      2460      6013
 -1     38333    3    0    3
 -2      2461      2460      6004      6013
 -1     38334    3    0    3
 -2      3042      1755      6650      6649
 -1     38335    3    0    3
 -2      5972      2606      4788      6004
 -1     38336    3    0    3
 -2      6025      2638      2639      2532
 -1     38337    3    0    3
 -2      6573      6752      2223      5784
 -1     38338    3    0    3
 -2      2102      5716      2103      6330
 -1     38339    3    0    3
 -2      6415      1071      5276      5278
 -1     38340    3    0    3
 -2      4107      4083      5371      6799
 -1     38341    3    0    3
 -2      6573      6752      4898      2223
 -1     38342    3    0    3
 -2      3994       767      4155      5453
 -1     38343    3    0    3
 -2      1553      5376      6006      6693
 -1     38344    3    0    3
 -2      6031      3222      4463      3172
 -1     38345    3    0    3
 -2      5988      5375      5373      6019
 -1     38346    3    0    3
 -2      6006      5373      5375      6019
 -1     38347    3    0    3
 -2      6008      5375      1582      6019
 -1     38348    3    0    3
 -2      1327      5149      5150      6178
 -1     38349    3    0    3
 -2      6008      6006      5375      6019
 -1     38350    3    0    3
 -2      5383      1349      5381      6007
 -1     38351    3    0    3
 -2      1455      6506      1310      1068
 -1     38352    3    0    3
 -2       817       501      5608      5611
 -1     38353    3    0    3
 -2      4373      1994      3826      4947
 -1     38354    3    0    3
 -2      3163      5310      3205      3282
 -1     38355    3    0    3
 -2      4373      1994      5822      4951
 -1     38356    3    0    3
 -2      5602      6715      6686       786
 -1     38357    3    0    3
 -2      1647      1666      1628      6008
 -1     38358    3    0    3
 -2      4823      2504      2576      6213
 -1     38359    3    0    3
 -2      5808      5659      1509      6010
 -1     38360    3    0    3
 -2      1455      6506      6517      6554
 -1     38361    3    0    3
 -2      1647      5378      1666      6008
 -1     38362    3    0    3
 -2      5868      3665      3647      6009
 -1     38363    3    0    3
 -2      4944      5038      6485      3470
 -1     38364    3    0    3
 -2      5808      5659      6010      5395
 -1     38365    3    0    3
 -2      5808      5659      5395      1397
 -1     38366    3    0    3
 -2      5808      5659      1397      1509
 -1     38367    3    0    3
 -2      5808      5394      5395      6010
 -1     38368    3    0    3
 -2      5395      5394      3993      6010
 -1     38369    3    0    3
 -2      3859      6062      3801      5305
 -1     38370    3    0    3
 -2      1950      6623      6608      4660
 -1     38371    3    0    3
 -2      1512      5417      5423      6011
 -1     38372    3    0    3
 -2      5982      2507      4799      5981
 -1     38373    3    0    3
 -2      1950      6623      2246      6608
 -1     38374    3    0    3
 -2      5982      2507      6015      4799
 -1     38375    3    0    3
 -2      2067      3689      6056      4728
 -1     38376    3    0    3
 -2      6008      5381      5384      6033
 -1     38377    3    0    3
 -2      5710      4047      6618      4623
 -1     38378    3    0    3
 -2      4816      4001      4814      6012
 -1     38379    3    0    3
 -2      4816      4814      2470      6012
 -1     38380    3    0    3
 -2      5969      4791      4789      6013
 -1     38381    3    0    3
 -2      6004      5972      2606      6013
 -1     38382    3    0    3
 -2      2604      2606      5972      6013
 -1     38383    3    0    3
 -2      6004      2606      2461      6013
 -1     38384    3    0    3
 -2      2606      2604      2461      6013
 -1     38385    3    0    3
 -2      1494      5334      1493      6311
 -1     38386    3    0    3
 -2      5334      1494      1493      1360
 -1     38387    3    0    3
 -2      4056      6007      5383      5381
 -1     38388    3    0    3
 -2      1666      5748      5378      6014
 -1     38389    3    0    3
 -2      1666      5378      1656      6014
 -1     38390    3    0    3
 -2      2616      5773      5704      2392
 -1     38391    3    0    3
 -2      3596      6365      5351      3534
 -1     38392    3    0    3
 -2      6043      6024      5330      1354
 -1     38393    3    0    3
 -2      4846      2773      5406      4462
 -1     38394    3    0    3
 -2      5305      5308      3827      6016
 -1     38395    3    0    3
 -2      6035      5303      1557      6406
 -1     38396    3    0    3
 -2      6177      6164      5281      4145
 -1     38397    3    0    3
 -2      1557      1345      5303      6016
 -1     38398    3    0    3
 -2      1345      1557      1415      6016
 -1     38399    3    0    3
 -2      2605      2435      2364      6017
 -1     38400    3    0    3
 -2      5888      2526      2675      6802
 -1     38401    3    0    3
 -2      2605      4797      2435      6017
 -1     38402    3    0    3
 -2      2435      4797      4798      6017
 -1     38403    3    0    3
 -2      4795      6023      3531      6025
 -1     38404    3    0    3
 -2      4791      4792      3446      6017
 -1     38405    3    0    3
 -2      2364      4792      4791      6017
 -1     38406    3    0    3
 -2      1401      6035      5300      6021
 -1     38407    3    0    3
 -2      6235      1208      1099      6339
 -1     38408    3    0    3
 -2      3420      4870      3421      3410
 -1     38409    3    0    3
 -2      5038      4944      6485      2030
 -1     38410    3    0    3
 -2      5021      5719      2662      5910
 -1     38411    3    0    3
 -2      6493      1443      5373      6693
 -1     38412    3    0    3
 -2      6212      1936      6603      2167
 -1     38413    3    0    3
 -2      1582      1647      6008      6019
 -1     38414    3    0    3
 -2      1647      6006      6008      6019
 -1     38415    3    0    3
 -2      1647      1551      6006      6019
 -1     38416    3    0    3
 -2      1647      1582      1551      6019
 -1     38417    3    0    3
 -2      1536      1636      1544      6020
 -1     38418    3    0    3
 -2      4729      3199      3200       300
 -1     38419    3    0    3
 -2      1544      5350      1536      6020
 -1     38420    3    0    3
 -2      3773      5320      5318      3788
 -1     38421    3    0    3
 -2      1400      1527      1526      6035
 -1     38422    3    0    3
 -2      5306      1527      1563      6021
 -1     38423    3    0    3
 -2      1563      1527      1401      6021
 -1     38424    3    0    3
 -2      4371      3254      3169      3502
 -1     38425    3    0    3
 -2      5719      5021      5024      4369
 -1     38426    3    0    3
 -2      5170      1596      1597      6466
 -1     38427    3    0    3
 -2      6508      1407      1662      6516
 -1     38428    3    0    3
 -2      4143      5372      6022      6497
 -1     38429    3    0    3
 -2      5976      5372      5169      6497
 -1     38430    3    0    3
 -2      5372      1226      6022      6497
 -1     38431    3    0    3
 -2      4171      5169      5170      6498
 -1     38432    3    0    3
 -2      6022      1226      1293      6497
 -1     38433    3    0    3
 -2      1386      1293      1220      6497
 -1     38434    3    0    3
 -2      1220      1226      5976      6497
 -1     38435    3    0    3
 -2      4787      3562      4793      6370
 -1     38436    3    0    3
 -2      6043      6024      1354      1365
 -1     38437    3    0    3
 -2      1922      3466      3935      5042
 -1     38438    3    0    3
 -2      6663      1606      6328      1440
 -1     38439    3    0    3
 -2      2041      3977      4713      2014
 -1     38440    3    0    3
 -2      6155       696      1011      1028
 -1     38441    3    0    3
 -2       929      5262      3740      6037
 -1     38442    3    0    3
 -2      5644        33       793      5643
 -1     38443    3    0    3
 -2      1116      5353      6759      5951
 -1     38444    3    0    3
 -2       929      5955      1152      1153
 -1     38445    3    0    3
 -2       929      5955      5328      1061
 -1     38446    3    0    3
 -2      6380       759      6027      5326
 -1     38447    3    0    3
 -2      3851      2001      3445      4967
 -1     38448    3    0    3
 -2      4794      3531      6023      6025
 -1     38449    3    0    3
 -2      4796      3531      4794      6025
 -1     38450    3    0    3
 -2      5381      6008      1453      6033
 -1     38451    3    0    3
 -2      3531      4796      4795      6025
 -1     38452    3    0    3
 -2      4734      2561      6735      6194
 -1     38453    3    0    3
 -2      4795      2533      2534      6025
 -1     38454    3    0    3
 -2      5821      2007      5826      6095
 -1     38455    3    0    3
 -2      5317       114       733       824
 -1     38456    3    0    3
 -2      6031      4761      3928      6032
 -1     38457    3    0    3
 -2      4761      4763      3928      6032
 -1     38458    3    0    3
 -2      6026      4763      4761      6032
 -1     38459    3    0    3
 -2      5326      5324      3725      6371
 -1     38460    3    0    3
 -2      5997      3725      5324      6371
 -1     38461    3    0    3
 -2      5320      5324      3686      6388
 -1     38462    3    0    3
 -2      1127       992       883      6741
 -1     38463    3    0    3
 -2      5514       691       883      6027
 -1     38464    3    0    3
 -2       486      3233      3234      6380
 -1     38465    3    0    3
 -2      3166      3680      6028      6384
 -1     38466    3    0    3
 -2      3234      3233      3725      6380
 -1     38467    3    0    3
 -2      6059      5398      6060      1657
 -1     38468    3    0    3
 -2      4763      4761      3652      6026
 -1     38469    3    0    3
 -2      3218      3928      3166      6028
 -1     38470    3    0    3
 -2      2099      4763      6026      6032
 -1     38471    3    0    3
 -2      2047      1716      2099      6032
 -1     38472    3    0    3
 -2      6026      2047      2099      6032
 -1     38473    3    0    3
 -2      1716      3171       292      6032
 -1     38474    3    0    3
 -2      5381      1539      1349      6029
 -1     38475    3    0    3
 -2      4999      4998      2563      5900
 -1     38476    3    0    3
 -2      4998      4999      2563      6373
 -1     38477    3    0    3
 -2      6029      1539      1626      6033
 -1     38478    3    0    3
 -2      1626      5384      5386      6029
 -1     38479    3    0    3
 -2      5386      1510      1626      6029
 -1     38480    3    0    3
 -2      2159      6560      4904      6568
 -1     38481    3    0    3
 -2      1422      5174      5173      6488
 -1     38482    3    0    3
 -2      2158      2129      2196      6173
 -1     38483    3    0    3
 -2      4676       444      2925      1852
 -1     38484    3    0    3
 -2      6126      4712      4714      6173
 -1     38485    3    0    3
 -2      2130      2041      2129      6169
 -1     38486    3    0    3
 -2      6143      6135      2111      2169
 -1     38487    3    0    3
 -2      6030      4714      4183      6173
 -1     38488    3    0    3
 -2      2088      4759      1715      6031
 -1     38489    3    0    3
 -2      5870      2508      6131      4740
 -1     38490    3    0    3
 -2      5888      2442      2646      2526
 -1     38491    3    0    3
 -2      3218       292      3171      6032
 -1     38492    3    0    3
 -2      1862       292      3218      6032
 -1     38493    3    0    3
 -2      2007      4949      4763      6097
 -1     38494    3    0    3
 -2      6028      3218      3928      6032
 -1     38495    3    0    3
 -2      3928      3171      6031      6032
 -1     38496    3    0    3
 -2      6031      3171      1716      6032
 -1     38497    3    0    3
 -2      5966      3085      6034      5971
 -1     38498    3    0    3
 -2      5374      1012      5369      6729
 -1     38499    3    0    3
 -2      1012      5374      5369      5990
 -1     38500    3    0    3
 -2      5966      3085      5971      3046
 -1     38501    3    0    3
 -2      5374      1012      6729      1083
 -1     38502    3    0    3
 -2      4734      2561      6131      2602
 -1     38503    3    0    3
 -2      1575      1574      5401      5399
 -1     38504    3    0    3
 -2      3060      3085      5370      6034
 -1     38505    3    0    3
 -2      3085      3060      3047      6034
 -1     38506    3    0    3
 -2      5971      5370      3085      6034
 -1     38507    3    0    3
 -2      3596      6365      3534      5349
 -1     38508    3    0    3
 -2      3596      6365      5349      6036
 -1     38509    3    0    3
 -2      5300      3865      5306      6035
 -1     38510    3    0    3
 -2      6021      5306      1527      6035
 -1     38511    3    0    3
 -2      5300      5306      6021      6035
 -1     38512    3    0    3
 -2      2585      5920      5965      2628
 -1     38513    3    0    3
 -2      4081      6731      6044      4741
 -1     38514    3    0    3
 -2      6145      2279      6054      4731
 -1     38515    3    0    3
 -2      3625      5338      5348      6355
 -1     38516    3    0    3
 -2      3596      5349      5348      6036
 -1     38517    3    0    3
 -2      3596      5348      5350      6036
 -1     38518    3    0    3
 -2      1538      1537      5348      6036
 -1     38519    3    0    3
 -2      1537      5350      5348      6036
 -1     38520    3    0    3
 -2      4503      2934      4276      4084
 -1     38521    3    0    3
 -2      3740      5262      4411      6037
 -1     38522    3    0    3
 -2      2934      4503      4276      2997
 -1     38523    3    0    3
 -2      2585      5920      2628      2448
 -1     38524    3    0    3
 -2      2585      5920      6230      5965
 -1     38525    3    0    3
 -2      1058      1205      5299      6037
 -1     38526    3    0    3
 -2      1540      1414      6389      6190
 -1     38527    3    0    3
 -2      1153      1205      1058      6037
 -1     38528    3    0    3
 -2      4787      3656      4785      6038
 -1     38529    3    0    3
 -2      2596      4787      4785      6038
 -1     38530    3    0    3
 -2      4785      3656      4756      6038
 -1     38531    3    0    3
 -2      4785      4756      2596      6038
 -1     38532    3    0    3
 -2      4775      4746      3717      6039
 -1     38533    3    0    3
 -2      3253      3548      3278      5315
 -1     38534    3    0    3
 -2      3717      4773      4775      6039
 -1     38535    3    0    3
 -2      3750      4738      4767      6042
 -1     38536    3    0    3
 -2      3253      3548      4461      3800
 -1     38537    3    0    3
 -2      3827      3859      4742      3801
 -1     38538    3    0    3
 -2      1862      6028      6097      4763
 -1     38539    3    0    3
 -2      4743      2599      2681      6132
 -1     38540    3    0    3
 -2      3581      5440      5442      3755
 -1     38541    3    0    3
 -2      5882      2624      4743      6068
 -1     38542    3    0    3
 -2      2204      6589      6249      2205
 -1     38543    3    0    3
 -2      5440      3581      5442      3641
 -1     38544    3    0    3
 -2      6040      4738      4737      6041
 -1     38545    3    0    3
 -2      3803      4737      4738      6041
 -1     38546    3    0    3
 -2      5813      1953      2073      4902
 -1     38547    3    0    3
 -2      6042      2423      4767      6230
 -1     38548    3    0    3
 -2      1343      1214      5947      5952
 -1     38549    3    0    3
 -2      2514      5910      2662      5719
 -1     38550    3    0    3
 -2      2585      2665      4773      6230
 -1     38551    3    0    3
 -2      6047      2271      2301      1972
 -1     38552    3    0    3
 -2      5331      1502      1365      6043
 -1     38553    3    0    3
 -2      5381      1453      5375      6656
 -1     38554    3    0    3
 -2      1453      5381      5375      6008
 -1     38555    3    0    3
 -2      1365      1532      1354      6043
 -1     38556    3    0    3
 -2      2041      3977      4402      4713
 -1     38557    3    0    3
 -2      2041      3977      4668      4402
 -1     38558    3    0    3
 -2      3253      4371      3169      3278
 -1     38559    3    0    3
 -2      2186      5716      5025      5750
 -1     38560    3    0    3
 -2      2220      4739      6046      6731
 -1     38561    3    0    3
 -2      1982      4819      4808      6660
 -1     38562    3    0    3
 -2      5999      4081      4742      6044
 -1     38563    3    0    3
 -2      1905      2730      1783      4843
 -1     38564    3    0    3
 -2      4734      6045      6131      6194
 -1     38565    3    0    3
 -2      2447      2561      6194      6735
 -1     38566    3    0    3
 -2      3896      4734      4732      6189
 -1     38567    3    0    3
 -2      2301      4735      2243      5915
 -1     38568    3    0    3
 -2      2439      4739      4733      6053
 -1     38569    3    0    3
 -2      2560      2561      2508      6131
 -1     38570    3    0    3
 -2      4345      4521      4683      3669
 -1     38571    3    0    3
 -2      6415      1173      1080      1072
 -1     38572    3    0    3
 -2      3671      3834      5946      5332
 -1     38573    3    0    3
 -2      6404      3482      4502      5561
 -1     38574    3    0    3
 -2      1906      6296      6703      1962
 -1     38575    3    0    3
 -2      3984      6732      4719      4014
 -1     38576    3    0    3
 -2      4729      4163      3592      6046
 -1     38577    3    0    3
 -2      4741      3592      4163      6046
 -1     38578    3    0    3
 -2      1788      4729      3592      6046
 -1     38579    3    0    3
 -2      2680      6040      2598      6041
 -1     38580    3    0    3
 -2      4488      2996      2991      4521
 -1     38581    3    0    3
 -2      6126      2114      6125      2157
 -1     38582    3    0    3
 -2      5700       860      1281      6049
 -1     38583    3    0    3
 -2      4715      4099      5279      4119
 -1     38584    3    0    3
 -2      3398       689      3927      6207
 -1     38585    3    0    3
 -2      1836      5737      4808      3063
 -1     38586    3    0    3
 -2      6040      2271      2301      6196
 -1     38587    3    0    3
 -2      5967      2271      6040      6196
 -1     38588    3    0    3
 -2      2245      4713      4716      6179
 -1     38589    3    0    3
 -2      1997      1882      4825      6048
 -1     38590    3    0    3
 -2      3062      3063      3084      6793
 -1     38591    3    0    3
 -2      3063      3062       395      6670
 -1     38592    3    0    3
 -2      4083      6211      4825      6678
 -1     38593    3    0    3
 -2      2760      6216      4826      2756
 -1     38594    3    0    3
 -2      3199      3678      3592      3276
 -1     38595    3    0    3
 -2      6350      6319      6726      5347
 -1     38596    3    0    3
 -2       753      5877      5371      6067
 -1     38597    3    0    3
 -2       916      1235      5382      6077
 -1     38598    3    0    3
 -2      5880      5814      4825      6050
 -1     38599    3    0    3
 -2      6662      1732      1731      6665
 -1     38600    3    0    3
 -2      5701      2749      2756      6216
 -1     38601    3    0    3
 -2      5814      5880      5815      6050
 -1     38602    3    0    3
 -2      5880      2725      5815      6050
 -1     38603    3    0    3
 -2      1595      6059      6060      1657
 -1     38604    3    0    3
 -2      3032      5878      5877      4132
 -1     38605    3    0    3
 -2      3160      3225      3702      6051
 -1     38606    3    0    3
 -2      3175      3225      3160      6051
 -1     38607    3    0    3
 -2      3403      3820      3409      3386
 -1     38608    3    0    3
 -2      4298      4718      3850      6052
 -1     38609    3    0    3
 -2      3485      4311      4508      4666
 -1     38610    3    0    3
 -2      3485      4311      4666      3709
 -1     38611    3    0    3
 -2      4688       449      1801      2943
 -1     38612    3    0    3
 -2      3592      3200      4730      4729
 -1     38613    3    0    3
 -2      1595      6059      1657      1638
 -1     38614    3    0    3
 -2      1595      6059      1638      5659
 -1     38615    3    0    3
 -2      5734      5783      5765      1384
 -1     38616    3    0    3
 -2      5734      5783      1384      6765
 -1     38617    3    0    3
 -2      4728      4739      5872      6053
 -1     38618    3    0    3
 -2      4739      4728      3984      6053
 -1     38619    3    0    3
 -2      5716      2186      2103      2277
 -1     38620    3    0    3
 -2      5250       203      5251      2924
 -1     38621    3    0    3
 -2      2299      6054      6135      6145
 -1     38622    3    0    3
 -2      6047      2271      4736      6196
 -1     38623    3    0    3
 -2      2689      6039      2622      4775
 -1     38624    3    0    3
 -2      2980      4687      3603      4466
 -1     38625    3    0    3
 -2      5421      6158      3324      4452
 -1     38626    3    0    3
 -2      6267      3073      3027      6766
 -1     38627    3    0    3
 -2      6055      4807      4808      6267
 -1     38628    3    0    3
 -2      4818      4820      2505      6233
 -1     38629    3    0    3
 -2      3073      3027      3072      6267
 -1     38630    3    0    3
 -2      4754      3279      4319      3189
 -1     38631    3    0    3
 -2      3165      3200       301      6056
 -1     38632    3    0    3
 -2      1393      6069      5383      1613
 -1     38633    3    0    3
 -2      2120      6138      2484      1952
 -1     38634    3    0    3
 -2      5716      2186      2277      5750
 -1     38635    3    0    3
 -2      5906      2620      5746      5020
 -1     38636    3    0    3
 -2      2131      6176      2244      6052
 -1     38637    3    0    3
 -2      6050      2720       459      5747
 -1     38638    3    0    3
 -2      5895      2721      5815      6057
 -1     38639    3    0    3
 -2      5815      2721      2757      6057
 -1     38640    3    0    3
 -2      2759      2721      5895      6057
 -1     38641    3    0    3
 -2      2721      2759      2757      6057
 -1     38642    3    0    3
 -2      4831      4832      3993      6058
 -1     38643    3    0    3
 -2      5704      4486      5810      5001
 -1     38644    3    0    3
 -2      5704      4486      5002      5810
 -1     38645    3    0    3
 -2      4832      2325      5692      6058
 -1     38646    3    0    3
 -2      5692      2325      2479      6058
 -1     38647    3    0    3
 -2      5692      2479      5690      6058
 -1     38648    3    0    3
 -2      6059      3934      5659      6060
 -1     38649    3    0    3
 -2      5808      1397      5395      6069
 -1     38650    3    0    3
 -2      6060      1618      5398      6061
 -1     38651    3    0    3
 -2      5308      5305      1323      6016
 -1     38652    3    0    3
 -2      5115       187      2921       828
 -1     38653    3    0    3
 -2      1657      1618      5398      6060
 -1     38654    3    0    3
 -2      1595      1618      1657      6060
 -1     38655    3    0    3
 -2      5432      4868      3677      3733
 -1     38656    3    0    3
 -2      2872      1737      1738      6104
 -1     38657    3    0    3
 -2      4868      5432      3677      4230
 -1     38658    3    0    3
 -2      2872      1737      6104      2863
 -1     38659    3    0    3
 -2      5719      5912      5022      2514
 -1     38660    3    0    3
 -2      5719      5912      2514      5019
 -1     38661    3    0    3
 -2      5398      1618      5386      6061
 -1     38662    3    0    3
 -2      6060      5398      5395      6061
 -1     38663    3    0    3
 -2      3966      5395      5398      6061
 -1     38664    3    0    3
 -2      1245      1323      1341      6062
 -1     38665    3    0    3
 -2      5308      1341      1323      6062
 -1     38666    3    0    3
 -2      3801      5318      5308      6062
 -1     38667    3    0    3
 -2      1245      5305      1323      6062
 -1     38668    3    0    3
 -2      5115       187      3015      2921
 -1     38669    3    0    3
 -2      5115       187       828       829
 -1     38670    3    0    3
 -2      5115       187       829      3015
 -1     38671    3    0    3
 -2      6063      5999      4749      6065
 -1     38672    3    0    3
 -2      4081      5999      4742      6065
 -1     38673    3    0    3
 -2      5968      5353      1104      5951
 -1     38674    3    0    3
 -2      4081      4749      5999      6065
 -1     38675    3    0    3
 -2      6063      4755      2171      6065
 -1     38676    3    0    3
 -2      2315      2171      4755      6065
 -1     38677    3    0    3
 -2      2596      5996      2558      2645
 -1     38678    3    0    3
 -2      6063      2171      2172      6065
 -1     38679    3    0    3
 -2      4623      6595      6618      2587
 -1     38680    3    0    3
 -2      1456      5177      1395      6070
 -1     38681    3    0    3
 -2      6188      5714      1458      6451
 -1     38682    3    0    3
 -2      6452      4021      5181      6455
 -1     38683    3    0    3
 -2      1217      6498      5169      6184
 -1     38684    3    0    3
 -2      2172      2171      2315      6065
 -1     38685    3    0    3
 -2      2172      5999      6063      6065
 -1     38686    3    0    3
 -2      2460      5969      4789      6013
 -1     38687    3    0    3
 -2      2596      5996      4785      4787
 -1     38688    3    0    3
 -2      1625      1626      1627      6066
 -1     38689    3    0    3
 -2      1626      1625      5386      6066
 -1     38690    3    0    3
 -2      5384      1626      5386      6066
 -1     38691    3    0    3
 -2      5386      1625      5387      6066
 -1     38692    3    0    3
 -2      3937      5386      5387      6066
 -1     38693    3    0    3
 -2      1930      2248      5738      2263
 -1     38694    3    0    3
 -2      4833      6234      5712      5653
 -1     38695    3    0    3
 -2      5175      1170      6064      6193
 -1     38696    3    0    3
 -2      1170      5175      6064      6440
 -1     38697    3    0    3
 -2      6741      5326      3616      5514
 -1     38698    3    0    3
 -2      5882      4745      2473      6068
 -1     38699    3    0    3
 -2      5882      4743      4745      6068
 -1     38700    3    0    3
 -2      3774      4745      4743      6068
 -1     38701    3    0    3
 -2      3774      4746      4745      6068
 -1     38702    3    0    3
 -2      4745      3744      4755      6085
 -1     38703    3    0    3
 -2      5808      5394      6049      6075
 -1     38704    3    0    3
 -2      1618      1617      5386      1616
 -1     38705    3    0    3
 -2      3581      5440      3755      4151
 -1     38706    3    0    3
 -2       817       501        48        49
 -1     38707    3    0    3
 -2      1117      6049      5382      6075
 -1     38708    3    0    3
 -2      6061      1613      5383      6069
 -1     38709    3    0    3
 -2      3163      5310      3718      5311
 -1     38710    3    0    3
 -2      1187      1319      1185      6549
 -1     38711    3    0    3
 -2      1172      5175      1170      6440
 -1     38712    3    0    3
 -2      5724      6443      5181      1474
 -1     38713    3    0    3
 -2      4020      4826      4833      4222
 -1     38714    3    0    3
 -2       979      1172      1187      6546
 -1     38715    3    0    3
 -2      6476      1109      5542      6478
 -1     38716    3    0    3
 -2      5403      1663      5858      5789
 -1     38717    3    0    3
 -2      5859      1035      1438      6073
 -1     38718    3    0    3
 -2      5859      5700      1035      6073
 -1     38719    3    0    3
 -2      1637      1659      1438      6071
 -1     38720    3    0    3
 -2      5859      1438      1659      6071
 -1     38721    3    0    3
 -2      5604      5728      4214      5776
 -1     38722    3    0    3
 -2      5859      5858      5396      6071
 -1     38723    3    0    3
 -2      1659      5858      5859      6071
 -1     38724    3    0    3
 -2      5880      2757      2758      6751
 -1     38725    3    0    3
 -2      5394      1281      5700      6073
 -1     38726    3    0    3
 -2      6459       862      6769      1129
 -1     38727    3    0    3
 -2      4020      4053      4826      6072
 -1     38728    3    0    3
 -2      4053      4020      4826      4833
 -1     38729    3    0    3
 -2      5516      5843      3647      6009
 -1     38730    3    0    3
 -2      1509      1637      1438      6073
 -1     38731    3    0    3
 -2      6459       862      6090      6769
 -1     38732    3    0    3
 -2      6459       862       963      6090
 -1     38733    3    0    3
 -2      6459       862      1129       963
 -1     38734    3    0    3
 -2      5688      1554      5400      6059
 -1     38735    3    0    3
 -2      1554      5688      5400      5833
 -1     38736    3    0    3
 -2       790      5874      6067      6074
 -1     38737    3    0    3
 -2       860       790      6067      6074
 -1     38738    3    0    3
 -2      5482        63       757       796
 -1     38739    3    0    3
 -2      6049       860      6067      6074
 -1     38740    3    0    3
 -2      6049      5388       860      6074
 -1     38741    3    0    3
 -2      6666      4083      4808      6799
 -1     38742    3    0    3
 -2      4808      4083      4107      6799
 -1     38743    3    0    3
 -2      6049      1117      1249      6075
 -1     38744    3    0    3
 -2      1249      5808      6049      6075
 -1     38745    3    0    3
 -2      1235      5380      5382      6077
 -1     38746    3    0    3
 -2      5382      5394      4023      6075
 -1     38747    3    0    3
 -2      1617      1618      5386      5398
 -1     38748    3    0    3
 -2      6024      3723      5955      5329
 -1     38749    3    0    3
 -2      1235      5382      6007      6075
 -1     38750    3    0    3
 -2      1218      6076      6142      6551
 -1     38751    3    0    3
 -2      4069      4041      4100      5209
 -1     38752    3    0    3
 -2      3951      3908      5213      3498
 -1     38753    3    0    3
 -2      5371      5382       916      6067
 -1     38754    3    0    3
 -2      5370       921      6034      6077
 -1     38755    3    0    3
 -2       921      5370      5380      6077
 -1     38756    3    0    3
 -2      5437      1581      5401      6082
 -1     38757    3    0    3
 -2      1581      5437      5401      6081
 -1     38758    3    0    3
 -2      6482      3561      4104      6607
 -1     38759    3    0    3
 -2      6442      3991      5187      4047
 -1     38760    3    0    3
 -2      4158      5180      3995      6768
 -1     38761    3    0    3
 -2      5191      5193      3905      6078
 -1     38762    3    0    3
 -2      5193      1294      1184      6078
 -1     38763    3    0    3
 -2      1148      1184      1294      6078
 -1     38764    3    0    3
 -2      5194      1184      1148      6078
 -1     38765    3    0    3
 -2      5194      5193      1184      6078
 -1     38766    3    0    3
 -2      3208      4725      5284      3221
 -1     38767    3    0    3
 -2      3787      5196      5195      6079
 -1     38768    3    0    3
 -2      1074      5198       862      6769
 -1     38769    3    0    3
 -2      6079      3787      5196      6769
 -1     38770    3    0    3
 -2       838       963       862      6090
 -1     38771    3    0    3
 -2      5198      1074      5196      6769
 -1     38772    3    0    3
 -2      1074      5198      5196      6153
 -1     38773    3    0    3
 -2      4836      2647      4838      6080
 -1     38774    3    0    3
 -2      4835      4836      3872      6080
 -1     38775    3    0    3
 -2      4836      4835      2647      6080
 -1     38776    3    0    3
 -2      2685      2647      4835      6080
 -1     38777    3    0    3
 -2      2658      2714      2685      6214
 -1     38778    3    0    3
 -2      5692      2658      2583      6214
 -1     38779    3    0    3
 -2      2685      2583      2658      6214
 -1     38780    3    0    3
 -2      5401      5399      1574      6081
 -1     38781    3    0    3
 -2      1968      4851      2155      5679
 -1     38782    3    0    3
 -2      5401      1574      1581      6081
 -1     38783    3    0    3
 -2      1610      5437      1581      6081
 -1     38784    3    0    3
 -2      1574      1610      1581      6081
 -1     38785    3    0    3
 -2      5848      5443      3785      6082
 -1     38786    3    0    3
 -2      5443      5437      3785      6082
 -1     38787    3    0    3
 -2      5848      3785      5401      6082
 -1     38788    3    0    3
 -2      5437      5401      3785      6082
 -1     38789    3    0    3
 -2      4745      4755      2315      6085
 -1     38790    3    0    3
 -2      4755      4745      2315      6065
 -1     38791    3    0    3
 -2      6087      3932      6454      5193
 -1     38792    3    0    3
 -2      6083      3787      4631      6585
 -1     38793    3    0    3
 -2      4632      3570      3978      6174
 -1     38794    3    0    3
 -2      6125      2252      2178      6174
 -1     38795    3    0    3
 -2      6580      2196      2252      6583
 -1     38796    3    0    3
 -2      4560      3570      4036      6174
 -1     38797    3    0    3
 -2      4561      3978      3570      6174
 -1     38798    3    0    3
 -2      3875      4631      5195      3839
 -1     38799    3    0    3
 -2      5663      5662      5656      5604
 -1     38800    3    0    3
 -2      1877        82      5054      1813
 -1     38801    3    0    3
 -2      4201      4374      4002       533
 -1     38802    3    0    3
 -2      6084      2600      2629      6770
 -1     38803    3    0    3
 -2      4756      2431      4755      6085
 -1     38804    3    0    3
 -2      2431      4756      2609      6085
 -1     38805    3    0    3
 -2      2609      2315      2431      6085
 -1     38806    3    0    3
 -2      4755      2431      2315      6085
 -1     38807    3    0    3
 -2       838      4282      3193      6457
 -1     38808    3    0    3
 -2      4762      2592      2591      2451
 -1     38809    3    0    3
 -2      5423      5425      3815      6086
 -1     38810    3    0    3
 -2      5423      1309      5425      6086
 -1     38811    3    0    3
 -2      3815      5425      5426      6086
 -1     38812    3    0    3
 -2      1611      5438      1607      6115
 -1     38813    3    0    3
 -2      1499      1500      5435      6109
 -1     38814    3    0    3
 -2      3790      5435      5436      6109
 -1     38815    3    0    3
 -2      6454      5188      5199      6471
 -1     38816    3    0    3
 -2      6142      4161      6551      5143
 -1     38817    3    0    3
 -2      1238       900      1216      6471
 -1     38818    3    0    3
 -2       976      1184      5202      6087
 -1     38819    3    0    3
 -2      1184      3794      5202      6087
 -1     38820    3    0    3
 -2      5202      4315       976      6087
 -1     38821    3    0    3
 -2      4315      5202      3794      6087
 -1     38822    3    0    3
 -2      6088      4875      3641      6296
 -1     38823    3    0    3
 -2      1961      4878      4876      6296
 -1     38824    3    0    3
 -2      3641      4875      4876      6296
 -1     38825    3    0    3
 -2      6088      2259      4875      6296
 -1     38826    3    0    3
 -2      4878      4877      3641      6088
 -1     38827    3    0    3
 -2       838      4282       963      6090
 -1     38828    3    0    3
 -2      2592      4793      4762      2591
 -1     38829    3    0    3
 -2       838      4282      6090      3193
 -1     38830    3    0    3
 -2       838      4282      6457       963
 -1     38831    3    0    3
 -2      4793      2592      4762      6089
 -1     38832    3    0    3
 -2      3702      3756      3159      6472
 -1     38833    3    0    3
 -2      5673      1367      5551      5557
 -1     38834    3    0    3
 -2      1129      1191      6079      6459
 -1     38835    3    0    3
 -2      5198      6090       862      6769
 -1     38836    3    0    3
 -2      3547       147       852       813
 -1     38837    3    0    3
 -2      4592      4597      1956      6537
 -1     38838    3    0    3
 -2      3547       147      3400      3328
 -1     38839    3    0    3
 -2      6281      1234      5446      6297
 -1     38840    3    0    3
 -2      5452      1026       940      6294
 -1     38841    3    0    3
 -2      1026      4155      5453      6294
 -1     38842    3    0    3
 -2       466      6314      6272      6228
 -1     38843    3    0    3
 -2      4155      1026      5452      6294
 -1     38844    3    0    3
 -2      4867      3417      3401      4230
 -1     38845    3    0    3
 -2      1165      1166      1018      6288
 -1     38846    3    0    3
 -2      1166      5453      1018      6288
 -1     38847    3    0    3
 -2      1313      1275      5441      6092
 -1     38848    3    0    3
 -2      2191      6100      2402      5950
 -1     38849    3    0    3
 -2      6776      4299      5847      5590
 -1     38850    3    0    3
 -2      1025      1084      5439      6093
 -1     38851    3    0    3
 -2      5234       195       764      2890
 -1     38852    3    0    3
 -2      5234       195       746       764
 -1     38853    3    0    3
 -2      2191      6100      5950      6110
 -1     38854    3    0    3
 -2      3754      5328      4765      3723
 -1     38855    3    0    3
 -2      5328      3754      4765      3782
 -1     38856    3    0    3
 -2      5296      6175      1259      6423
 -1     38857    3    0    3
 -2      5300      1261      6197      6418
 -1     38858    3    0    3
 -2      3639      4573      3117      3855
 -1     38859    3    0    3
 -2      4617      4615      6594      4080
 -1     38860    3    0    3
 -2      2312      4617      2539      6094
 -1     38861    3    0    3
 -2      2007      4949      5826      6095
 -1     38862    3    0    3
 -2      4949      2007      4763      6095
 -1     38863    3    0    3
 -2      2007      2099      4763      6095
 -1     38864    3    0    3
 -2      2280      2099      2007      6095
 -1     38865    3    0    3
 -2      5340      1558      6736      1559
 -1     38866    3    0    3
 -2      2099      2226      6026      6095
 -1     38867    3    0    3
 -2      2226      2099      2280      6095
 -1     38868    3    0    3
 -2      5140      6557      6771      5142
 -1     38869    3    0    3
 -2      1983      1858      1957      6096
 -1     38870    3    0    3
 -2      1983      4591      1858      6096
 -1     38871    3    0    3
 -2      4482      4311      5228      3517
 -1     38872    3    0    3
 -2      4118      6627      4601      4178
 -1     38873    3    0    3
 -2      2153      1957      1956      6537
 -1     38874    3    0    3
 -2      4728      2233      6053      5872
 -1     38875    3    0    3
 -2      3445       344      3334      1792
 -1     38876    3    0    3
 -2      4949      5883      6028      6097
 -1     38877    3    0    3
 -2      1851      4373      5822      3374
 -1     38878    3    0    3
 -2      1851      4373      4947      1994
 -1     38879    3    0    3
 -2      6028      5883       483      6097
 -1     38880    3    0    3
 -2      5883      1880       483      6097
 -1     38881    3    0    3
 -2      1712      4015      6262      1711
 -1     38882    3    0    3
 -2      4719      2233      4728      6098
 -1     38883    3    0    3
 -2      6272      6314      3311      5344
 -1     38884    3    0    3
 -2      2008      6719      6608      2284
 -1     38885    3    0    3
 -2      2233      4719      4728      6053
 -1     38886    3    0    3
 -2      2298      4854      2297      6720
 -1     38887    3    0    3
 -2      4737      2301      4735      6196
 -1     38888    3    0    3
 -2      2002      2298      2297      6720
 -1     38889    3    0    3
 -2      2235      5999      4742      6044
 -1     38890    3    0    3
 -2      3945      6468      5224      6313
 -1     38891    3    0    3
 -2      4853      1730      2008      6795
 -1     38892    3    0    3
 -2       852      6134      6137       961
 -1     38893    3    0    3
 -2      3671      5950      6100      6110
 -1     38894    3    0    3
 -2       794      6236       946      1019
 -1     38895    3    0    3
 -2      5283      1259      6427      1276
 -1     38896    3    0    3
 -2      2643      2543      5958      6100
 -1     38897    3    0    3
 -2      2643      2403      2543      6100
 -1     38898    3    0    3
 -2      4768      5958      2543      6100
 -1     38899    3    0    3
 -2      1277      6743      1381      6426
 -1     38900    3    0    3
 -2      4107      4807      4817      6101
 -1     38901    3    0    3
 -2      2078      4817      4807      6101
 -1     38902    3    0    3
 -2      2078      2258      4817      6101
 -1     38903    3    0    3
 -2      4056      4819      4817      6681
 -1     38904    3    0    3
 -2      1514      1513      5387      1515
 -1     38905    3    0    3
 -2      3084      3063      5875      6793
 -1     38906    3    0    3
 -2      1513      1514      5387      5385
 -1     38907    3    0    3
 -2      6079      6449      1091       970
 -1     38908    3    0    3
 -2      1227      6283      6256      5449
 -1     38909    3    0    3
 -2      1500      1499      1251      6109
 -1     38910    3    0    3
 -2      1085      1369      1251      6102
 -1     38911    3    0    3
 -2      1369      5436      1251      6102
 -1     38912    3    0    3
 -2      5436      3703      5439      6105
 -1     38913    3    0    3
 -2      1085      5439      1369      6102
 -1     38914    3    0    3
 -2      1337      1100      1107      6103
 -1     38915    3    0    3
 -2      6524       683      1063      6541
 -1     38916    3    0    3
 -2      1466      5162      1337      6119
 -1     38917    3    0    3
 -2      6079      6449       970      5195
 -1     38918    3    0    3
 -2      1211      6496      1339      1198
 -1     38919    3    0    3
 -2       852      6134       960      3716
 -1     38920    3    0    3
 -2      2056      1737      2068      6104
 -1     38921    3    0    3
 -2      5892      2068      1737      6104
 -1     38922    3    0    3
 -2      1428      5444      5447      6256
 -1     38923    3    0    3
 -2      2068      5892      5925      6104
 -1     38924    3    0    3
 -2      1313      1612      1369      6105
 -1     38925    3    0    3
 -2      1369      5439      1313      6105
 -1     38926    3    0    3
 -2      5436      5439      1369      6105
 -1     38927    3    0    3
 -2      5439      5436      1369      6102
 -1     38928    3    0    3
 -2      4810      2408      4809      6106
 -1     38929    3    0    3
 -2      2408      4810      4809      5740
 -1     38930    3    0    3
 -2      2353      2209      2408      6106
 -1     38931    3    0    3
 -2      2200      5785      4977      5790
 -1     38932    3    0    3
 -2      5447      3675      6287      6107
 -1     38933    3    0    3
 -2      3675      5447      6287      5444
 -1     38934    3    0    3
 -2      1474      6443      6442      1442
 -1     38935    3    0    3
 -2      6796      2613      6667      2693
 -1     38936    3    0    3
 -2        64      5481       795       796
 -1     38937    3    0    3
 -2      3904       674      3100      6559
 -1     38938    3    0    3
 -2      5438      1429      1607      6287
 -1     38939    3    0    3
 -2      1460      1429      1428      6287
 -1     38940    3    0    3
 -2      6107      1428      1429      6287
 -1     38941    3    0    3
 -2      1352      1351      1459      6280
 -1     38942    3    0    3
 -2      5168      5162      4206      6108
 -1     38943    3    0    3
 -2      3763      6142      6548      6545
 -1     38944    3    0    3
 -2      5168      4148      5162      6495
 -1     38945    3    0    3
 -2      5168      1262      1531      6108
 -1     38946    3    0    3
 -2      1531      1262      1263      6108
 -1     38947    3    0    3
 -2      1250      1499      5425      6109
 -1     38948    3    0    3
 -2      2800      1789       369      1757
 -1     38949    3    0    3
 -2      1250      1251      1499      6109
 -1     38950    3    0    3
 -2      1250      5426      1251      6109
 -1     38951    3    0    3
 -2      3037      6655      3038      3036
 -1     38952    3    0    3
 -2      2301      4737      4735      5915
 -1     38953    3    0    3
 -2      3037      6655      4594      6652
 -1     38954    3    0    3
 -2      6052      4722      2057      2058
 -1     38955    3    0    3
 -2      6260      6262      4015      3795
 -1     38956    3    0    3
 -2      2276      2403      2191      6110
 -1     38957    3    0    3
 -2      4585      2409      6558      6636
 -1     38958    3    0    3
 -2      6111      3113       778      6540
 -1     38959    3    0    3
 -2      5985       364      2806      2828
 -1     38960    3    0    3
 -2       482       662      3080      6112
 -1     38961    3    0    3
 -2      5145      1409      6076      6557
 -1     38962    3    0    3
 -2      6561      3111      6785      6798
 -1     38963    3    0    3
 -2      6502      1217      6184       917
 -1     38964    3    0    3
 -2      4569      4333      6117      6638
 -1     38965    3    0    3
 -2      5985       364      2828      1713
 -1     38966    3    0    3
 -2      6540      6517      6519      6563
 -1     38967    3    0    3
 -2      6526      6117      4568      6785
 -1     38968    3    0    3
 -2      6563      6527      5132      6798
 -1     38969    3    0    3
 -2      3147      3099      3113      6527
 -1     38970    3    0    3
 -2      6603      4202      6212      4605
 -1     38971    3    0    3
 -2      6111       482      3120      6112
 -1     38972    3    0    3
 -2       482       481      3120      6112
 -1     38973    3    0    3
 -2       480      3030      3078      6789
 -1     38974    3    0    3
 -2      3064      3030      3033      6599
 -1     38975    3    0    3
 -2      4279      5156      5155      6113
 -1     38976    3    0    3
 -2      6506      1048      5133      6523
 -1     38977    3    0    3
 -2      4592      5156      6113      6535
 -1     38978    3    0    3
 -2      4203      1763      4565      6209
 -1     38979    3    0    3
 -2      5357      1619      6663      1440
 -1     38980    3    0    3
 -2      6789      5155      6599      6647
 -1     38981    3    0    3
 -2      1703      6528      6209      6526
 -1     38982    3    0    3
 -2      3758      5438      5436      6115
 -1     38983    3    0    3
 -2      1703      6528      6526      1733
 -1     38984    3    0    3
 -2      1703      6528      2118      6209
 -1     38985    3    0    3
 -2      1703      6528      1733      2118
 -1     38986    3    0    3
 -2      4980      4977      6477      3873
 -1     38987    3    0    3
 -2      6142      4161      5143      3763
 -1     38988    3    0    3
 -2      2120      6138      1952      4270
 -1     38989    3    0    3
 -2      4603      4225      4593      6206
 -1     38990    3    0    3
 -2      6113      3064      6531      6599
 -1     38991    3    0    3
 -2      2034      2110      2209      6212
 -1     38992    3    0    3
 -2      6587       307      3244      1898
 -1     38993    3    0    3
 -2      1366      5412      1483      5848
 -1     38994    3    0    3
 -2      1896      1765      6116      6652
 -1     38995    3    0    3
 -2      3029      1896      4593      6652
 -1     38996    3    0    3
 -2      6646      6117      6526      6785
 -1     38997    3    0    3
 -2      4565      2035      1918      6492
 -1     38998    3    0    3
 -2       409      6791      3043      6650
 -1     38999    3    0    3
 -2      3035       682      3066       232
 -1     39000    3    0    3
 -2      1157      1279      5210      6118
 -1     39001    3    0    3
 -2      1279      1157      1322      6118
 -1     39002    3    0    3
 -2      1157      5210      5212      6118
 -1     39003    3    0    3
 -2      1157      1225      1322      6118
 -1     39004    3    0    3
 -2      1157      5212      1225      6118
 -1     39005    3    0    3
 -2      1211      6496      5839      5550
 -1     39006    3    0    3
 -2       852      6134       961       960
 -1     39007    3    0    3
 -2      5159      4229      5160      6119
 -1     39008    3    0    3
 -2      5439      1313      5441      6092
 -1     39009    3    0    3
 -2      5102       181      2974       664
 -1     39010    3    0    3
 -2      5160      1398      6178      6522
 -1     39011    3    0    3
 -2      5149      4258      6178      6522
 -1     39012    3    0    3
 -2      4641      2017      1837      6120
 -1     39013    3    0    3
 -2      3538      4641      1837      6120
 -1     39014    3    0    3
 -2      4110      4641      3538      6120
 -1     39015    3    0    3
 -2      3538      4626      4110      6120
 -1     39016    3    0    3
 -2      5155      5159       945      6491
 -1     39017    3    0    3
 -2      5159      5155       945       944
 -1     39018    3    0    3
 -2      1661      1568      1565      6122
 -1     39019    3    0    3
 -2      1564      6133      6554      6555
 -1     39020    3    0    3
 -2      5149      5150      4287      6133
 -1     39021    3    0    3
 -2      5155       944      5159      6523
 -1     39022    3    0    3
 -2      2061      2293      2237      6180
 -1     39023    3    0    3
 -2      2061      3918      4716      6180
 -1     39024    3    0    3
 -2      4673      3918      2061      6180
 -1     39025    3    0    3
 -2      3857      4717      4303      6180
 -1     39026    3    0    3
 -2      4728      5291      4040      3462
 -1     39027    3    0    3
 -2      6123      4075      4716      6127
 -1     39028    3    0    3
 -2      2323      6123      6127      6146
 -1     39029    3    0    3
 -2      2234      2323      6127      6146
 -1     39030    3    0    3
 -2      6045      2681      2560      2593
 -1     39031    3    0    3
 -2      4360      4139      3005      4332
 -1     39032    3    0    3
 -2      4360      4139      3491      3005
 -1     39033    3    0    3
 -2       125      6470       126       701
 -1     39034    3    0    3
 -2      5880      5388      5814      5815
 -1     39035    3    0    3
 -2      5880      5388      5815      5881
 -1     39036    3    0    3
 -2      6125      4634      3787      6585
 -1     39037    3    0    3
 -2      4716      4717      4102      4075
 -1     39038    3    0    3
 -2      6125      3787      6083      6585
 -1     39039    3    0    3
 -2      4727      3165      3255      3235
 -1     39040    3    0    3
 -2      2114      1963      6124      6585
 -1     39041    3    0    3
 -2      4632      3787      6083      6125
 -1     39042    3    0    3
 -2      4632      4634      3787      6125
 -1     39043    3    0    3
 -2      3182      3244      3183      6587
 -1     39044    3    0    3
 -2      4727      3165      3235      4724
 -1     39045    3    0    3
 -2      1965      1898      1870      6587
 -1     39046    3    0    3
 -2      3183      3702      3181      6587
 -1     39047    3    0    3
 -2       297      3502      1826      3168
 -1     39048    3    0    3
 -2      2169      6054      4732      6135
 -1     39049    3    0    3
 -2      4727      3165      3766      3255
 -1     39050    3    0    3
 -2      6054      2279      2436      6128
 -1     39051    3    0    3
 -2      6054      2279      6128      4731
 -1     39052    3    0    3
 -2      5429      3318      3341      3319
 -1     39053    3    0    3
 -2      2323      2131      2234      6127
 -1     39054    3    0    3
 -2      2323      2293      2131      6127
 -1     39055    3    0    3
 -2      4615      2211      6594      6575
 -1     39056    3    0    3
 -2      2245      2131      2293      6127
 -1     39057    3    0    3
 -2      1227      6283      5449       932
 -1     39058    3    0    3
 -2      6045      2681      2593      6132
 -1     39059    3    0    3
 -2      1925      3797      6145      4681
 -1     39060    3    0    3
 -2      4719      4717      4014      6183
 -1     39061    3    0    3
 -2      3848      5841      5838      1006
 -1     39062    3    0    3
 -2      4719      2348      2347      6732
 -1     39063    3    0    3
 -2      4714      1965      4634      6126
 -1     39064    3    0    3
 -2      6047      2271      1972      4736
 -1     39065    3    0    3
 -2      2436      2437      4733      6128
 -1     39066    3    0    3
 -2      1474      1461      1525      6442
 -1     39067    3    0    3
 -2      5180      6768      1122      6446
 -1     39068    3    0    3
 -2      1171      1314      6064      6129
 -1     39069    3    0    3
 -2      1171      1118      1314      6129
 -1     39070    3    0    3
 -2      1965      4714      4634      6587
 -1     39071    3    0    3
 -2      2346      2615      4740      6394
 -1     39072    3    0    3
 -2      3827      4742      4740      6394
 -1     39073    3    0    3
 -2      5882      2316      4742      6394
 -1     39074    3    0    3
 -2      5882      4742      3827      6394
 -1     39075    3    0    3
 -2      2447      2560      2322      6194
 -1     39076    3    0    3
 -2      6189      2447      2322      6194
 -1     39077    3    0    3
 -2       689      3398      3927      3350
 -1     39078    3    0    3
 -2      6040      2593      2598      6132
 -1     39079    3    0    3
 -2      4737      6040      6041      6132
 -1     39080    3    0    3
 -2      4737      2593      6040      6132
 -1     39081    3    0    3
 -2      6045      2593      4737      6132
 -1     39082    3    0    3
 -2      3524      6485      3470      4976
 -1     39083    3    0    3
 -2      5548      1161      5559      5766
 -1     39084    3    0    3
 -2      6028      1862       483      3218
 -1     39085    3    0    3
 -2      6554      1405      1564      6555
 -1     39086    3    0    3
 -2      1455      1564      1310      6554
 -1     39087    3    0    3
 -2      1455      1405      1564      6554
 -1     39088    3    0    3
 -2      6541      1455      6517      6554
 -1     39089    3    0    3
 -2      6133      1310      1564      6554
 -1     39090    3    0    3
 -2      6559      5132      3099      6529
 -1     39091    3    0    3
 -2      4590      4587      4184      4588
 -1     39092    3    0    3
 -2      5346      2805      5940      6274
 -1     39093    3    0    3
 -2      2805      5346      5940      5956
 -1     39094    3    0    3
 -2      3722      5414      4851      3752
 -1     39095    3    0    3
 -2      5414      3722      4851      3753
 -1     39096    3    0    3
 -2      6102      5426      1162      6134
 -1     39097    3    0    3
 -2       960      5431      5430       831
 -1     39098    3    0    3
 -2      1593      6178      6518      5160
 -1     39099    3    0    3
 -2      5950      6217      4769      6251
 -1     39100    3    0    3
 -2      2111      1924      2169      6135
 -1     39101    3    0    3
 -2      2865      2843      5367      2817
 -1     39102    3    0    3
 -2      6045      3896      4734      3865
 -1     39103    3    0    3
 -2      2299      2169      1924      6135
 -1     39104    3    0    3
 -2      6536      4592      5667      6494
 -1     39105    3    0    3
 -2      4584      4314      4578      6630
 -1     39106    3    0    3
 -2      3716      6137      6134      5432
 -1     39107    3    0    3
 -2      6567      4576      1913      4470
 -1     39108    3    0    3
 -2      4578      4260      4584      6510
 -1     39109    3    0    3
 -2      6498      1596      1392      1386
 -1     39110    3    0    3
 -2      4728      2013      4246      6098
 -1     39111    3    0    3
 -2      6301      3831      5299      3780
 -1     39112    3    0    3
 -2      4094      3547      5432      6137
 -1     39113    3    0    3
 -2      4094      5434      3547      6137
 -1     39114    3    0    3
 -2      4584      2485      2483      6630
 -1     39115    3    0    3
 -2      6648      1754      6791      4569
 -1     39116    3    0    3
 -2      2035      2501      1918      6492
 -1     39117    3    0    3
 -2      6558      4584      2483      6630
 -1     39118    3    0    3
 -2      2485      2484      2483      6630
 -1     39119    3    0    3
 -2      2516      2517      2538      6569
 -1     39120    3    0    3
 -2      4314      4577      4578      6630
 -1     39121    3    0    3
 -2      4567      4564      4565      3104
 -1     39122    3    0    3
 -2      1265      5189      5186      6480
 -1     39123    3    0    3
 -2      5905      1011      5197      1191
 -1     39124    3    0    3
 -2      4103      6437      4614      6462
 -1     39125    3    0    3
 -2      6139      4188      4580      6144
 -1     39126    3    0    3
 -2      4103      6437      4613      4129
 -1     39127    3    0    3
 -2      4582      4613      2428      6144
 -1     39128    3    0    3
 -2      4258      6518      5150      6178
 -1     39129    3    0    3
 -2      6165      6591      6578      2143
 -1     39130    3    0    3
 -2      4536      2043      2107      1850
 -1     39131    3    0    3
 -2      6147      3917      6734      5416
 -1     39132    3    0    3
 -2      5418      3883      5417      6147
 -1     39133    3    0    3
 -2      5423      1248      5424      6151
 -1     39134    3    0    3
 -2      5164      5209      4100      6141
 -1     39135    3    0    3
 -2      5164      1419      5209      6141
 -1     39136    3    0    3
 -2      5209      5185      4100      6141
 -1     39137    3    0    3
 -2      5209      1419      5185      6141
 -1     39138    3    0    3
 -2       218       675      5130      3097
 -1     39139    3    0    3
 -2      1603      1036      1408      6771
 -1     39140    3    0    3
 -2      1970      6664      2469      1919
 -1     39141    3    0    3
 -2      1036      5720      6545      6771
 -1     39142    3    0    3
 -2      1410      1408      1409      6557
 -1     39143    3    0    3
 -2      2362      6479      2454      4625
 -1     39144    3    0    3
 -2      6076      1409      1218      6142
 -1     39145    3    0    3
 -2      2362      6479      4623      2586
 -1     39146    3    0    3
 -2      1409       956      1218      6142
 -1     39147    3    0    3
 -2      3500      4345      2992      3473
 -1     39148    3    0    3
 -2      3500      4345      3721      2992
 -1     39149    3    0    3
 -2      5915      4735      2243      6143
 -1     39150    3    0    3
 -2      2243      4735      1978      6143
 -1     39151    3    0    3
 -2      5915      2243      2170      6143
 -1     39152    3    0    3
 -2      2243      1978      2170      6143
 -1     39153    3    0    3
 -2      6165      6591      4615      6578
 -1     39154    3    0    3
 -2      2428      2429      2286      6593
 -1     39155    3    0    3
 -2      2429      2428      4613      6593
 -1     39156    3    0    3
 -2      3612      3581      3550      4878
 -1     39157    3    0    3
 -2      4536      2043      1850      4537
 -1     39158    3    0    3
 -2      4582      4188      4613      6144
 -1     39159    3    0    3
 -2      1925      2299      1924      6145
 -1     39160    3    0    3
 -2      6054      4732      6135      6145
 -1     39161    3    0    3
 -2      6054      4731      4732      6145
 -1     39162    3    0    3
 -2      6135      4732      4200      6145
 -1     39163    3    0    3
 -2      4731      4200      4732      6145
 -1     39164    3    0    3
 -2       833      5416      6158       998
 -1     39165    3    0    3
 -2      5416       833      6158      6148
 -1     39166    3    0    3
 -2      6030      3912      2062      4715
 -1     39167    3    0    3
 -2      6147      5418      3883      6160
 -1     39168    3    0    3
 -2      1243      5415      6156      6734
 -1     39169    3    0    3
 -2      6148      4452      3327      6158
 -1     39170    3    0    3
 -2       966       998      1243      6734
 -1     39171    3    0    3
 -2       998       966      5416      6734
 -1     39172    3    0    3
 -2      3438      3919      5420      5422
 -1     39173    3    0    3
 -2      6157      6148      5416      6467
 -1     39174    3    0    3
 -2      6157      5416      5224      6467
 -1     39175    3    0    3
 -2      5973      5964      4778      2198
 -1     39176    3    0    3
 -2       142      3327      3324      6158
 -1     39177    3    0    3
 -2      6030      3912      4715      4348
 -1     39178    3    0    3
 -2      6148      5416      4452      6158
 -1     39179    3    0    3
 -2      1020      6319      5951       920
 -1     39180    3    0    3
 -2      6148      3327       833      6158
 -1     39181    3    0    3
 -2       305      3198      3162      6149
 -1     39182    3    0    3
 -2      3962      6592      4618      4616
 -1     39183    3    0    3
 -2      3962      6592      4616      6590
 -1     39184    3    0    3
 -2      3962      6592      6788      4618
 -1     39185    3    0    3
 -2      3962      6592      6590      6788
 -1     39186    3    0    3
 -2      4402      2041      6169      4665
 -1     39187    3    0    3
 -2      1072      5278      6419       971
 -1     39188    3    0    3
 -2      4716      4121      4713      6176
 -1     39189    3    0    3
 -2      4713      2130      2245      6150
 -1     39190    3    0    3
 -2      2130      2244      2245      6150
 -1     39191    3    0    3
 -2      4121      4715      4713      6176
 -1     39192    3    0    3
 -2      1248      5423      1308      6151
 -1     39193    3    0    3
 -2      1222       887      1248      6151
 -1     39194    3    0    3
 -2      1222      5418       887      6151
 -1     39195    3    0    3
 -2      1248       887      5424      6151
 -1     39196    3    0    3
 -2      5418      5424       887      6151
 -1     39197    3    0    3
 -2       313      3653      3243      3224
 -1     39198    3    0    3
 -2      6125      6083      2225      6585
 -1     39199    3    0    3
 -2      4716      2245      6127      6176
 -1     39200    3    0    3
 -2      6171      4629      6590      6167
 -1     39201    3    0    3
 -2      5281      6412      6177      5280
 -1     39202    3    0    3
 -2       863      5127       985      6414
 -1     39203    3    0    3
 -2       863       985      1075      6414
 -1     39204    3    0    3
 -2      6449      5195      5192      3554
 -1     39205    3    0    3
 -2      4063      5230      5127      6414
 -1     39206    3    0    3
 -2      5127      5230       985      6414
 -1     39207    3    0    3
 -2      6417      5280      1121      6412
 -1     39208    3    0    3
 -2      5195      6449      5192      5905
 -1     39209    3    0    3
 -2      6583      6173      4712      6580
 -1     39210    3    0    3
 -2      1999      4540      4541      1749
 -1     39211    3    0    3
 -2      2365      2312      2152      6165
 -1     39212    3    0    3
 -2      3919       887      5418      4420
 -1     39213    3    0    3
 -2      3919       799       887      5422
 -1     39214    3    0    3
 -2      3021      4550      4496      3448
 -1     39215    3    0    3
 -2      6188      1498      6451      1458
 -1     39216    3    0    3
 -2      6188      1498      1458      1591
 -1     39217    3    0    3
 -2      6188      1498      1591      6461
 -1     39218    3    0    3
 -2      6188      1498      6461      6451
 -1     39219    3    0    3
 -2      1028      4194      5194      6155
 -1     39220    3    0    3
 -2      5203      4194      1028      6155
 -1     39221    3    0    3
 -2      4032      5174      5173      6312
 -1     39222    3    0    3
 -2      1316      1589      1520      6159
 -1     39223    3    0    3
 -2      5415      3976      5377      6159
 -1     39224    3    0    3
 -2      1316      1246      1243      6156
 -1     39225    3    0    3
 -2      1316      5223      1246      6156
 -1     39226    3    0    3
 -2      6785      3102      3143      3127
 -1     39227    3    0    3
 -2      4512      3260      3177      6465
 -1     39228    3    0    3
 -2      6465       967       821      6489
 -1     39229    3    0    3
 -2      3260       141      3177      6465
 -1     39230    3    0    3
 -2      5416      3856      5224      6467
 -1     39231    3    0    3
 -2      3856      5416      6148      6467
 -1     39232    3    0    3
 -2       492      6148      6157      6467
 -1     39233    3    0    3
 -2       490      6161      3403      3325
 -1     39234    3    0    3
 -2      4348      4183      4715      6030
 -1     39235    3    0    3
 -2      6156       966      1243      6734
 -1     39236    3    0    3
 -2      3327       142       833      6158
 -1     39237    3    0    3
 -2       142       803       833      6158
 -1     39238    3    0    3
 -2      6030      3912      6149      2062
 -1     39239    3    0    3
 -2       998       833       803      6158
 -1     39240    3    0    3
 -2      6030      3912      4348      6149
 -1     39241    3    0    3
 -2       998      6140      5416      6158
 -1     39242    3    0    3
 -2      4712      6150      4183      6173
 -1     39243    3    0    3
 -2      6160      3919      4452      6140
 -1     39244    3    0    3
 -2      6171      4629      6167      6787
 -1     39245    3    0    3
 -2      6161      6160      4853      6162
 -1     39246    3    0    3
 -2      4042      3820      3403      6161
 -1     39247    3    0    3
 -2      3883      4853      5416      6160
 -1     39248    3    0    3
 -2      6147      6140      5418      6160
 -1     39249    3    0    3
 -2      5416      6140      6147      6160
 -1     39250    3    0    3
 -2      4104      3179      3262      6622
 -1     39251    3    0    3
 -2      4337      6162      3820      4042
 -1     39252    3    0    3
 -2       732      6467      3260       492
 -1     39253    3    0    3
 -2      4853      3856      5416      6161
 -1     39254    3    0    3
 -2      3403      3820      3325      6161
 -1     39255    3    0    3
 -2       732      6467      6465      3260
 -1     39256    3    0    3
 -2      4337      6162      4855      6160
 -1     39257    3    0    3
 -2      4853      3883      4852      6720
 -1     39258    3    0    3
 -2      6519      6527      6111      6540
 -1     39259    3    0    3
 -2      6160      4853      5416      6161
 -1     39260    3    0    3
 -2      6161      4042      3820      6162
 -1     39261    3    0    3
 -2      5061       536      3997      3775
 -1     39262    3    0    3
 -2      4712      6150      6169      4713
 -1     39263    3    0    3
 -2      4712      6150      4713      4183
 -1     39264    3    0    3
 -2      4712      6150      6173      6169
 -1     39265    3    0    3
 -2      1442      5178      1314      6443
 -1     39266    3    0    3
 -2      5162      1531      5168      6495
 -1     39267    3    0    3
 -2      6549      1368      1172      1187
 -1     39268    3    0    3
 -2      1368      6549      1172      6440
 -1     39269    3    0    3
 -2      5152      5183      4157      6163
 -1     39270    3    0    3
 -2       898      3840      5294      6164
 -1     39271    3    0    3
 -2      5246      3840       898      6164
 -1     39272    3    0    3
 -2      2416      2573      2365      6594
 -1     39273    3    0    3
 -2      6154      2416      2305      6575
 -1     39274    3    0    3
 -2      2305      4612      6154      6575
 -1     39275    3    0    3
 -2      6165      2211      2365      6594
 -1     39276    3    0    3
 -2      6572      2517      2516      6569
 -1     39277    3    0    3
 -2      2300      2059      2072      6166
 -1     39278    3    0    3
 -2      2300      4627      2059      6166
 -1     39279    3    0    3
 -2      2332      6167      6171      6590
 -1     39280    3    0    3
 -2      1317      6159      5223      1316
 -1     39281    3    0    3
 -2      2300      2332      6171      6590
 -1     39282    3    0    3
 -2      4627      4205      6166      6596
 -1     39283    3    0    3
 -2      6134      6137      1085      6102
 -1     39284    3    0    3
 -2      4229      6511      6119      5162
 -1     39285    3    0    3
 -2      2289      4091      4629      6198
 -1     39286    3    0    3
 -2      6501      4064      6488      5171
 -1     39287    3    0    3
 -2      6592      2333      6590      6788
 -1     39288    3    0    3
 -2      4651      3280      3261      3247
 -1     39289    3    0    3
 -2      2059      6171      4627      2300
 -1     39290    3    0    3
 -2      2333      2300      2304      6590
 -1     39291    3    0    3
 -2      4205      4627      4616      6596
 -1     39292    3    0    3
 -2      2884      4492      2885      5122
 -1     39293    3    0    3
 -2      3794      3932      4379      5199
 -1     39294    3    0    3
 -2      2303      2332      2427      6171
 -1     39295    3    0    3
 -2      5176      4612      4162      4131
 -1     39296    3    0    3
 -2      2427      2173      6171      6588
 -1     39297    3    0    3
 -2      5231       194       746      2938
 -1     39298    3    0    3
 -2      6126      4714      2158      6173
 -1     39299    3    0    3
 -2      4712      4402      4713      6169
 -1     39300    3    0    3
 -2      6150      4713      2130      6169
 -1     39301    3    0    3
 -2      4713      2041      2130      6169
 -1     39302    3    0    3
 -2      3683      3485      3893      4667
 -1     39303    3    0    3
 -2       983      1080      5276      6170
 -1     39304    3    0    3
 -2      5276      4327       983      6170
 -1     39305    3    0    3
 -2      4327      5276       983      3947
 -1     39306    3    0    3
 -2      1477      3920      1040      1064
 -1     39307    3    0    3
 -2      2332      2303      2300      6171
 -1     39308    3    0    3
 -2      4651      3280      3682      3892
 -1     39309    3    0    3
 -2      2173      2303      2427      6171
 -1     39310    3    0    3
 -2      1911      2027      1870      6172
 -1     39311    3    0    3
 -2      6030      1911      6149      6172
 -1     39312    3    0    3
 -2      4348      6030      6149      6172
 -1     39313    3    0    3
 -2      6149      3198      4348      6172
 -1     39314    3    0    3
 -2      2954      5231      5230      4482
 -1     39315    3    0    3
 -2      4258      6523      5159      6522
 -1     39316    3    0    3
 -2      4258      6523      4309      5159
 -1     39317    3    0    3
 -2      4258      6523      6522      5149
 -1     39318    3    0    3
 -2      4258      6523      5149      4309
 -1     39319    3    0    3
 -2      6169      2129      6150      6173
 -1     39320    3    0    3
 -2      6177      1124       909      1125
 -1     39321    3    0    3
 -2      6177      1124      6164       909
 -1     39322    3    0    3
 -2      1010      4461      6400      3788
 -1     39323    3    0    3
 -2      2178      6083      6125      6174
 -1     39324    3    0    3
 -2      4036      4632      6083      6174
 -1     39325    3    0    3
 -2      4632      4036      3570      6174
 -1     39326    3    0    3
 -2      5294      5296      6195      6423
 -1     39327    3    0    3
 -2      6175      1154      1259      6423
 -1     39328    3    0    3
 -2      6175      5294      1154      6423
 -1     39329    3    0    3
 -2      5294      1154      6164      6175
 -1     39330    3    0    3
 -2       844      6177       910      5239
 -1     39331    3    0    3
 -2       844      6177       909       910
 -1     39332    3    0    3
 -2      2245      2060      2014      6179
 -1     39333    3    0    3
 -2      4716      3918      2060      6179
 -1     39334    3    0    3
 -2      3918      4351      4672      6179
 -1     39335    3    0    3
 -2      6150      2244      2245      6176
 -1     39336    3    0    3
 -2      2204      6589      2205      2101
 -1     39337    3    0    3
 -2      4713      4715      6150      6176
 -1     39338    3    0    3
 -2      6150      4715      2244      6176
 -1     39339    3    0    3
 -2      6052      2244      4715      6176
 -1     39340    3    0    3
 -2       910      5238      1024       714
 -1     39341    3    0    3
 -2      3743      5242      5239      6177
 -1     39342    3    0    3
 -2       910      5238      5239      4416
 -1     39343    3    0    3
 -2      5242      3743      4145      6177
 -1     39344    3    0    3
 -2      5242      4145       909      6177
 -1     39345    3    0    3
 -2      5281      4145      3743      6177
 -1     39346    3    0    3
 -2      6183      4248      6187      4717
 -1     39347    3    0    3
 -2      2204      6589      2101      4886
 -1     39348    3    0    3
 -2      2204      6589      4886      6249
 -1     39349    3    0    3
 -2      5190       989      5188      5726
 -1     39350    3    0    3
 -2      4258      5150      5149      6178
 -1     39351    3    0    3
 -2      5160      4258      5159      6522
 -1     39352    3    0    3
 -2      2031      4646      2144      2267
 -1     39353    3    0    3
 -2      2576      4823      6213      4835
 -1     39354    3    0    3
 -2      6178      4258      5160      6522
 -1     39355    3    0    3
 -2      4713      3977      4351      6179
 -1     39356    3    0    3
 -2      4713      2014      3977      6179
 -1     39357    3    0    3
 -2      6183      4248      4717      4014
 -1     39358    3    0    3
 -2      4716      2060      2245      6179
 -1     39359    3    0    3
 -2      6183      4248      5909      6187
 -1     39360    3    0    3
 -2      2245      2014      4713      6179
 -1     39361    3    0    3
 -2      6756      2812      2795      2833
 -1     39362    3    0    3
 -2      6123      4716      4717      6180
 -1     39363    3    0    3
 -2      4717      4716      4303      6180
 -1     39364    3    0    3
 -2      4716      2293      2061      6180
 -1     39365    3    0    3
 -2      4716      6127      2293      6180
 -1     39366    3    0    3
 -2      6079      1091      5905      1191
 -1     39367    3    0    3
 -2      4716      6123      6127      6180
 -1     39368    3    0    3
 -2      4597      4206      4603      6181
 -1     39369    3    0    3
 -2      4597      4603      2238      6181
 -1     39370    3    0    3
 -2      4597      2238      2350      6181
 -1     39371    3    0    3
 -2      2238      2407      2350      6181
 -1     39372    3    0    3
 -2      2407      2238      4603      6181
 -1     39373    3    0    3
 -2      2584      2633      2341      6182
 -1     39374    3    0    3
 -2      2341      4586      4596      6182
 -1     39375    3    0    3
 -2      2584      2341      4596      6182
 -1     39376    3    0    3
 -2      2013      4728      4246      3689
 -1     39377    3    0    3
 -2      6776      4299      4349      5580
 -1     39378    3    0    3
 -2       816      6241      5505      5502
 -1     39379    3    0    3
 -2      4248      3857      4677      6187
 -1     39380    3    0    3
 -2      5008      5009      2655      5805
 -1     39381    3    0    3
 -2       816      6241       955       856
 -1     39382    3    0    3
 -2      6128      2279      2437      6183
 -1     39383    3    0    3
 -2      2437      2279      2278      6183
 -1     39384    3    0    3
 -2      2278      2347      2437      6183
 -1     39385    3    0    3
 -2      1197      5167      1392      6184
 -1     39386    3    0    3
 -2      6505      6119      1466      1465
 -1     39387    3    0    3
 -2      3590      4480      5402      4283
 -1     39388    3    0    3
 -2      1262      6498      5168      6203
 -1     39389    3    0    3
 -2      1586      1519      1427      6203
 -1     39390    3    0    3
 -2      3075      6792      1816      4805
 -1     39391    3    0    3
 -2      1082      5990      5372      6695
 -1     39392    3    0    3
 -2      3590      4480      4283      5408
 -1     39393    3    0    3
 -2      2545      5893      2542      4774
 -1     39394    3    0    3
 -2      2545      5893      5965      2689
 -1     39395    3    0    3
 -2      6064       891      5176      6193
 -1     39396    3    0    3
 -2      2278      5909      2279      2021
 -1     39397    3    0    3
 -2      2278      5909      2021      6187
 -1     39398    3    0    3
 -2      2278      5909      6187      6183
 -1     39399    3    0    3
 -2      3587      4907      4059      6185
 -1     39400    3    0    3
 -2      2123      4907      3587      6185
 -1     39401    3    0    3
 -2       650       549       800        31
 -1     39402    3    0    3
 -2      4732      4735      3896      6189
 -1     39403    3    0    3
 -2      2170      2322      5915      6189
 -1     39404    3    0    3
 -2      2061      4672      2060      3918
 -1     39405    3    0    3
 -2      2061      4672      1719      2060
 -1     39406    3    0    3
 -2      6054      4732      3953      6186
 -1     39407    3    0    3
 -2      6054      2436      2376      6191
 -1     39408    3    0    3
 -2      4734      3953      4732      6186
 -1     39409    3    0    3
 -2      4248      4717      3857      6187
 -1     39410    3    0    3
 -2      6630      2502      4578      6510
 -1     39411    3    0    3
 -2      5177      1456      5714      6070
 -1     39412    3    0    3
 -2      1456      5177      5714      6188
 -1     39413    3    0    3
 -2      6188      5184      6451      6461
 -1     39414    3    0    3
 -2      5177      4103      5714      6188
 -1     39415    3    0    3
 -2      4103      5177      5183      6188
 -1     39416    3    0    3
 -2      6630      2502      6510      2485
 -1     39417    3    0    3
 -2      6630      2502      2485      2718
 -1     39418    3    0    3
 -2      6630      2502      2718      4578
 -1     39419    3    0    3
 -2      5714      4103      5184      6188
 -1     39420    3    0    3
 -2      6578      2312      6165      2143
 -1     39421    3    0    3
 -2      2170      5915      6143      6189
 -1     39422    3    0    3
 -2      4680       445      1869      4677
 -1     39423    3    0    3
 -2      6186      2169      4732      6189
 -1     39424    3    0    3
 -2      4680       445      2937       446
 -1     39425    3    0    3
 -2      6186      2447      2169      6189
 -1     39426    3    0    3
 -2      2169      2447      2170      6189
 -1     39427    3    0    3
 -2      1540      1416      1576      6389
 -1     39428    3    0    3
 -2      6190      5308      1414      6389
 -1     39429    3    0    3
 -2      6046      3678      4741      3592
 -1     39430    3    0    3
 -2       454      4700      2967      4697
 -1     39431    3    0    3
 -2      6190      5309      5308      6389
 -1     39432    3    0    3
 -2      6186      6054      2376      6191
 -1     39433    3    0    3
 -2      2376      6186      6191      6735
 -1     39434    3    0    3
 -2      3953      6054      6186      6191
 -1     39435    3    0    3
 -2      3953      4733      6054      6191
 -1     39436    3    0    3
 -2      4733      3953      4734      6191
 -1     39437    3    0    3
 -2      1045      4124       656      6276
 -1     39438    3    0    3
 -2      1084      6092      1313      5439
 -1     39439    3    0    3
 -2       864       686      1047      6277
 -1     39440    3    0    3
 -2      5345      5952      1047      6277
 -1     39441    3    0    3
 -2      1045       656       889      6276
 -1     39442    3    0    3
 -2      6276      1045      4124      6738
 -1     39443    3    0    3
 -2       175      3302      3289      6286
 -1     39444    3    0    3
 -2      6310      6305      1045      6738
 -1     39445    3    0    3
 -2      3963      5175      5176      6193
 -1     39446    3    0    3
 -2      1217      6498      1392      1386
 -1     39447    3    0    3
 -2      1217      6498      1386      5169
 -1     39448    3    0    3
 -2      1874      3075       401      1816
 -1     39449    3    0    3
 -2      4129      5177      6070      6440
 -1     39450    3    0    3
 -2      3951      3908      3923      5213
 -1     39451    3    0    3
 -2      2322      4737      5915      6194
 -1     39452    3    0    3
 -2      6189      5915      3896      6194
 -1     39453    3    0    3
 -2      4737      3896      5915      6194
 -1     39454    3    0    3
 -2      6189      3896      4734      6194
 -1     39455    3    0    3
 -2      1533      5339      1579      6354
 -1     39456    3    0    3
 -2      6197      3931      5298      3896
 -1     39457    3    0    3
 -2      3165      3689      4724      4727
 -1     39458    3    0    3
 -2      5967      4736      2271      6196
 -1     39459    3    0    3
 -2      4738      5967      6040      6196
 -1     39460    3    0    3
 -2      5967      4738      4736      6196
 -1     39461    3    0    3
 -2      5283      1276      6427      1241
 -1     39462    3    0    3
 -2      3831      4736      4738      6196
 -1     39463    3    0    3
 -2      6047      4089      4735      6196
 -1     39464    3    0    3
 -2      4736      4089      6047      6196
 -1     39465    3    0    3
 -2      5298      1186      1051      6197
 -1     39466    3    0    3
 -2      1186      1105      1051      6197
 -1     39467    3    0    3
 -2      6614       317      1873      1835
 -1     39468    3    0    3
 -2      6614       317      3170      3209
 -1     39469    3    0    3
 -2      4231      3210      3241      4654
 -1     39470    3    0    3
 -2      6614       317      3209      1873
 -1     39471    3    0    3
 -2      4585      6558      4586      6636
 -1     39472    3    0    3
 -2      4635      3932      4629      6469
 -1     39473    3    0    3
 -2      4624      4618      3932      6469
 -1     39474    3    0    3
 -2      2695      4607      2696      2686
 -1     39475    3    0    3
 -2      2370      6469      2377      2302
 -1     39476    3    0    3
 -2      1285      6454      5182      6780
 -1     39477    3    0    3
 -2      4076      5184      6461      4017
 -1     39478    3    0    3
 -2       999      1174      5189      6199
 -1     39479    3    0    3
 -2      5215      4320       999      6475
 -1     39480    3    0    3
 -2      1224      1289      1225      6200
 -1     39481    3    0    3
 -2      1224      1225       993      6200
 -1     39482    3    0    3
 -2      1225      5212       993      6200
 -1     39483    3    0    3
 -2      5221      1289      1224      6200
 -1     39484    3    0    3
 -2      5211      1289      5221      6200
 -1     39485    3    0    3
 -2      3945      5221      5223      6313
 -1     39486    3    0    3
 -2      3945      5222      5221      6313
 -1     39487    3    0    3
 -2      3945      5224      5222      6313
 -1     39488    3    0    3
 -2      2634      2686      2509      6504
 -1     39489    3    0    3
 -2      2686      2634      2695      6504
 -1     39490    3    0    3
 -2      6202      4096      4607      4064
 -1     39491    3    0    3
 -2      2696      2683      4607      6202
 -1     39492    3    0    3
 -2      4998      5000      2562      5900
 -1     39493    3    0    3
 -2      6223      5542       869      6395
 -1     39494    3    0    3
 -2      6202      2696      2690      6509
 -1     39495    3    0    3
 -2      2696      4609      2496      6509
 -1     39496    3    0    3
 -2      4064      4609      4607      6202
 -1     39497    3    0    3
 -2      6223      5542      3913      4300
 -1     39498    3    0    3
 -2      6223      5542      4300       869
 -1     39499    3    0    3
 -2      6223      5542      6395      3913
 -1     39500    3    0    3
 -2      5168      5167      4171      6498
 -1     39501    3    0    3
 -2      6184      5167      1392      6498
 -1     39502    3    0    3
 -2      2684      6601      6628      4601
 -1     39503    3    0    3
 -2      2684      6601      2511      2683
 -1     39504    3    0    3
 -2      3590      4480      5408      5789
 -1     39505    3    0    3
 -2      6505      6119      5162      1466
 -1     39506    3    0    3
 -2      4213      6076      6450      5146
 -1     39507    3    0    3
 -2      1392      1262      1586      6203
 -1     39508    3    0    3
 -2      6199      1174      5189      6205
 -1     39509    3    0    3
 -2      3498      1067      3908      6204
 -1     39510    3    0    3
 -2      5210      1278      1158      6205
 -1     39511    3    0    3
 -2      5210      1158      6204      6205
 -1     39512    3    0    3
 -2      5210      5186      1278      6205
 -1     39513    3    0    3
 -2      6204      6199      5213      6205
 -1     39514    3    0    3
 -2      4609      2496      4610      6483
 -1     39515    3    0    3
 -2      4076      5184      4620      4103
 -1     39516    3    0    3
 -2      1174      1158      1278      6205
 -1     39517    3    0    3
 -2      1265      1174      1278      6205
 -1     39518    3    0    3
 -2      5186      1265      1278      6205
 -1     39519    3    0    3
 -2      1497      1496      1265      6480
 -1     39520    3    0    3
 -2      1174      1265      5189      6205
 -1     39521    3    0    3
 -2      4225      4603      4605      6206
 -1     39522    3    0    3
 -2      3972      6261      6285      4822
 -1     39523    3    0    3
 -2      2635      2321      2354      6602
 -1     39524    3    0    3
 -2      2635      2354      4606      6602
 -1     39525    3    0    3
 -2      4606      4605      4171      6602
 -1     39526    3    0    3
 -2      6306      1360      1326      1403
 -1     39527    3    0    3
 -2      6290      5448      5450      3577
 -1     39528    3    0    3
 -2      5374      1142      6005      5380
 -1     39529    3    0    3
 -2      3404      3350       155      6289
 -1     39530    3    0    3
 -2      3927      5465      5466      6207
 -1     39531    3    0    3
 -2      1577      1578      6399      1615
 -1     39532    3    0    3
 -2      6405       894      5564      1149
 -1     39533    3    0    3
 -2      1136       866       865      6207
 -1     39534    3    0    3
 -2      5674      2378      2314      4880
 -1     39535    3    0    3
 -2      2444      2193      2192      6266
 -1     39536    3    0    3
 -2      2192      2205      2318      6249
 -1     39537    3    0    3
 -2      6208      2318      2205      6249
 -1     39538    3    0    3
 -2      3518      6249      6268      4886
 -1     39539    3    0    3
 -2      6280      3699      5443      3729
 -1     39540    3    0    3
 -2      6280      3699      3729      5444
 -1     39541    3    0    3
 -2       409      6791      1754       478
 -1     39542    3    0    3
 -2      3035       682       681      5368
 -1     39543    3    0    3
 -2      6789      6525      3078      6530
 -1     39544    3    0    3
 -2      6565      6528      4569      6782
 -1     39545    3    0    3
 -2      3127      4568      3111      6785
 -1     39546    3    0    3
 -2      4592      3077      6494      6536
 -1     39547    3    0    3
 -2      4597      2350      4598      6181
 -1     39548    3    0    3
 -2      6534      3058      3082      6536
 -1     39549    3    0    3
 -2      1896      4593      1829      6651
 -1     39550    3    0    3
 -2       669       812      6534      6745
 -1     39551    3    0    3
 -2      2350      4597      4598      6598
 -1     39552    3    0    3
 -2      6503       935       936      6745
 -1     39553    3    0    3
 -2      6534      5156       669      6745
 -1     39554    3    0    3
 -2      3521      4020      5390      4049
 -1     39555    3    0    3
 -2      2750      2720      2725      6216
 -1     39556    3    0    3
 -2      4826      5880      4053      6211
 -1     39557    3    0    3
 -2      2685      6213      4835      2576
 -1     39558    3    0    3
 -2      2685      6213      2576      2583
 -1     39559    3    0    3
 -2      5701      5703      1919      6664
 -1     39560    3    0    3
 -2      1929      1732      1731      6662
 -1     39561    3    0    3
 -2      6343      5598      6725      5597
 -1     39562    3    0    3
 -2      2720      5747      6216      6665
 -1     39563    3    0    3
 -2      6212      4605      2167      6603
 -1     39564    3    0    3
 -2      2167      4605      2138      6603
 -1     39565    3    0    3
 -2      6792      2110      5989      2084
 -1     39566    3    0    3
 -2      4805      2034      1874      6659
 -1     39567    3    0    3
 -2      4805      4202      4809      6212
 -1     39568    3    0    3
 -2      5989      2110      4805      6212
 -1     39569    3    0    3
 -2      2110      2034      4805      6212
 -1     39570    3    0    3
 -2      5838      3848      5474      3668
 -1     39571    3    0    3
 -2      6772      4881      2135      6677
 -1     39572    3    0    3
 -2      3934      4832      4835      6214
 -1     39573    3    0    3
 -2      4881      6772      2135      5680
 -1     39574    3    0    3
 -2      4423      2156      2123      5699
 -1     39575    3    0    3
 -2      2685      2714      4837      6214
 -1     39576    3    0    3
 -2      5692      4834      2658      6214
 -1     39577    3    0    3
 -2      4834      2714      2658      6214
 -1     39578    3    0    3
 -2      6383      6240      4517       975
 -1     39579    3    0    3
 -2      6383      6240      5543      4517
 -1     39580    3    0    3
 -2      6740      6242      6239      6803
 -1     39581    3    0    3
 -2      5464      1099      6235      6244
 -1     39582    3    0    3
 -2      1099      5464      6235      6339
 -1     39583    3    0    3
 -2      6215      4820      4023      6676
 -1     39584    3    0    3
 -2      2324      2504      4820      6676
 -1     39585    3    0    3
 -2      2264      2265      1981      6660
 -1     39586    3    0    3
 -2      2265      4819      1982      6660
 -1     39587    3    0    3
 -2      4831      6058      6211      6678
 -1     39588    3    0    3
 -2      3563      2106      3973      4765
 -1     39589    3    0    3
 -2      5363      6331      4406      6336
 -1     39590    3    0    3
 -2      3563      2106      4765      2038
 -1     39591    3    0    3
 -2      4825      5880      6050      6216
 -1     39592    3    0    3
 -2      6050      5747      4825      6216
 -1     39593    3    0    3
 -2      1732       458       394      6665
 -1     39594    3    0    3
 -2      6211      5880      4825      6216
 -1     39595    3    0    3
 -2      6211      4826      5880      6216
 -1     39596    3    0    3
 -2       458      1732      5747      6665
 -1     39597    3    0    3
 -2      6211      5701      4826      6216
 -1     39598    3    0    3
 -2      4044      3853      4708      6217
 -1     39599    3    0    3
 -2      4044      4708      2089      6217
 -1     39600    3    0    3
 -2      4044      2089      2349      6217
 -1     39601    3    0    3
 -2      4778      2288      5945      5865
 -1     39602    3    0    3
 -2      4322      6738      5333      6276
 -1     39603    3    0    3
 -2      2190      2349      6217      6251
 -1     39604    3    0    3
 -2      1126      1099      1208      6339
 -1     39605    3    0    3
 -2      6235      5462      1208      6339
 -1     39606    3    0    3
 -2      6647      4333      5133      4309
 -1     39607    3    0    3
 -2      1209      1013      5463      6244
 -1     39608    3    0    3
 -2      1612      5438      6107      1429
 -1     39609    3    0    3
 -2      2892      4505      3829      2947
 -1     39610    3    0    3
 -2      1558      5864      6318      1402
 -1     39611    3    0    3
 -2      2406      6015      2445      2507
 -1     39612    3    0    3
 -2      6219      2217      4765      6220
 -1     39613    3    0    3
 -2      2106      4765      2217      6220
 -1     39614    3    0    3
 -2      2106      3973      4765      6220
 -1     39615    3    0    3
 -2      2080      4766      3973      6220
 -1     39616    3    0    3
 -2      6647      4333      4569      6638
 -1     39617    3    0    3
 -2      6103      1396      6119      5159
 -1     39618    3    0    3
 -2      6219      4766      4765      3723
 -1     39619    3    0    3
 -2      4766      6219      4765      6220
 -1     39620    3    0    3
 -2      6103      1396      1107      1337
 -1     39621    3    0    3
 -2      6103      1396      1337      6119
 -1     39622    3    0    3
 -2      6103      1396      5159      1107
 -1     39623    3    0    3
 -2      1791      3028       398      6680
 -1     39624    3    0    3
 -2      6658      4807      3088      6680
 -1     39625    3    0    3
 -2      1744       398      3027      6680
 -1     39626    3    0    3
 -2      2258      4819      4817      6101
 -1     39627    3    0    3
 -2      1744      1791       398      6680
 -1     39628    3    0    3
 -2      6248      3606      6308      5334
 -1     39629    3    0    3
 -2      4722       303      1894      3235
 -1     39630    3    0    3
 -2      1970      6238      1919      1810
 -1     39631    3    0    3
 -2      4201      4374       533      4169
 -1     39632    3    0    3
 -2      6126      4632      4712      6580
 -1     39633    3    0    3
 -2      6553      2502      2538      2715
 -1     39634    3    0    3
 -2      5346      6226      6228      6227
 -1     39635    3    0    3
 -2      6226      5346      6228      2842
 -1     39636    3    0    3
 -2      3396       159      3326      6223
 -1     39637    3    0    3
 -2       159      3396       784      6223
 -1     39638    3    0    3
 -2      2185      2342      2343      6224
 -1     39639    3    0    3
 -2      4861      2185      2343      6224
 -1     39640    3    0    3
 -2      4860      2343      2342      6224
 -1     39641    3    0    3
 -2      4849      4848      2412      5675
 -1     39642    3    0    3
 -2      3815      4861      4860      6224
 -1     39643    3    0    3
 -2      5528      5525      3597      3580
 -1     39644    3    0    3
 -2      4903      2232      2224      6225
 -1     39645    3    0    3
 -2      2221      2224      2232      6225
 -1     39646    3    0    3
 -2      2223      2221      5741      6573
 -1     39647    3    0    3
 -2      6211      5814      5880      4053
 -1     39648    3    0    3
 -2      3036      4594      5974      6270
 -1     39649    3    0    3
 -2      6776      5847      5580      1242
 -1     39650    3    0    3
 -2      2842       259      2823      6226
 -1     39651    3    0    3
 -2       792      2823       259      6226
 -1     39652    3    0    3
 -2       876      5346      5947      6739
 -1     39653    3    0    3
 -2      5345      6255      6272      6273
 -1     39654    3    0    3
 -2       467      2823       792      6228
 -1     39655    3    0    3
 -2      6226       792      2823      6228
 -1     39656    3    0    3
 -2       464      2841       465      6273
 -1     39657    3    0    3
 -2      2824      2823       466      6228
 -1     39658    3    0    3
 -2      6226       791       792      6227
 -1     39659    3    0    3
 -2       791       931       792      6227
 -1     39660    3    0    3
 -2      5947      3513      5952      6739
 -1     39661    3    0    3
 -2      5346      6227      5345      6739
 -1     39662    3    0    3
 -2      5947      5346      3513      6739
 -1     39663    3    0    3
 -2      6161      3385      1730       488
 -1     39664    3    0    3
 -2      2823      2842      6226      6228
 -1     39665    3    0    3
 -2      2823      2824      2842      6228
 -1     39666    3    0    3
 -2      1657      5400      5398      5845
 -1     39667    3    0    3
 -2      5940      4783      5346      6274
 -1     39668    3    0    3
 -2      6265      5661      3301      6272
 -1     39669    3    0    3
 -2      6272      6255      5941      6273
 -1     39670    3    0    3
 -2       466      2824      6228      6273
 -1     39671    3    0    3
 -2       323      3370      3385      6229
 -1     39672    3    0    3
 -2       323      1730      1729      6229
 -1     39673    3    0    3
 -2       323      3385      1730      6229
 -1     39674    3    0    3
 -2      3996      6271      4823      6233
 -1     39675    3    0    3
 -2      6272      6314      5344      6278
 -1     39676    3    0    3
 -2      5885      3449      5938      4780
 -1     39677    3    0    3
 -2      1214      1343      5947      1131
 -1     39678    3    0    3
 -2      4767      5920      5965      6230
 -1     39679    3    0    3
 -2      4767      2448      5920      6230
 -1     39680    3    0    3
 -2      2602      4734      5870      6131
 -1     39681    3    0    3
 -2      3253      4371      3278      3548
 -1     39682    3    0    3
 -2      4770      6217      3853      4044
 -1     39683    3    0    3
 -2      6042      2665      2423      6230
 -1     39684    3    0    3
 -2      2665      2585      2423      6230
 -1     39685    3    0    3
 -2      1141      5992      1142      1350
 -1     39686    3    0    3
 -2      3313      1711      1800       355
 -1     39687    3    0    3
 -2      1141      5992      1350      6007
 -1     39688    3    0    3
 -2      6308      5334      5335      6311
 -1     39689    3    0    3
 -2      6236      6339      1177      1208
 -1     39690    3    0    3
 -2      5952      5341      1343      5894
 -1     39691    3    0    3
 -2      4399      3345      4974      6232
 -1     39692    3    0    3
 -2      4902      4974      5813      6232
 -1     39693    3    0    3
 -2      4974      4902      4399      6232
 -1     39694    3    0    3
 -2      3996      6271      6233      4818
 -1     39695    3    0    3
 -2      2673      6748      4589      2660
 -1     39696    3    0    3
 -2      4821      2640      2631      6271
 -1     39697    3    0    3
 -2      2112      2029      3876      6234
 -1     39698    3    0    3
 -2      4841      4839      4195      3736
 -1     39699    3    0    3
 -2      2545      5893      4774      5965
 -1     39700    3    0    3
 -2      2654      5912      2515      2499
 -1     39701    3    0    3
 -2      5712      1970      2707      6234
 -1     39702    3    0    3
 -2      2707      1970      2029      6234
 -1     39703    3    0    3
 -2      6218      5461      1254      6235
 -1     39704    3    0    3
 -2      3458      5461      5463      6235
 -1     39705    3    0    3
 -2      1165      1254      5461      6235
 -1     39706    3    0    3
 -2      1254      1165      1272      6235
 -1     39707    3    0    3
 -2      5461      5462      1165      6235
 -1     39708    3    0    3
 -2      1842      4028      4696      4693
 -1     39709    3    0    3
 -2      3766      3689      3165      4727
 -1     39710    3    0    3
 -2      5460      5458      4218      6236
 -1     39711    3    0    3
 -2      4218      5458      3818      6236
 -1     39712    3    0    3
 -2      3818      5462      4218      6236
 -1     39713    3    0    3
 -2      3818      5458      1019      6236
 -1     39714    3    0    3
 -2      5462      3818      1019      6236
 -1     39715    3    0    3
 -2      5460      3515       946      6236
 -1     39716    3    0    3
 -2      5460      4218      3515      6236
 -1     39717    3    0    3
 -2      6753      1454      5588      5734
 -1     39718    3    0    3
 -2       950      5466      5541      6239
 -1     39719    3    0    3
 -2      5466       950      5541      5787
 -1     39720    3    0    3
 -2      5336      3750      5307      6399
 -1     39721    3    0    3
 -2      5353      1116      6759      5835
 -1     39722    3    0    3
 -2      1578      1534      5336      6399
 -1     39723    3    0    3
 -2      1061      5955      1202      1152
 -1     39724    3    0    3
 -2      5363      6331      1195      5570
 -1     39725    3    0    3
 -2      5703      5701      1919      6238
 -1     39726    3    0    3
 -2      5701      1809      1919      6238
 -1     39727    3    0    3
 -2       953      6337       772       995
 -1     39728    3    0    3
 -2      1810      1919      1809      6238
 -1     39729    3    0    3
 -2      3860      5509      4252      6242
 -1     39730    3    0    3
 -2      5510      4252      5509      6242
 -1     39731    3    0    3
 -2      6396      6390       948       740
 -1     39732    3    0    3
 -2      1073      1139      1138      6239
 -1     39733    3    0    3
 -2      6753      1454      1463      1464
 -1     39734    3    0    3
 -2      6753      1454      5734      1463
 -1     39735    3    0    3
 -2      6753      1454      1464      5588
 -1     39736    3    0    3
 -2      6207      5466       865      6740
 -1     39737    3    0    3
 -2      6324      1136      1137      6740
 -1     39738    3    0    3
 -2       857      5510      5509      6242
 -1     39739    3    0    3
 -2      5468      4252      3556      6242
 -1     39740    3    0    3
 -2      3244      4634      6124      3975
 -1     39741    3    0    3
 -2      3860      4252      5468      6242
 -1     39742    3    0    3
 -2      6239      1073      1139      6240
 -1     39743    3    0    3
 -2      5464      3762      4159      6241
 -1     39744    3    0    3
 -2      5367      6341      2796      6333
 -1     39745    3    0    3
 -2      4769      6110      6252      5950
 -1     39746    3    0    3
 -2      6241      1126      5467      6292
 -1     39747    3    0    3
 -2      2275      6219      4766      6220
 -1     39748    3    0    3
 -2      4159      5464      6241      6292
 -1     39749    3    0    3
 -2      6241      5467      4159      6292
 -1     39750    3    0    3
 -2      5674      2378      4880      6245
 -1     39751    3    0    3
 -2       865      1136      6207      6740
 -1     39752    3    0    3
 -2      5674      2378      2134      2314
 -1     39753    3    0    3
 -2      5674      2378      6245      2134
 -1     39754    3    0    3
 -2      2272      1944      2222      6577
 -1     39755    3    0    3
 -2      1847      6677      1948      1920
 -1     39756    3    0    3
 -2      2367      2441      2250      6299
 -1     39757    3    0    3
 -2      6299      6243      2441      6752
 -1     39758    3    0    3
 -2      4898      3458      6299      6752
 -1     39759    3    0    3
 -2      6243      2441      2367      6299
 -1     39760    3    0    3
 -2      1014      3762      5501      6244
 -1     39761    3    0    3
 -2      4435      5501      3762      6244
 -1     39762    3    0    3
 -2      5609       502      4357      4245
 -1     39763    3    0    3
 -2      5501      4435      5498      6244
 -1     39764    3    0    3
 -2      1013      5498      4066      6244
 -1     39765    3    0    3
 -2      4066      5498      4435      6244
 -1     39766    3    0    3
 -2      5461      3490      5453      4491
 -1     39767    3    0    3
 -2      2378      2134      2193      6245
 -1     39768    3    0    3
 -2      3490      5461      5453      3550
 -1     39769    3    0    3
 -2      1906      4500      4876      4347
 -1     39770    3    0    3
 -2      6379      3675      4883      3612
 -1     39771    3    0    3
 -2      2691      2692      4871      6246
 -1     39772    3    0    3
 -2      2659      2567      4838      6712
 -1     39773    3    0    3
 -2      4873      2699      2691      6246
 -1     39774    3    0    3
 -2      2476      2691      2699      6246
 -1     39775    3    0    3
 -2      2489      2699      4873      6254
 -1     39776    3    0    3
 -2      2699      2481      6222      6254
 -1     39777    3    0    3
 -2      2699      2489      2481      6254
 -1     39778    3    0    3
 -2      4381      4928      2101      6432
 -1     39779    3    0    3
 -2      1326      6306      5331      6293
 -1     39780    3    0    3
 -2      1326      6306      1502      5331
 -1     39781    3    0    3
 -2      3550      4889      3490      6247
 -1     39782    3    0    3
 -2      4889      3712      3490      6247
 -1     39783    3    0    3
 -2      3712      4897      3490      6247
 -1     39784    3    0    3
 -2      3550      3490      4897      6247
 -1     39785    3    0    3
 -2      6024      1326      5331      6293
 -1     39786    3    0    3
 -2      3331      4948      3393      3390
 -1     39787    3    0    3
 -2      4798      5948      4803      5884
 -1     39788    3    0    3
 -2      5864      5334      3633      6306
 -1     39789    3    0    3
 -2      3636      3729      5444      3675
 -1     39790    3    0    3
 -2      6024      1326      6293      1088
 -1     39791    3    0    3
 -2      6354      3661      5337      5339
 -1     39792    3    0    3
 -2      4025      3575      5625      4269
 -1     39793    3    0    3
 -2      3518      6249      4886      3577
 -1     39794    3    0    3
 -2      3866      2732      2779      4846
 -1     39795    3    0    3
 -2      1161      6781      5548      1156
 -1     39796    3    0    3
 -2      4025      3575      3997      5625
 -1     39797    3    0    3
 -2      1161      6781      1156      1296
 -1     39798    3    0    3
 -2      1161      6781      5766      5548
 -1     39799    3    0    3
 -2      1161      6781      1296      5766
 -1     39800    3    0    3
 -2      4902      2247      2073      6250
 -1     39801    3    0    3
 -2      2073      2247      2160      6250
 -1     39802    3    0    3
 -2      3584      5825      4951      5879
 -1     39803    3    0    3
 -2      3584      5825      4952      3555
 -1     39804    3    0    3
 -2      2073      2160      4974      6250
 -1     39805    3    0    3
 -2      5708      5706      4772      6258
 -1     39806    3    0    3
 -2      6568      6574      4901      5816
 -1     39807    3    0    3
 -2      5157      3055      6210      3054
 -1     39808    3    0    3
 -2      6251      5706      2453      6258
 -1     39809    3    0    3
 -2      2191      2276      6110      6252
 -1     39810    3    0    3
 -2      6110      5950      2191      6252
 -1     39811    3    0    3
 -2      3037      6655      3036      4594
 -1     39812    3    0    3
 -2      4769      4766      3915      6252
 -1     39813    3    0    3
 -2      3037      6655      6652      3038
 -1     39814    3    0    3
 -2      5924      2121      2053      2349
 -1     39815    3    0    3
 -2      6658      6005      4136      5369
 -1     39816    3    0    3
 -2      2371      5708      5953      6253
 -1     39817    3    0    3
 -2      5953      2288      2371      6253
 -1     39818    3    0    3
 -2      5953      4778      2288      6253
 -1     39819    3    0    3
 -2      4270      3964      6138      1952
 -1     39820    3    0    3
 -2      5944      5924      4015      2053
 -1     39821    3    0    3
 -2      2209      5989      4809      6212
 -1     39822    3    0    3
 -2      2096      2116      4280      1843
 -1     39823    3    0    3
 -2       465       466      3292      6272
 -1     39824    3    0    3
 -2      5346      3513      5345      6274
 -1     39825    3    0    3
 -2      4781      3301      3304      6265
 -1     39826    3    0    3
 -2      3675      3729      6287      5438
 -1     39827    3    0    3
 -2      4782      5661      3545      6255
 -1     39828    3    0    3
 -2      3545      5345      3513      6255
 -1     39829    3    0    3
 -2      3545      3513      4782      6255
 -1     39830    3    0    3
 -2       625       745        57       515
 -1     39831    3    0    3
 -2      5446      5449      3636      6256
 -1     39832    3    0    3
 -2      5459      3388      4896      3389
 -1     39833    3    0    3
 -2      5459      3388      3411      3414
 -1     39834    3    0    3
 -2      3904       674      5131      3100
 -1     39835    3    0    3
 -2      6256      5444      5446      6297
 -1     39836    3    0    3
 -2      5698      4840      4847      6259
 -1     39837    3    0    3
 -2      5811      2119      2001      3851
 -1     39838    3    0    3
 -2      4293      5917      5030      4341
 -1     39839    3    0    3
 -2      4293      5917      5024      5749
 -1     39840    3    0    3
 -2      5944      5924      2053      6737
 -1     39841    3    0    3
 -2      5944      5924      6737      6260
 -1     39842    3    0    3
 -2      5944      5924      6260      4015
 -1     39843    3    0    3
 -2      2309      2163      5925      6258
 -1     39844    3    0    3
 -2      2163      2309      2522      6258
 -1     39845    3    0    3
 -2      6253      5925      2163      6258
 -1     39846    3    0    3
 -2      6253      2163      2522      6258
 -1     39847    3    0    3
 -2      5685      4847      3868      6259
 -1     39848    3    0    3
 -2      6185      4850      5699      6259
 -1     39849    3    0    3
 -2      6185      5685      4850      6259
 -1     39850    3    0    3
 -2      5685      3868      4850      6259
 -1     39851    3    0    3
 -2      5924      4015      4770      6260
 -1     39852    3    0    3
 -2      5273      3296      4476      5275
 -1     39853    3    0    3
 -2      6260      6262      5944      4015
 -1     39854    3    0    3
 -2      5273      3296      3308      3299
 -1     39855    3    0    3
 -2      5892      2068      5925      6737
 -1     39856    3    0    3
 -2      4781      5944      5661      6260
 -1     39857    3    0    3
 -2      4860      2343      4861      6704
 -1     39858    3    0    3
 -2      4816      3911      4822      6700
 -1     39859    3    0    3
 -2      1109      5774      6476      5542
 -1     39860    3    0    3
 -2      1109      5774      1213      6476
 -1     39861    3    0    3
 -2      1109      5774      5542      6473
 -1     39862    3    0    3
 -2      1932      3621      4637      4030
 -1     39863    3    0    3
 -2      3297      4781      3293      6262
 -1     39864    3    0    3
 -2      5962      3068      5368      6270
 -1     39865    3    0    3
 -2      3068      5962      5368      5995
 -1     39866    3    0    3
 -2      4708      1722       468      6263
 -1     39867    3    0    3
 -2       354      3306       468      6263
 -1     39868    3    0    3
 -2       354       468      1722      6263
 -1     39869    3    0    3
 -2      4207      4476      5272      4173
 -1     39870    3    0    3
 -2      4207      4476       471      4106
 -1     39871    3    0    3
 -2      3844      5399      5435      6264
 -1     39872    3    0    3
 -2      5399      1629      5435      6264
 -1     39873    3    0    3
 -2      5399      5387      1629      6264
 -1     39874    3    0    3
 -2      5399      3844      5387      6264
 -1     39875    3    0    3
 -2      4781      3578      6260      6265
 -1     39876    3    0    3
 -2      6260      3578      6192      6265
 -1     39877    3    0    3
 -2      6380       487      6742       759
 -1     39878    3    0    3
 -2      2824       465      2841      6273
 -1     39879    3    0    3
 -2      5346      4783      3513      6274
 -1     39880    3    0    3
 -2      5344       657      6276      6314
 -1     39881    3    0    3
 -2      2378      6770      2600      4880
 -1     39882    3    0    3
 -2      6245      4883      3636      6266
 -1     39883    3    0    3
 -2      4286      4440      3768      4924
 -1     39884    3    0    3
 -2      3636      4882      6245      6266
 -1     39885    3    0    3
 -2      4885      4882      3636      6266
 -1     39886    3    0    3
 -2      4923      4440      1996      6438
 -1     39887    3    0    3
 -2      4885      1996      4440      6438
 -1     39888    3    0    3
 -2      4923      3817      4440      6438
 -1     39889    3    0    3
 -2      5875      3071      3046      6267
 -1     39890    3    0    3
 -2      3072      3046      3071      6267
 -1     39891    3    0    3
 -2      6055      3046      5971      6267
 -1     39892    3    0    3
 -2      5971      3046      3072      6267
 -1     39893    3    0    3
 -2      6055      5971      4807      6267
 -1     39894    3    0    3
 -2      3072      4807      5971      6267
 -1     39895    3    0    3
 -2      6280      3699      6281      5443
 -1     39896    3    0    3
 -2      4381      2101      4886      6432
 -1     39897    3    0    3
 -2      6249      6208      4884      6268
 -1     39898    3    0    3
 -2      3118      6112      6638      6527
 -1     39899    3    0    3
 -2      3118      6112       481      6638
 -1     39900    3    0    3
 -2      2317      4884      6208      6268
 -1     39901    3    0    3
 -2      1275      1524      1530      6269
 -1     39902    3    0    3
 -2      6107      5441      1530      6269
 -1     39903    3    0    3
 -2      5441      1275      1530      6269
 -1     39904    3    0    3
 -2      6107      1530      1430      6269
 -1     39905    3    0    3
 -2      1530      1524      1430      6269
 -1     39906    3    0    3
 -2      3051      3068      5962      6270
 -1     39907    3    0    3
 -2      3068      3051      3053      6270
 -1     39908    3    0    3
 -2      6311      1214      6304      1344
 -1     39909    3    0    3
 -2      2471      2495      6012      6687
 -1     39910    3    0    3
 -2      2495      2471      6012      2470
 -1     39911    3    0    3
 -2      5368      3068      3053      6270
 -1     39912    3    0    3
 -2      3996      6271      4821      4823
 -1     39913    3    0    3
 -2      4818      2505      2565      6271
 -1     39914    3    0    3
 -2      4821      2631      4823      6271
 -1     39915    3    0    3
 -2      2636      3877      4824      4860
 -1     39916    3    0    3
 -2      6311      1214      1344      1343
 -1     39917    3    0    3
 -2      2631      2565      2505      6271
 -1     39918    3    0    3
 -2      6283       798      5489       932
 -1     39919    3    0    3
 -2      6255      5661      3545      6272
 -1     39920    3    0    3
 -2      3793      4029       634      4061
 -1     39921    3    0    3
 -2      5344       657      3290       656
 -1     39922    3    0    3
 -2      6037      5328      5299      4411
 -1     39923    3    0    3
 -2       905      4509      5329      6303
 -1     39924    3    0    3
 -2      5941       464      6272      6273
 -1     39925    3    0    3
 -2      6272       464       465      6273
 -1     39926    3    0    3
 -2      6082      1501      5443      5670
 -1     39927    3    0    3
 -2      1501      6082      5443      5848
 -1     39928    3    0    3
 -2      6228      2824      2842      6274
 -1     39929    3    0    3
 -2      2805      5346      2842      6274
 -1     39930    3    0    3
 -2      2805      2842      2824      6274
 -1     39931    3    0    3
 -2      2841      2824      6273      6274
 -1     39932    3    0    3
 -2      2824      2841      2805      6274
 -1     39933    3    0    3
 -2       340      5791      1795      3998
 -1     39934    3    0    3
 -2      5943      2875      2841      6274
 -1     39935    3    0    3
 -2      2841      2875      2805      6274
 -1     39936    3    0    3
 -2      4277      2092      4900      6275
 -1     39937    3    0    3
 -2      4936      4277      3585      6275
 -1     39938    3    0    3
 -2      4277      4936      2092      6275
 -1     39939    3    0    3
 -2      4939      4936      3585      6275
 -1     39940    3    0    3
 -2      1240      5824      1237      1366
 -1     39941    3    0    3
 -2      5825      5879      2295      1994
 -1     39942    3    0    3
 -2      3585      4227      4939      6275
 -1     39943    3    0    3
 -2      2077      4939      4227      6275
 -1     39944    3    0    3
 -2      6310      1045      6276      6738
 -1     39945    3    0    3
 -2      5344      4322      6192      6276
 -1     39946    3    0    3
 -2       656      3289      5344      6286
 -1     39947    3    0    3
 -2      6278      6192      3545      6310
 -1     39948    3    0    3
 -2      1062      6738      1383      4154
 -1     39949    3    0    3
 -2      1344      1348      1347      6304
 -1     39950    3    0    3
 -2      6192      5333      3545      6310
 -1     39951    3    0    3
 -2       208      5262       643      2895
 -1     39952    3    0    3
 -2      1460      5670      6287      6280
 -1     39953    3    0    3
 -2      2593      6194      2322      2560
 -1     39954    3    0    3
 -2       657       686       864      6277
 -1     39955    3    0    3
 -2      5952      5345      5335      6310
 -1     39956    3    0    3
 -2      1493      1348      1344      6304
 -1     39957    3    0    3
 -2      3967       947      5493      6300
 -1     39958    3    0    3
 -2      6228      1047      6277      5345
 -1     39959    3    0    3
 -2      3834       905      4509      5329
 -1     39960    3    0    3
 -2       686       177       467      6314
 -1     39961    3    0    3
 -2      6277       657       686      6314
 -1     39962    3    0    3
 -2      4804      4803      6755      5934
 -1     39963    3    0    3
 -2      4804      4803      5937      6755
 -1     39964    3    0    3
 -2       686       467      6228      6314
 -1     39965    3    0    3
 -2      6277      5345      5952      6310
 -1     39966    3    0    3
 -2      6278      5345      6277      6310
 -1     39967    3    0    3
 -2      3455      5445      4165      6282
 -1     39968    3    0    3
 -2      5445      5446      3699      6281
 -1     39969    3    0    3
 -2       957      4165      5445      6282
 -1     39970    3    0    3
 -2      5822      1880      2006      1726
 -1     39971    3    0    3
 -2      5738      2087      6688      1930
 -1     39972    3    0    3
 -2      2551      5010      5012      5660
 -1     39973    3    0    3
 -2      1428      5447      6287      6107
 -1     39974    3    0    3
 -2      5444      1460      1428      6287
 -1     39975    3    0    3
 -2      1237      5445      5414      5824
 -1     39976    3    0    3
 -2      5436      1251      5426      6109
 -1     39977    3    0    3
 -2       872      5446      3864      6282
 -1     39978    3    0    3
 -2      5157      3055      3058      6536
 -1     39979    3    0    3
 -2      3455      3864      5446      6282
 -1     39980    3    0    3
 -2      6701      2185      1935      2255
 -1     39981    3    0    3
 -2       957      5445      1233      6282
 -1     39982    3    0    3
 -2      5157      3055      6536      6210
 -1     39983    3    0    3
 -2      6586       310       309      3229
 -1     39984    3    0    3
 -2      5157      3055      3054      3058
 -1     39985    3    0    3
 -2       689      3927       866      6289
 -1     39986    3    0    3
 -2      1428      5447      1430      1376
 -1     39987    3    0    3
 -2      5447      1428      1430      6107
 -1     39988    3    0    3
 -2      4256      5449      5446      6283
 -1     39989    3    0    3
 -2      6256      5446      5449      6283
 -1     39990    3    0    3
 -2      3904       674      6559      6524
 -1     39991    3    0    3
 -2      1377      1352      5444      6297
 -1     39992    3    0    3
 -2      6281      5444      1352      6297
 -1     39993    3    0    3
 -2      1234       871      5446      6283
 -1     39994    3    0    3
 -2      1228       871      1234      6283
 -1     39995    3    0    3
 -2      1038      4234      5271      6284
 -1     39996    3    0    3
 -2      4234      3532      5271      6284
 -1     39997    3    0    3
 -2      1031      5271      5274      6284
 -1     39998    3    0    3
 -2      5274      5271      3532      6284
 -1     39999    3    0    3
 -2      4154      1031      5274      6284
 -1     40000    3    0    3
 -2      3310       658      3302       174
 -1     40001    3    0    3
 -2      2626      2627      2710      6285
 -1     40002    3    0    3
 -2      4822      2513      2626      6285
 -1     40003    3    0    3
 -2      2627      2626      2513      6285
 -1     40004    3    0    3
 -2      6261      2626      2711      6285
 -1     40005    3    0    3
 -2      2710      2711      2626      6285
 -1     40006    3    0    3
 -2      3309      3289      3302      6286
 -1     40007    3    0    3
 -2      5344      3309      4322      6286
 -1     40008    3    0    3
 -2      3289      3309      5344      6286
 -1     40009    3    0    3
 -2      6283       798       871      5486
 -1     40010    3    0    3
 -2       161      5531      3395      5538
 -1     40011    3    0    3
 -2      6280      5444      3729      6287
 -1     40012    3    0    3
 -2      5481       957       870       796
 -1     40013    3    0    3
 -2      6107      5438      3675      6287
 -1     40014    3    0    3
 -2      1251      5436      5426      6102
 -1     40015    3    0    3
 -2      3558       947      5449       932
 -1     40016    3    0    3
 -2       689      3927      6289      3350
 -1     40017    3    0    3
 -2       161      5531       160      3395
 -1     40018    3    0    3
 -2      5670      5438      1607      6287
 -1     40019    3    0    3
 -2      4681      6135      4684      4200
 -1     40020    3    0    3
 -2      3994      5457      1018      6288
 -1     40021    3    0    3
 -2      3994      4491      5457      6288
 -1     40022    3    0    3
 -2      1018      5453      3994      6288
 -1     40023    3    0    3
 -2      3994      5453      4491      6288
 -1     40024    3    0    3
 -2      5448      6290      5450      6291
 -1     40025    3    0    3
 -2       688       689       866      6289
 -1     40026    3    0    3
 -2      1142      5374      6005      6729
 -1     40027    3    0    3
 -2      1603      6557      6771      1408
 -1     40028    3    0    3
 -2      1062      6738      4124      1045
 -1     40029    3    0    3
 -2        64      5481       613       795
 -1     40030    3    0    3
 -2      6256      1227      5449      6290
 -1     40031    3    0    3
 -2       208      5262      2928       644
 -1     40032    3    0    3
 -2      1062      6738      1045      1383
 -1     40033    3    0    3
 -2       208      5262      2895      2928
 -1     40034    3    0    3
 -2      1163      1255      6218      6291
 -1     40035    3    0    3
 -2      4307       940      5440      3755
 -1     40036    3    0    3
 -2      4977      5794      3693      4980
 -1     40037    3    0    3
 -2      6091      1076      1166      6294
 -1     40038    3    0    3
 -2       686      6228      1047      6277
 -1     40039    3    0    3
 -2      4307       940      5452       685
 -1     40040    3    0    3
 -2      6228       686      1047       792
 -1     40041    3    0    3
 -2      6354      3661      5339      6307
 -1     40042    3    0    3
 -2      1166      5453      6091      6294
 -1     40043    3    0    3
 -2      4449      5464      4159      6292
 -1     40044    3    0    3
 -2      4478      5464      4449      6292
 -1     40045    3    0    3
 -2      4449      5467      4478      6292
 -1     40046    3    0    3
 -2      4449      4159      5467      6292
 -1     40047    3    0    3
 -2      1360      6293      1326      1089
 -1     40048    3    0    3
 -2      1360      6293      1089      6248
 -1     40049    3    0    3
 -2      6354      3661      6307      5336
 -1     40050    3    0    3
 -2      3869      5299      4736      3832
 -1     40051    3    0    3
 -2      1089      1088      5946      6293
 -1     40052    3    0    3
 -2      1088      1089      1326      6293
 -1     40053    3    0    3
 -2      3866      2732      3651      2726
 -1     40054    3    0    3
 -2      1089      5946      6248      6293
 -1     40055    3    0    3
 -2      5453      4155      3755      6294
 -1     40056    3    0    3
 -2      1026      1166      1076      6294
 -1     40057    3    0    3
 -2      1166      1026      5453      6294
 -1     40058    3    0    3
 -2      1114      5299      6425      6411
 -1     40059    3    0    3
 -2      5299      1114      6425      6295
 -1     40060    3    0    3
 -2       466      6314       467      3311
 -1     40061    3    0    3
 -2       466      6314      3311      6272
 -1     40062    3    0    3
 -2      5298      5300      3831      6425
 -1     40063    3    0    3
 -2      5298      5299      6411      6425
 -1     40064    3    0    3
 -2      4066      1013      5497      5498
 -1     40065    3    0    3
 -2      5299      3640      5298      6411
 -1     40066    3    0    3
 -2      4324      3640      5255      6411
 -1     40067    3    0    3
 -2      2331      5964      5970      2330
 -1     40068    3    0    3
 -2      2033      4875      2259      6703
 -1     40069    3    0    3
 -2      2033      2259      1962      6703
 -1     40070    3    0    3
 -2      6296      2259      4875      6703
 -1     40071    3    0    3
 -2      3799      6708      4412      4889
 -1     40072    3    0    3
 -2      4864      4426      3512      6713
 -1     40073    3    0    3
 -2      5446      1234      6283      6297
 -1     40074    3    0    3
 -2      1234      1228      6283      6297
 -1     40075    3    0    3
 -2      6283      1228      6256      6297
 -1     40076    3    0    3
 -2      1377      1234      1352      6297
 -1     40077    3    0    3
 -2      6568      6574      2231      6225
 -1     40078    3    0    3
 -2      6568      6574      6225      4901
 -1     40079    3    0    3
 -2      6293      5334      1360      6306
 -1     40080    3    0    3
 -2      3296      5275      3310      6298
 -1     40081    3    0    3
 -2       734      3310      5275      6298
 -1     40082    3    0    3
 -2      3310       734       173      6298
 -1     40083    3    0    3
 -2      3296      3310       173      6298
 -1     40084    3    0    3
 -2      4851      3779      5414      3806
 -1     40085    3    0    3
 -2      1037      6762      1008       836
 -1     40086    3    0    3
 -2      3458      4900      6243      6752
 -1     40087    3    0    3
 -2      6299      2250      4898      6752
 -1     40088    3    0    3
 -2      3458      6243      6299      6752
 -1     40089    3    0    3
 -2      6243      4897      3458      6299
 -1     40090    3    0    3
 -2      3458      4897      4898      6299
 -1     40091    3    0    3
 -2      4876      3677      5440      3645
 -1     40092    3    0    3
 -2      3677      4876      5440      3641
 -1     40093    3    0    3
 -2      3385      6161      1730      6229
 -1     40094    3    0    3
 -2      5346      6228      5345      6227
 -1     40095    3    0    3
 -2      6380       487       759      3234
 -1     40096    3    0    3
 -2      3473      4013      5244      4385
 -1     40097    3    0    3
 -2      1153      1291      1205      6301
 -1     40098    3    0    3
 -2      3473      4013      2995      3500
 -1     40099    3    0    3
 -2      6036      1623      5351      6365
 -1     40100    3    0    3
 -2      3999      4127      4908      4498
 -1     40101    3    0    3
 -2      6776      5847      1242      1231
 -1     40102    3    0    3
 -2      6568      4901      4424      4902
 -1     40103    3    0    3
 -2      5266      4509       905      6303
 -1     40104    3    0    3
 -2      4509      5266       905      5267
 -1     40105    3    0    3
 -2      4142      4509      5266      6303
 -1     40106    3    0    3
 -2      1061      5266       905      6303
 -1     40107    3    0    3
 -2      1061      5263      5266      6303
 -1     40108    3    0    3
 -2      5266      5263      4142      6303
 -1     40109    3    0    3
 -2      1061      3740      5263      6303
 -1     40110    3    0    3
 -2      5263      3740      4142      6303
 -1     40111    3    0    3
 -2      3740      1061      5328      6303
 -1     40112    3    0    3
 -2      3740      5328      4142      6303
 -1     40113    3    0    3
 -2      1383      6738      6284      4154
 -1     40114    3    0    3
 -2      5263       209      2928       644
 -1     40115    3    0    3
 -2      6309      1659      1639      6071
 -1     40116    3    0    3
 -2      1563      6389      5306      5307
 -1     40117    3    0    3
 -2      5952      1214      1347      6304
 -1     40118    3    0    3
 -2      1062      6738      4154      4124
 -1     40119    3    0    3
 -2      1344      1347      1214      6304
 -1     40120    3    0    3
 -2      6309      1659      6071      5858
 -1     40121    3    0    3
 -2      1383      6738      1045      6305
 -1     40122    3    0    3
 -2      5335      5345      3545      6310
 -1     40123    3    0    3
 -2      6310      5333      6305      6738
 -1     40124    3    0    3
 -2      1563      6389      5307      1576
 -1     40125    3    0    3
 -2      1460      5670      1459      1607
 -1     40126    3    0    3
 -2      1383      6738      6305      6284
 -1     40127    3    0    3
 -2      1460      5670      1607      6287
 -1     40128    3    0    3
 -2      6278      3545      5345      6310
 -1     40129    3    0    3
 -2      1460      5670      6280      1459
 -1     40130    3    0    3
 -2      6304      5952      5335      6310
 -1     40131    3    0    3
 -2       889      1045      6276      6310
 -1     40132    3    0    3
 -2      6277       889      6276      6310
 -1     40133    3    0    3
 -2      5331      3633      5334      6306
 -1     40134    3    0    3
 -2      2288      5945      2056      2163
 -1     40135    3    0    3
 -2      1970      6664      1919      5703
 -1     40136    3    0    3
 -2      1579      6354      6307      1650
 -1     40137    3    0    3
 -2      1579      6354      1650      1533
 -1     40138    3    0    3
 -2      4798      5948      6727      4467
 -1     40139    3    0    3
 -2      1533      1650      1532      6354
 -1     40140    3    0    3
 -2      5309      6389      1540      1576
 -1     40141    3    0    3
 -2      5467      5506      3860      6324
 -1     40142    3    0    3
 -2      5862      2492      2490      6801
 -1     40143    3    0    3
 -2      6389      5309      1540      6190
 -1     40144    3    0    3
 -2      1219      6336      5363      6335
 -1     40145    3    0    3
 -2      1219      6336      6335       953
 -1     40146    3    0    3
 -2      5955      5329      1202      6024
 -1     40147    3    0    3
 -2      2804      5346       761       791
 -1     40148    3    0    3
 -2      6305      6284      5333      6308
 -1     40149    3    0    3
 -2      6284      5332      5333      6308
 -1     40150    3    0    3
 -2      2230      4975      2202      5790
 -1     40151    3    0    3
 -2      5377      5174      1589      6159
 -1     40152    3    0    3
 -2      5174      5377      1589      6312
 -1     40153    3    0    3
 -2      2521      4990      4991      5860
 -1     40154    3    0    3
 -2      2365      4617      2312      6165
 -1     40155    3    0    3
 -2      6277      1347       889      6310
 -1     40156    3    0    3
 -2      1045       889      1347      6310
 -1     40157    3    0    3
 -2      1347      5952      6304      6310
 -1     40158    3    0    3
 -2      5952      1347      6277      6310
 -1     40159    3    0    3
 -2      6318      5960      6354      5337
 -1     40160    3    0    3
 -2      3675      6222      4880      3729
 -1     40161    3    0    3
 -2      6308      6304      1493      6311
 -1     40162    3    0    3
 -2      1344      1493      6304      6311
 -1     40163    3    0    3
 -2      4804      4803      4441      5937
 -1     40164    3    0    3
 -2      4769      6110      4766      6252
 -1     40165    3    0    3
 -2      2365      4617      6165      6594
 -1     40166    3    0    3
 -2      5174      4032      5377      6312
 -1     40167    3    0    3
 -2      1422      1426      1425      6488
 -1     40168    3    0    3
 -2      5173      5174      4064      6488
 -1     40169    3    0    3
 -2      1710      6774      2095      1709
 -1     40170    3    0    3
 -2      5223      5221      1223      6313
 -1     40171    3    0    3
 -2      5224       966       937      6468
 -1     40172    3    0    3
 -2      1223      5221      1224      6313
 -1     40173    3    0    3
 -2      5564       974      3946      6329
 -1     40174    3    0    3
 -2      3584      6741      5691      5515
 -1     40175    3    0    3
 -2      1970      4222      3876      6234
 -1     40176    3    0    3
 -2      3584      6741      5514      6009
 -1     40177    3    0    3
 -2      1390      1370      1130      6315
 -1     40178    3    0    3
 -2      3446      5354      5983      6315
 -1     40179    3    0    3
 -2      5355      5354      3446      6315
 -1     40180    3    0    3
 -2      5983      5354      1370      6315
 -1     40181    3    0    3
 -2      5354      5355      1370      6315
 -1     40182    3    0    3
 -2      6364      1433      1307      1306
 -1     40183    3    0    3
 -2      2858      2804      2803      6316
 -1     40184    3    0    3
 -2      2805      5346      5956      6316
 -1     40185    3    0    3
 -2      5956      2803      2805      6316
 -1     40186    3    0    3
 -2      2804      5346      2805      6316
 -1     40187    3    0    3
 -2      2803      2804      2805      6316
 -1     40188    3    0    3
 -2      3584      5826      4949      3616
 -1     40189    3    0    3
 -2      5363      5361      4490      6317
 -1     40190    3    0    3
 -2      5863      2151      2105      3798
 -1     40191    3    0    3
 -2      5863      2151      2150      2105
 -1     40192    3    0    3
 -2      5467      5506      3452      3860
 -1     40193    3    0    3
 -2      5774      1155      1213      6393
 -1     40194    3    0    3
 -2      6318      6043      5337      6354
 -1     40195    3    0    3
 -2      1219      6336      1221      5363
 -1     40196    3    0    3
 -2      4797      2445      2506      2435
 -1     40197    3    0    3
 -2      1787      6046      1942      2067
 -1     40198    3    0    3
 -2       919       920      1115      6759
 -1     40199    3    0    3
 -2      6319       920       919      6759
 -1     40200    3    0    3
 -2      1195      5363      1221      6336
 -1     40201    3    0    3
 -2      2386      4879      6709      5680
 -1     40202    3    0    3
 -2      5864      1403      1404      6231
 -1     40203    3    0    3
 -2      5565      3499      5358      6320
 -1     40204    3    0    3
 -2      5359      5357      3531      6376
 -1     40205    3    0    3
 -2      3499      5359      5358      6320
 -1     40206    3    0    3
 -2      5387      5423      3877      5385
 -1     40207    3    0    3
 -2      4755      2074      2188      3992
 -1     40208    3    0    3
 -2      4800      4799      2406      5993
 -1     40209    3    0    3
 -2      5367      5581      6337      4406
 -1     40210    3    0    3
 -2      5683      5566      1549      6349
 -1     40211    3    0    3
 -2      6322      5351      1623      6369
 -1     40212    3    0    3
 -2      3042      1858      1755      6649
 -1     40213    3    0    3
 -2      1446      5362      6321      6375
 -1     40214    3    0    3
 -2      5977      5974      5368      6728
 -1     40215    3    0    3
 -2      6317      1606      6328      5362
 -1     40216    3    0    3
 -2      5354      5351      3504      6369
 -1     40217    3    0    3
 -2      6350      6319      5347      3449
 -1     40218    3    0    3
 -2      1744      6221      1958      1791
 -1     40219    3    0    3
 -2      4988      4994      5764      4502
 -1     40220    3    0    3
 -2       647       739      5895      6323
 -1     40221    3    0    3
 -2      5895      5871       647      6323
 -1     40222    3    0    3
 -2      4994      4988      5764      5751
 -1     40223    3    0    3
 -2      5815      5871      5895      6323
 -1     40224    3    0    3
 -2      4884      4883      2468      6208
 -1     40225    3    0    3
 -2      6324      5468      5467      6740
 -1     40226    3    0    3
 -2      1137      6242      6324      6740
 -1     40227    3    0    3
 -2      5468      3860      6242      6324
 -1     40228    3    0    3
 -2      5468      5467      3860      6324
 -1     40229    3    0    3
 -2      5581       754      2835      6338
 -1     40230    3    0    3
 -2      5355      1022      1130      6327
 -1     40231    3    0    3
 -2      1022      5355      1130      1103
 -1     40232    3    0    3
 -2      6207      1136       866      6325
 -1     40233    3    0    3
 -2      1177      5465       866      6325
 -1     40234    3    0    3
 -2      1136      1177       866      6325
 -1     40235    3    0    3
 -2      6324      1135      1136      6325
 -1     40236    3    0    3
 -2      1135      1177      1136      6325
 -1     40237    3    0    3
 -2      6341      5367      2796       837
 -1     40238    3    0    3
 -2      6292      1177      1126      6325
 -1     40239    3    0    3
 -2      1126      1177      1135      6325
 -1     40240    3    0    3
 -2      4274      4446      3583      4996
 -1     40241    3    0    3
 -2       938       969      4516      6326
 -1     40242    3    0    3
 -2       969       938      1199      6326
 -1     40243    3    0    3
 -2      4516       969      5563      6326
 -1     40244    3    0    3
 -2      6023      2557      2610      6370
 -1     40245    3    0    3
 -2      1130      5355      5361      6315
 -1     40246    3    0    3
 -2      5355      1130      5361      6327
 -1     40247    3    0    3
 -2      6023      2557      6370      4794
 -1     40248    3    0    3
 -2      6663      1439      5357      1440
 -1     40249    3    0    3
 -2      4081      3891      3859      4742
 -1     40250    3    0    3
 -2      6321      1448      1446      6375
 -1     40251    3    0    3
 -2      5509      6324      3860      5506
 -1     40252    3    0    3
 -2      1619      1446      1448      6375
 -1     40253    3    0    3
 -2      6317      5360      5361      4490
 -1     40254    3    0    3
 -2      1093      5726      6475      5189
 -1     40255    3    0    3
 -2      3584      5826      4950      5879
 -1     40256    3    0    3
 -2      3584      5826      5879      4949
 -1     40257    3    0    3
 -2      6160      5419      4452      3919
 -1     40258    3    0    3
 -2      1093      5726      1264      1094
 -1     40259    3    0    3
 -2      5728      1684      1688      1680
 -1     40260    3    0    3
 -2      1149      1203       974      6329
 -1     40261    3    0    3
 -2       974      5564      1149      6329
 -1     40262    3    0    3
 -2      5742      1203      1149      6329
 -1     40263    3    0    3
 -2      5564      5742      1149      6329
 -1     40264    3    0    3
 -2      6730      2253      2372      2070
 -1     40265    3    0    3
 -2      5584      2813      5857      6683
 -1     40266    3    0    3
 -2      5817      3576      4982      4984
 -1     40267    3    0    3
 -2      2840      5715      5823      6330
 -1     40268    3    0    3
 -2      5031      2380      5030      5749
 -1     40269    3    0    3
 -2      4004      6688      5082      4429
 -1     40270    3    0    3
 -2      5736      4289      5032      4316
 -1     40271    3    0    3
 -2      6454      5193      1346      6087
 -1     40272    3    0    3
 -2      5736      4289      4316      5029
 -1     40273    3    0    3
 -2      5193      6454      1346      6780
 -1     40274    3    0    3
 -2      5736      4289      4484      5032
 -1     40275    3    0    3
 -2       772       270       754      6338
 -1     40276    3    0    3
 -2      5584      6671       783      6683
 -1     40277    3    0    3
 -2      1417      1256      5342      1559
 -1     40278    3    0    3
 -2      6342      5497      6302      1017
 -1     40279    3    0    3
 -2      6342      5497      1017      5494
 -1     40280    3    0    3
 -2      6331      1195       995      6336
 -1     40281    3    0    3
 -2      1221       953       995      6336
 -1     40282    3    0    3
 -2      5569      5570      4465      6332
 -1     40283    3    0    3
 -2      1195      5846      5570      6332
 -1     40284    3    0    3
 -2      1374      1195      5570      6332
 -1     40285    3    0    3
 -2       701      5278       972       971
 -1     40286    3    0    3
 -2      5323      3924      3279      3226
 -1     40287    3    0    3
 -2      1195      1373      5846      6332
 -1     40288    3    0    3
 -2      1374      1373      1195      6332
 -1     40289    3    0    3
 -2      5367      4804      4441      6333
 -1     40290    3    0    3
 -2      5990      4202      5372      4168
 -1     40291    3    0    3
 -2      5932      4804      5367      6333
 -1     40292    3    0    3
 -2      5367      2817      5932      6333
 -1     40293    3    0    3
 -2      5990      4202      4168      5368
 -1     40294    3    0    3
 -2      5932      2817      2802      6333
 -1     40295    3    0    3
 -2      5985      1895      4801      2806
 -1     40296    3    0    3
 -2      2817      2798      2802      6333
 -1     40297    3    0    3
 -2      1464      5588      5591      6753
 -1     40298    3    0    3
 -2      5775      1003      5730      6692
 -1     40299    3    0    3
 -2      5775      5730      5776      6692
 -1     40300    3    0    3
 -2      1003       808       927      6692
 -1     40301    3    0    3
 -2      6334      1691       808      6692
 -1     40302    3    0    3
 -2      6327      1206      5361      6335
 -1     40303    3    0    3
 -2      2940      4670      3893      4505
 -1     40304    3    0    3
 -2      2940      4670      4505      3650
 -1     40305    3    0    3
 -2      6345      2806      2846      2845
 -1     40306    3    0    3
 -2      5363      4406      5367      6336
 -1     40307    3    0    3
 -2       772       754      6337      6338
 -1     40308    3    0    3
 -2      5569      1374      5570      6332
 -1     40309    3    0    3
 -2      3042      1858       408      1755
 -1     40310    3    0    3
 -2      3702      3271      6416      6472
 -1     40311    3    0    3
 -2      6342      5497      3662      6302
 -1     40312    3    0    3
 -2      5367       953      6335      6336
 -1     40313    3    0    3
 -2      6345      2806      4801      5959
 -1     40314    3    0    3
 -2      5581      2835      2843      6338
 -1     40315    3    0    3
 -2      2865       270       772      6338
 -1     40316    3    0    3
 -2      5367      2865       772      6338
 -1     40317    3    0    3
 -2      6331       995       994      6337
 -1     40318    3    0    3
 -2      5278       701       972      6416
 -1     40319    3    0    3
 -2      1374      5569      5570      5689
 -1     40320    3    0    3
 -2       270      2865      2835      6338
 -1     40321    3    0    3
 -2       270      2835       754      6338
 -1     40322    3    0    3
 -2      6337       754      5581      6338
 -1     40323    3    0    3
 -2      1037      5572      1097      1244
 -1     40324    3    0    3
 -2      5572      1037      1097      5829
 -1     40325    3    0    3
 -2      6763      1506      1641      1473
 -1     40326    3    0    3
 -2      1126      6292      5464      6339
 -1     40327    3    0    3
 -2      6292      1126      5464      6241
 -1     40328    3    0    3
 -2      5462      5464      6292      6339
 -1     40329    3    0    3
 -2      6235      5464      5462      6339
 -1     40330    3    0    3
 -2      1099      1126      5464      6339
 -1     40331    3    0    3
 -2      6763      1506      6368      1641
 -1     40332    3    0    3
 -2      6763      1506      1473      5571
 -1     40333    3    0    3
 -2      6763      1506      5571      6368
 -1     40334    3    0    3
 -2      1177      6292      1126      6339
 -1     40335    3    0    3
 -2      1208      1177      1126      6339
 -1     40336    3    0    3
 -2      5922      2862      5923      2866
 -1     40337    3    0    3
 -2      6466      5173      1423      6493
 -1     40338    3    0    3
 -2      5922      2862      2844      5014
 -1     40339    3    0    3
 -2      5884      4798      2445      6340
 -1     40340    3    0    3
 -2       707      5652       809      3624
 -1     40341    3    0    3
 -2       690      3665      3368      6532
 -1     40342    3    0    3
 -2      2797       268       706      6341
 -1     40343    3    0    3
 -2       268       837       706      6341
 -1     40344    3    0    3
 -2       268      2797      2796      6341
 -1     40345    3    0    3
 -2       837       268      2796      6341
 -1     40346    3    0    3
 -2      1017       914      1163      6342
 -1     40347    3    0    3
 -2      6302      5463      3662      6342
 -1     40348    3    0    3
 -2      5463      5450      3662      6342
 -1     40349    3    0    3
 -2      5662      3624      5656      6344
 -1     40350    3    0    3
 -2      5662      3624      5600      3838
 -1     40351    3    0    3
 -2      5662      3624      6344      5600
 -1     40352    3    0    3
 -2      1393      6007      1349      5383
 -1     40353    3    0    3
 -2      1328      5592      1078      6343
 -1     40354    3    0    3
 -2      5589      4321      5695      6616
 -1     40355    3    0    3
 -2      4321      5589      5591      6616
 -1     40356    3    0    3
 -2      6318      5331      6043      1502
 -1     40357    3    0    3
 -2      4240      5602      5592      6694
 -1     40358    3    0    3
 -2      6343      5592      1078      6617
 -1     40359    3    0    3
 -2      6343      1078      1362      6617
 -1     40360    3    0    3
 -2      6319       723      5364      6726
 -1     40361    3    0    3
 -2      5600      3657      3624      6344
 -1     40362    3    0    3
 -2      4597      1956      6537      2153
 -1     40363    3    0    3
 -2      4597      1956      2153      2238
 -1     40364    3    0    3
 -2      6498      1596      5170      6203
 -1     40365    3    0    3
 -2      5847      1242      1231      1002
 -1     40366    3    0    3
 -2      5347       699      6319      6726
 -1     40367    3    0    3
 -2      3545      6272      5345      6255
 -1     40368    3    0    3
 -2      1348      6310      1347      6304
 -1     40369    3    0    3
 -2      2846      2847      2848      6345
 -1     40370    3    0    3
 -2      5754      4323      5584      6346
 -1     40371    3    0    3
 -2      6498      1596      1386      5170
 -1     40372    3    0    3
 -2      5582      5923      5015      4378
 -1     40373    3    0    3
 -2      1242       874      1002      6346
 -1     40374    3    0    3
 -2      5923      5582      5015      5812
 -1     40375    3    0    3
 -2      5568      6775      1600      6351
 -1     40376    3    0    3
 -2      5579      5577      1450      6347
 -1     40377    3    0    3
 -2      5577      1273      1450      6347
 -1     40378    3    0    3
 -2      5577      5578      1273      6347
 -1     40379    3    0    3
 -2      4375      5578      5577      6347
 -1     40380    3    0    3
 -2      2861      2791      5984      6348
 -1     40381    3    0    3
 -2      2861      2864      2791      6348
 -1     40382    3    0    3
 -2       265      2864       677      6348
 -1     40383    3    0    3
 -2      2791      2864       265      6348
 -1     40384    3    0    3
 -2       265       677       718      6348
 -1     40385    3    0    3
 -2       718      2791       265      6348
 -1     40386    3    0    3
 -2      6145      5909      2279      4731
 -1     40387    3    0    3
 -2      5571      4460      5577      6763
 -1     40388    3    0    3
 -2      1579      6355      1508      1622
 -1     40389    3    0    3
 -2      5568      6775      6351      5567
 -1     40390    3    0    3
 -2      5568      6775      5574      1600
 -1     40391    3    0    3
 -2      3449      5364      6345      6350
 -1     40392    3    0    3
 -2      6070      1170      1395      1315
 -1     40393    3    0    3
 -2      6345      4784      3449      6350
 -1     40394    3    0    3
 -2      1348      6310      1045      1347
 -1     40395    3    0    3
 -2      6345      2848      4784      6350
 -1     40396    3    0    3
 -2      5956      4784      2848      6350
 -1     40397    3    0    3
 -2      6351      1600      1529      6775
 -1     40398    3    0    3
 -2      6631      5574      5573      6775
 -1     40399    3    0    3
 -2      6631      1572      5574      6775
 -1     40400    3    0    3
 -2      6330       381      1710      1823
 -1     40401    3    0    3
 -2      1125      6412      1381      1119
 -1     40402    3    0    3
 -2      5980      3480      5957      6352
 -1     40403    3    0    3
 -2      5980      5347      3480      6352
 -1     40404    3    0    3
 -2      4696       452      1842      4693
 -1     40405    3    0    3
 -2      5957       877      5980      6352
 -1     40406    3    0    3
 -2      6316      5347       698      6352
 -1     40407    3    0    3
 -2      4696       452      2917       453
 -1     40408    3    0    3
 -2      3652      6095      4763      6026
 -1     40409    3    0    3
 -2      5327      3559      5358      6353
 -1     40410    3    0    3
 -2      5515      5327      3616      6372
 -1     40411    3    0    3
 -2      3559      5327      5515      6353
 -1     40412    3    0    3
 -2      6307      5336      1650      6354
 -1     40413    3    0    3
 -2      1341      6190      1414      1469
 -1     40414    3    0    3
 -2      4769      6110      3671      4766
 -1     40415    3    0    3
 -2      6405       894      1210      6429
 -1     40416    3    0    3
 -2      1532      6043      6318      6354
 -1     40417    3    0    3
 -2      5339      5349      1508      6355
 -1     40418    3    0    3
 -2      1532      1534      6043      6354
 -1     40419    3    0    3
 -2      1532      1650      1534      6354
 -1     40420    3    0    3
 -2      1125      6412      6426      1381
 -1     40421    3    0    3
 -2      5955      5329      5328      6303
 -1     40422    3    0    3
 -2      1125      6412      1119      6177
 -1     40423    3    0    3
 -2      5329      5955      5328      3723
 -1     40424    3    0    3
 -2      5349      3567      5339      6356
 -1     40425    3    0    3
 -2      5352      1433      6360      6365
 -1     40426    3    0    3
 -2      1508      1648      5349      6356
 -1     40427    3    0    3
 -2      1508      1535      1648      6356
 -1     40428    3    0    3
 -2      4786      6802      2675      4776
 -1     40429    3    0    3
 -2      3690      4775      4785      6357
 -1     40430    3    0    3
 -2      2621      4785      4775      6357
 -1     40431    3    0    3
 -2      3690      4785      4756      6357
 -1     40432    3    0    3
 -2      2621      4756      4785      6357
 -1     40433    3    0    3
 -2      4786      6802      5888      2675
 -1     40434    3    0    3
 -2      4349      5580      5579      6621
 -1     40435    3    0    3
 -2      1231      5590      1311      6776
 -1     40436    3    0    3
 -2      6356      5349      5352      6360
 -1     40437    3    0    3
 -2      5349      6356      5352      3567
 -1     40438    3    0    3
 -2      5009      5912      5012      4398
 -1     40439    3    0    3
 -2      5351      5350      1536      6036
 -1     40440    3    0    3
 -2      1115       920      1116      6759
 -1     40441    3    0    3
 -2      5835      3508      6359      6363
 -1     40442    3    0    3
 -2      3508      5352      5835      6359
 -1     40443    3    0    3
 -2      5352      3508      5342      6359
 -1     40444    3    0    3
 -2      5835      5352      1371      6359
 -1     40445    3    0    3
 -2      5349      5352      6360      6365
 -1     40446    3    0    3
 -2      5734      5783      6765      5594
 -1     40447    3    0    3
 -2      5334      1493      6311      6308
 -1     40448    3    0    3
 -2      1434      1433      5354      6365
 -1     40449    3    0    3
 -2      5352      5349      3534      6365
 -1     40450    3    0    3
 -2      5702      1150      5595      1032
 -1     40451    3    0    3
 -2      5588      5586      1585      6361
 -1     40452    3    0    3
 -2      5586      5588      1585      5898
 -1     40453    3    0    3
 -2      5588      1585      1464      6361
 -1     40454    3    0    3
 -2      1488      1464      1585      6361
 -1     40455    3    0    3
 -2      1585      5586      1488      6361
 -1     40456    3    0    3
 -2      5702      1150      1032      1102
 -1     40457    3    0    3
 -2      5702      1150      1102      6362
 -1     40458    3    0    3
 -2      5702      1150      6362      5595
 -1     40459    3    0    3
 -2      6346       874      5584      5754
 -1     40460    3    0    3
 -2      5596      5595      5702      6362
 -1     40461    3    0    3
 -2       874      6346      5584      1002
 -1     40462    3    0    3
 -2       620      3950       619      3765
 -1     40463    3    0    3
 -2       620      3950      3735       637
 -1     40464    3    0    3
 -2      6510      2715      2503      2502
 -1     40465    3    0    3
 -2      5343      5353      3449      6759
 -1     40466    3    0    3
 -2      5951       920      6319      6759
 -1     40467    3    0    3
 -2      5835      5353      3508      6363
 -1     40468    3    0    3
 -2      5343      3508      5353      6363
 -1     40469    3    0    3
 -2      5931      3508      5342      3539
 -1     40470    3    0    3
 -2      3725      6384      5326      6380
 -1     40471    3    0    3
 -2      6359      3508      5342      6363
 -1     40472    3    0    3
 -2      5683      6763      1641      5568
 -1     40473    3    0    3
 -2      3478      5352      5354      6364
 -1     40474    3    0    3
 -2      6701      6705      2254      1934
 -1     40475    3    0    3
 -2      1307      5355      5354      6364
 -1     40476    3    0    3
 -2      5355      3478      5354      6364
 -1     40477    3    0    3
 -2      1104      5353      5355      6364
 -1     40478    3    0    3
 -2      5355      1307      1104      6364
 -1     40479    3    0    3
 -2      6405       894      1149      1210
 -1     40480    3    0    3
 -2      1435      1434      1623      6365
 -1     40481    3    0    3
 -2      2645      5996      2705      4785
 -1     40482    3    0    3
 -2      6366      5366      5975      6777
 -1     40483    3    0    3
 -2      2631      6261      4823      2694
 -1     40484    3    0    3
 -2      5927      2860      5365      6777
 -1     40485    3    0    3
 -2      5340      5341      1382      5931
 -1     40486    3    0    3
 -2      2857      4803      5930      6777
 -1     40487    3    0    3
 -2      3927       866      3515      5465
 -1     40488    3    0    3
 -2      5719      2455      5024      6367
 -1     40489    3    0    3
 -2      2455      5719      5024      5803
 -1     40490    3    0    3
 -2      5917      5024      2457      6367
 -1     40491    3    0    3
 -2      2455      2457      5024      6367
 -1     40492    3    0    3
 -2      4332      2888      4311      4139
 -1     40493    3    0    3
 -2      1606      1619      6663      6375
 -1     40494    3    0    3
 -2      1619      1606      6663      1440
 -1     40495    3    0    3
 -2      3892      3954      5190      4626
 -1     40496    3    0    3
 -2      5367      5581      6338      6337
 -1     40497    3    0    3
 -2      6145      5909      1925      2279
 -1     40498    3    0    3
 -2      5360      1439      6369      5357
 -1     40499    3    0    3
 -2      6349      1418      1548      6368
 -1     40500    3    0    3
 -2      1548      1418      1506      6368
 -1     40501    3    0    3
 -2      6510      2715      4587      2503
 -1     40502    3    0    3
 -2      6510      2715      6553      4587
 -1     40503    3    0    3
 -2      4375      4352      4323      5011
 -1     40504    3    0    3
 -2      6023      2557      2532      2610
 -1     40505    3    0    3
 -2      6322      6020      5351      5357
 -1     40506    3    0    3
 -2      5977      5974      5158      4202
 -1     40507    3    0    3
 -2      6317      1606      1301      6328
 -1     40508    3    0    3
 -2      5360      3504      5357      6369
 -1     40509    3    0    3
 -2      6320      6321      5359      1448
 -1     40510    3    0    3
 -2      6023      4793      4794      6370
 -1     40511    3    0    3
 -2      4793      3562      4794      6370
 -1     40512    3    0    3
 -2      6023      2610      4793      6370
 -1     40513    3    0    3
 -2      6397      3278      3249      3205
 -1     40514    3    0    3
 -2      5870      2439      2602      2440
 -1     40515    3    0    3
 -2      5325      1113      1112      6382
 -1     40516    3    0    3
 -2      6372      5515      1127      6741
 -1     40517    3    0    3
 -2      5378      5384      1666      6008
 -1     40518    3    0    3
 -2      5384      5378      1666      5748
 -1     40519    3    0    3
 -2       172       487       691      3376
 -1     40520    3    0    3
 -2       503      4944      4016      5038
 -1     40521    3    0    3
 -2      2582      2533      4795      6373
 -1     40522    3    0    3
 -2      2533      2582      2563      6373
 -1     40523    3    0    3
 -2      2582      4998      2563      6373
 -1     40524    3    0    3
 -2      1441      5356      5357      6376
 -1     40525    3    0    3
 -2      5356      1441      5357      6020
 -1     40526    3    0    3
 -2      1938      3980      4611      1939
 -1     40527    3    0    3
 -2      2088      4761      2214      6374
 -1     40528    3    0    3
 -2      2088      4757      4761      6374
 -1     40529    3    0    3
 -2      2088      2214      2203      6374
 -1     40530    3    0    3
 -2      4757      2088      2203      6374
 -1     40531    3    0    3
 -2      1606      1446      1619      6375
 -1     40532    3    0    3
 -2      5362      1446      1606      6375
 -1     40533    3    0    3
 -2      6375      5362      5359      6663
 -1     40534    3    0    3
 -2      6317      5360      1301      5361
 -1     40535    3    0    3
 -2      4081      3891      6731      4741
 -1     40536    3    0    3
 -2      3725      6384      6380      3233
 -1     40537    3    0    3
 -2      3725      6384      3711      5326
 -1     40538    3    0    3
 -2      6663      1439      1440      6328
 -1     40539    3    0    3
 -2      3531      5357      5356      6376
 -1     40540    3    0    3
 -2      1573      5356      1441      6376
 -1     40541    3    0    3
 -2      3953      6779      3896      5295
 -1     40542    3    0    3
 -2      1573      5358      1547      6377
 -1     40543    3    0    3
 -2      1547      5358      5327      6377
 -1     40544    3    0    3
 -2      5327      1305      1547      6377
 -1     40545    3    0    3
 -2      5325      5327      3588      6377
 -1     40546    3    0    3
 -2      1305      5327      5325      6377
 -1     40547    3    0    3
 -2      4054      5559      5548      6378
 -1     40548    3    0    3
 -2      3524      6485      5038      3470
 -1     40549    3    0    3
 -2      5547      6393      1213      1133
 -1     40550    3    0    3
 -2      4996      4446      5563      4473
 -1     40551    3    0    3
 -2      3635      5551      5540      3602
 -1     40552    3    0    3
 -2      6084      2629      2467      6379
 -1     40553    3    0    3
 -2      2468      2467      2629      6379
 -1     40554    3    0    3
 -2      2468      2384      2467      6379
 -1     40555    3    0    3
 -2      2467      4877      6084      6379
 -1     40556    3    0    3
 -2      4877      2467      2384      6379
 -1     40557    3    0    3
 -2      5326      5514      6027      6380
 -1     40558    3    0    3
 -2      5326      3680      5514      6380
 -1     40559    3    0    3
 -2      3725      5326      6371      6380
 -1     40560    3    0    3
 -2      3234      3725      6371      6380
 -1     40561    3    0    3
 -2      3928      6028      4763      6384
 -1     40562    3    0    3
 -2      6380      5326      3680      6384
 -1     40563    3    0    3
 -2      3953      6779      6420      5297
 -1     40564    3    0    3
 -2      5768      1556      5558      6409
 -1     40565    3    0    3
 -2      3953      6779      5297      3896
 -1     40566    3    0    3
 -2      6169      2196      2129      6173
 -1     40567    3    0    3
 -2       897      1050      1160      6422
 -1     40568    3    0    3
 -2      5627       897      4146      6422
 -1     40569    3    0    3
 -2       897      5624      1050      6422
 -1     40570    3    0    3
 -2      5624       897      5627      6422
 -1     40571    3    0    3
 -2      4421       949      6402      5293
 -1     40572    3    0    3
 -2      5324      6371       890      5997
 -1     40573    3    0    3
 -2      3652      5327      5325      6382
 -1     40574    3    0    3
 -2      1547      6353      5358      1523
 -1     40575    3    0    3
 -2      5325      5327      1113      6382
 -1     40576    3    0    3
 -2      5544      3845      4241      6383
 -1     40577    3    0    3
 -2      5543      5544      5761      6383
 -1     40578    3    0    3
 -2      5543      3845      5544      6383
 -1     40579    3    0    3
 -2      1366      5412      5824      5671
 -1     40580    3    0    3
 -2      1366      5412      5671      1303
 -1     40581    3    0    3
 -2      6395       869      1108      6478
 -1     40582    3    0    3
 -2      1086       908      1087      6383
 -1     40583    3    0    3
 -2      6028      3928      3166      6384
 -1     40584    3    0    3
 -2      3711      3166      3928      6384
 -1     40585    3    0    3
 -2      3711      3233      3166      6384
 -1     40586    3    0    3
 -2      3166      3233      3680      6384
 -1     40587    3    0    3
 -2      5515      1353      5327      6372
 -1     40588    3    0    3
 -2      1353      5515      5327      6353
 -1     40589    3    0    3
 -2      4761      3652      5324      6385
 -1     40590    3    0    3
 -2      4761      5324      3711      6385
 -1     40591    3    0    3
 -2      5319      5318      1332      6002
 -1     40592    3    0    3
 -2      5318      5319      1332      6386
 -1     40593    3    0    3
 -2      1180      1292      1134      6386
 -1     40594    3    0    3
 -2      5320      1180      1134      6386
 -1     40595    3    0    3
 -2      1292      1332      5319      6386
 -1     40596    3    0    3
 -2      5306      1414      1416      1415
 -1     40597    3    0    3
 -2      5324      1112      5325      6388
 -1     40598    3    0    3
 -2      1112      5324      5325      6382
 -1     40599    3    0    3
 -2      5321      5350      3656      6387
 -1     40600    3    0    3
 -2      6158       143       142       803
 -1     40601    3    0    3
 -2      5350      1537      5348      6387
 -1     40602    3    0    3
 -2      1562      1537      1560      6387
 -1     40603    3    0    3
 -2      5348      1537      1562      6387
 -1     40604    3    0    3
 -2      1435      5349      6365      6036
 -1     40605    3    0    3
 -2      5325      1372      5321      6388
 -1     40606    3    0    3
 -2      5325      1112      1372      6388
 -1     40607    3    0    3
 -2      3686      5325      5321      6388
 -1     40608    3    0    3
 -2      5306      1414      1415      5308
 -1     40609    3    0    3
 -2      5306      1414      5308      6389
 -1     40610    3    0    3
 -2      5306      1414      6389      1416
 -1     40611    3    0    3
 -2       454      4700      1698       455
 -1     40612    3    0    3
 -2      5541      1090      5761      6395
 -1     40613    3    0    3
 -2      1090      5541      5761      6239
 -1     40614    3    0    3
 -2       948       928       741      6390
 -1     40615    3    0    3
 -2      3718       741      5311      6390
 -1     40616    3    0    3
 -2      4474      3482      3453      5561
 -1     40617    3    0    3
 -2      6391      1215      5546      6778
 -1     40618    3    0    3
 -2      4474      3482      5561      4502
 -1     40619    3    0    3
 -2      6391      1296      1363      6781
 -1     40620    3    0    3
 -2      5887      4790      4497      5978
 -1     40621    3    0    3
 -2      6391      6486      5546      6781
 -1     40622    3    0    3
 -2      6391      1363      6486      6781
 -1     40623    3    0    3
 -2      1215      4384      4012      5539
 -1     40624    3    0    3
 -2      5546      6486      5548      6781
 -1     40625    3    0    3
 -2      1296      1363      1297      6391
 -1     40626    3    0    3
 -2      1201      5540       981      6487
 -1     40627    3    0    3
 -2      5551      1159       896      6487
 -1     40628    3    0    3
 -2       646      3398      5466      6207
 -1     40629    3    0    3
 -2      1201       981      1159      6487
 -1     40630    3    0    3
 -2      4138       896      5533      6487
 -1     40631    3    0    3
 -2      5533       981      3737      6487
 -1     40632    3    0    3
 -2       896       981      5533      6487
 -1     40633    3    0    3
 -2      6393      1387      6486      6778
 -1     40634    3    0    3
 -2      4070      4199      3668      5472
 -1     40635    3    0    3
 -2      6289      3351      3927      3515
 -1     40636    3    0    3
 -2       883      6372      5994      1188
 -1     40637    3    0    3
 -2      6429      5563      1212      6428
 -1     40638    3    0    3
 -2      5542      5545       868      6473
 -1     40639    3    0    3
 -2      1155      1133      1213      6393
 -1     40640    3    0    3
 -2      2615      2316      5882      6394
 -1     40641    3    0    3
 -2      2316      2615      2346      6394
 -1     40642    3    0    3
 -2      1862      6028       483      6097
 -1     40643    3    0    3
 -2      1930      6688      5032      4062
 -1     40644    3    0    3
 -2      5767      4474      4997      5798
 -1     40645    3    0    3
 -2      5604      1691       807      1683
 -1     40646    3    0    3
 -2      4900      4504      5464      3458
 -1     40647    3    0    3
 -2      1090      1108      5761      6395
 -1     40648    3    0    3
 -2      1090       951      1108      6395
 -1     40649    3    0    3
 -2       951      1090      5541      6395
 -1     40650    3    0    3
 -2      4215       788      3228      4058
 -1     40651    3    0    3
 -2      1345      1247      1151      6401
 -1     40652    3    0    3
 -2      3886      4421      5293      6396
 -1     40653    3    0    3
 -2      3886      5304      4421      6396
 -1     40654    3    0    3
 -2      5293       740      3886      6396
 -1     40655    3    0    3
 -2       949       740      5293      6396
 -1     40656    3    0    3
 -2      4461       818      6400      6397
 -1     40657    3    0    3
 -2      2012      5794      5770      2256
 -1     40658    3    0    3
 -2      1179      1010      1016      6400
 -1     40659    3    0    3
 -2      6062      5312      5318      6400
 -1     40660    3    0    3
 -2      5312      4461      3788      6400
 -1     40661    3    0    3
 -2      3690      5338      5309      6398
 -1     40662    3    0    3
 -2      5309      5338      1541      6398
 -1     40663    3    0    3
 -2      5348      5338      3690      6398
 -1     40664    3    0    3
 -2      1541      5338      5348      6398
 -1     40665    3    0    3
 -2      1615      1534      1578      6399
 -1     40666    3    0    3
 -2      4461       818      6397      5315
 -1     40667    3    0    3
 -2       120      5293       787       119
 -1     40668    3    0    3
 -2       788      4215      3228      5290
 -1     40669    3    0    3
 -2      1578      5336      6237      6399
 -1     40670    3    0    3
 -2       794      6236      1019      5458
 -1     40671    3    0    3
 -2      4163      1787      6046      4729
 -1     40672    3    0    3
 -2      6397      4461      5312      6400
 -1     40673    3    0    3
 -2      5330      5336      1534      6399
 -1     40674    3    0    3
 -2      5336      5330      1534      6043
 -1     40675    3    0    3
 -2      6397      1016       818      6400
 -1     40676    3    0    3
 -2      1016      1010       818      6400
 -1     40677    3    0    3
 -2      6390       948      1247      6401
 -1     40678    3    0    3
 -2      1151      1247       948      6401
 -1     40679    3    0    3
 -2       901      6779      6197      1105
 -1     40680    3    0    3
 -2      3579      6419      1065      5279
 -1     40681    3    0    3
 -2       700      3579      3251      6403
 -1     40682    3    0    3
 -2      3579       700      3251      5285
 -1     40683    3    0    3
 -2      4735      3869      3900      5298
 -1     40684    3    0    3
 -2      1193      5291      6430      6402
 -1     40685    3    0    3
 -2      6430      1193      1276      6431
 -1     40686    3    0    3
 -2      1258      1193      1276      6430
 -1     40687    3    0    3
 -2      5291      1193      6430      6431
 -1     40688    3    0    3
 -2      6091      3518      6218      5448
 -1     40689    3    0    3
 -2       124      3251      3270      6403
 -1     40690    3    0    3
 -2      3579      6419      5279      4271
 -1     40691    3    0    3
 -2      3579      6419      6403      1065
 -1     40692    3    0    3
 -2      3579      6419      4271      6403
 -1     40693    3    0    3
 -2      5279      4183      5278      6415
 -1     40694    3    0    3
 -2      5759      5562      5561      6404
 -1     40695    3    0    3
 -2      4502      5561      5562      6404
 -1     40696    3    0    3
 -2      5768      1518      5561      6404
 -1     40697    3    0    3
 -2      1518      1517      5561      6404
 -1     40698    3    0    3
 -2      5768      1630      1518      6404
 -1     40699    3    0    3
 -2      1630      1517      1518      6404
 -1     40700    3    0    3
 -2      5547      4980      3659      3693
 -1     40701    3    0    3
 -2      1269      1270      5759      6405
 -1     40702    3    0    3
 -2      1270      1269      1210      6405
 -1     40703    3    0    3
 -2      1270      1210      1212      6428
 -1     40704    3    0    3
 -2      5623      1050      4418      6378
 -1     40705    3    0    3
 -2      4238      3537      5564      6429
 -1     40706    3    0    3
 -2      1342      6747      1340      1164
 -1     40707    3    0    3
 -2      1210      1270      6405      6428
 -1     40708    3    0    3
 -2      5561      1271      6409      6428
 -1     40709    3    0    3
 -2      1342      6747      5558      1340
 -1     40710    3    0    3
 -2      1260      1154      1183      6423
 -1     40711    3    0    3
 -2      2434      6681      4820      2360
 -1     40712    3    0    3
 -2      6035      1557      1526      6406
 -1     40713    3    0    3
 -2      1557      1432      1526      6406
 -1     40714    3    0    3
 -2      1526      5297      6035      6406
 -1     40715    3    0    3
 -2      5297      1526      1432      6406
 -1     40716    3    0    3
 -2      1175      5277      1121      6417
 -1     40717    3    0    3
 -2      5277      1175      1121      1173
 -1     40718    3    0    3
 -2      6425       952      5298      1186
 -1     40719    3    0    3
 -2      3953      6420      5295      6195
 -1     40720    3    0    3
 -2      3953      6420      6195      6407
 -1     40721    3    0    3
 -2      6411       811      1059      5258
 -1     40722    3    0    3
 -2      6195      5296      3953      6407
 -1     40723    3    0    3
 -2      3953      5296      5297      6407
 -1     40724    3    0    3
 -2      1500      6115      1611      1646
 -1     40725    3    0    3
 -2      5766      3510      6421      5559
 -1     40726    3    0    3
 -2      1500      6115      1646      5435
 -1     40727    3    0    3
 -2      1324      5553      5550      5804
 -1     40728    3    0    3
 -2      5553      1324      5550      6408
 -1     40729    3    0    3
 -2      3953      6779      5295      6420
 -1     40730    3    0    3
 -2      5563      3453      5560      6747
 -1     40731    3    0    3
 -2      3479      4418      3509      5622
 -1     40732    3    0    3
 -2      2076      6257      4280      2096
 -1     40733    3    0    3
 -2      1342      6747      6381      5558
 -1     40734    3    0    3
 -2      1271      1199      1340      6409
 -1     40735    3    0    3
 -2      3458      6244      5464      6235
 -1     40736    3    0    3
 -2      5760      1679       286      1779
 -1     40737    3    0    3
 -2      1160      1342      6381      6410
 -1     40738    3    0    3
 -2      1342      1160      1295      6410
 -1     40739    3    0    3
 -2      3640      4324      5298      6411
 -1     40740    3    0    3
 -2      6295      1359      1114      6425
 -1     40741    3    0    3
 -2      5296      5294      6175      6423
 -1     40742    3    0    3
 -2      6295      5299      3831      6425
 -1     40743    3    0    3
 -2      1114      1359      1186      6425
 -1     40744    3    0    3
 -2      6197      5298      1186      6425
 -1     40745    3    0    3
 -2      6197      1186      1261      6425
 -1     40746    3    0    3
 -2      6295      5300      1359      6425
 -1     40747    3    0    3
 -2       978      1121      5277      6413
 -1     40748    3    0    3
 -2      5281      6412      6743      6426
 -1     40749    3    0    3
 -2      4156      5277      4121      6417
 -1     40750    3    0    3
 -2      6412      5282      1120      6433
 -1     40751    3    0    3
 -2      5280      4156      4121      6417
 -1     40752    3    0    3
 -2      6412      1120      1121      6433
 -1     40753    3    0    3
 -2      4416      4052      5280      6413
 -1     40754    3    0    3
 -2      6779      1380      5297      1358
 -1     40755    3    0    3
 -2      1500      6115      5435      5436
 -1     40756    3    0    3
 -2      6413      1121      5277      6417
 -1     40757    3    0    3
 -2      6413      4052      5280      6417
 -1     40758    3    0    3
 -2      4052      5277      4156      6417
 -1     40759    3    0    3
 -2      6413      5277      4052      6417
 -1     40760    3    0    3
 -2      3032      5875      3084      3083
 -1     40761    3    0    3
 -2      6153      5196      1075      6414
 -1     40762    3    0    3
 -2      5196       863      1075      6414
 -1     40763    3    0    3
 -2      3658       863      5196      6414
 -1     40764    3    0    3
 -2      3658      5127       863      6414
 -1     40765    3    0    3
 -2      5196      4063      3658      6414
 -1     40766    3    0    3
 -2      4063      5127      3658      6414
 -1     40767    3    0    3
 -2      1192      6078      1294      6434
 -1     40768    3    0    3
 -2      5813      1953      6564      1750
 -1     40769    3    0    3
 -2      6143      3739      4732      4140
 -1     40770    3    0    3
 -2      6170      1080      5276      6415
 -1     40771    3    0    3
 -2      5565      1521      6320      5358
 -1     40772    3    0    3
 -2      1065       971      1072      6419
 -1     40773    3    0    3
 -2      6430      5291      5283      3984
 -1     40774    3    0    3
 -2      2289      6588      2427      6787
 -1     40775    3    0    3
 -2      4099      4718      5282      4073
 -1     40776    3    0    3
 -2      5887      5948      2009      4802
 -1     40777    3    0    3
 -2      5279      1175      5277      6415
 -1     40778    3    0    3
 -2      1175      5279      5277      6417
 -1     40779    3    0    3
 -2       972      5278      5198      6153
 -1     40780    3    0    3
 -2      5278       972      5198      6416
 -1     40781    3    0    3
 -2      5278      6153       972      1071
 -1     40782    3    0    3
 -2      5294      5296      6175      4014
 -1     40783    3    0    3
 -2      5307      1577      5301      6424
 -1     40784    3    0    3
 -2      1105      6197      6418      6779
 -1     40785    3    0    3
 -2      2980      4687      4488      4296
 -1     40786    3    0    3
 -2      1577      5307      5301      6399
 -1     40787    3    0    3
 -2      2980      4687      4296      3603
 -1     40788    3    0    3
 -2      6197      1261      1105      6418
 -1     40789    3    0    3
 -2      2908      4705      4024      4704
 -1     40790    3    0    3
 -2      1358      1105      1261      6418
 -1     40791    3    0    3
 -2      5278      5279      6415      6419
 -1     40792    3    0    3
 -2      5278      4271      5279      6419
 -1     40793    3    0    3
 -2      6406      5296      5297      3925
 -1     40794    3    0    3
 -2      1173      6415      5277      1175
 -1     40795    3    0    3
 -2      3953      6420      6407      5297
 -1     40796    3    0    3
 -2      6003      1183      6195      6420
 -1     40797    3    0    3
 -2      3165      3689      6056      1856
 -1     40798    3    0    3
 -2      1183      1194      1380      6420
 -1     40799    3    0    3
 -2      6195      1183      6407      6420
 -1     40800    3    0    3
 -2      6407      1183      1380      6420
 -1     40801    3    0    3
 -2      1380      5297      6407      6420
 -1     40802    3    0    3
 -2      6411       811      5258      5255
 -1     40803    3    0    3
 -2      6381      1160      6410      6421
 -1     40804    3    0    3
 -2      6381      5559      1160      6421
 -1     40805    3    0    3
 -2      6410      1160      1295      6421
 -1     40806    3    0    3
 -2      1160      1161      1295      6421
 -1     40807    3    0    3
 -2      5551      3635      5540      4138
 -1     40808    3    0    3
 -2      5766      1296      1161      6421
 -1     40809    3    0    3
 -2      1161      1296      1295      6421
 -1     40810    3    0    3
 -2      5560      3746      4146      6422
 -1     40811    3    0    3
 -2      1296      5557      6421      5766
 -1     40812    3    0    3
 -2      5557      1296      6421      1295
 -1     40813    3    0    3
 -2        65      5478       641       795
 -1     40814    3    0    3
 -2        65      5478       795       613
 -1     40815    3    0    3
 -2      6378      3646      5548      4054
 -1     40816    3    0    3
 -2      5294      1183      1154      6423
 -1     40817    3    0    3
 -2      6378      3646      5620      6464
 -1     40818    3    0    3
 -2      6378      3646      6464      5548
 -1     40819    3    0    3
 -2      6378      3646      4054      5620
 -1     40820    3    0    3
 -2      1183      6195      6407      6423
 -1     40821    3    0    3
 -2      6407      1260      1183      6423
 -1     40822    3    0    3
 -2      6021      1516      1563      6424
 -1     40823    3    0    3
 -2      1563      1516      1577      6424
 -1     40824    3    0    3
 -2      1563      5306      6021      6424
 -1     40825    3    0    3
 -2      5306      1563      5307      6424
 -1     40826    3    0    3
 -2      6021      5306      3803      6424
 -1     40827    3    0    3
 -2      5306      5307      3803      6424
 -1     40828    3    0    3
 -2      5298      3831      5299      6425
 -1     40829    3    0    3
 -2      1013      4066      5497      6302
 -1     40830    3    0    3
 -2      1527      6016      1415      1557
 -1     40831    3    0    3
 -2      1527      6016      5306      1415
 -1     40832    3    0    3
 -2      5766      3510      5557      6421
 -1     40833    3    0    3
 -2      5766      3510      5559      3571
 -1     40834    3    0    3
 -2       840      5218      5219       673
 -1     40835    3    0    3
 -2      1277      6743      6175      6427
 -1     40836    3    0    3
 -2      2951      5241      3500      4013
 -1     40837    3    0    3
 -2      6073      5808      1509      6010
 -1     40838    3    0    3
 -2      6073      5808      1281      1509
 -1     40839    3    0    3
 -2      6073      5808      5394      1281
 -1     40840    3    0    3
 -2      6073      5808      6010      5394
 -1     40841    3    0    3
 -2      3723      6110      4768      6219
 -1     40842    3    0    3
 -2      1381      1276      1241      6427
 -1     40843    3    0    3
 -2      3633      6318      6306      5331
 -1     40844    3    0    3
 -2      1241      5283      5282      6743
 -1     40845    3    0    3
 -2      5283      5281      4075      6743
 -1     40846    3    0    3
 -2      5248      2996      3710      4109
 -1     40847    3    0    3
 -2      6405      1210      6428      6429
 -1     40848    3    0    3
 -2      4906      2754      4905      2727
 -1     40849    3    0    3
 -2      5563      3841      4238      6429
 -1     40850    3    0    3
 -2      5563       895      3841      6429
 -1     40851    3    0    3
 -2      5759      4474      6405      6428
 -1     40852    3    0    3
 -2      5759      5561      4474      6428
 -1     40853    3    0    3
 -2       894      3537      5635      6429
 -1     40854    3    0    3
 -2      4906      2754      2726      3651
 -1     40855    3    0    3
 -2      4906      2754      2727      2726
 -1     40856    3    0    3
 -2      1050      5623      4418      5624
 -1     40857    3    0    3
 -2      6428      1210      1212      6429
 -1     40858    3    0    3
 -2      1210       895      1212      6429
 -1     40859    3    0    3
 -2      4155       151      3425      3377
 -1     40860    3    0    3
 -2      4078      4248      4014      4717
 -1     40861    3    0    3
 -2      3480      5945      4783      5865
 -1     40862    3    0    3
 -2      4248      4078      4014      4046
 -1     40863    3    0    3
 -2      3633      6318      5864      6306
 -1     40864    3    0    3
 -2      1241      1193       942      6431
 -1     40865    3    0    3
 -2      3510      6747      6381      5560
 -1     40866    3    0    3
 -2      4899      4931      4330      3707
 -1     40867    3    0    3
 -2      4899      4931      3707      6432
 -1     40868    3    0    3
 -2      3866      2732      4846      3651
 -1     40869    3    0    3
 -2      4215      5291      3685      6431
 -1     40870    3    0    3
 -2      4215       942      5291      6431
 -1     40871    3    0    3
 -2      2063      3712      4889      6721
 -1     40872    3    0    3
 -2      4163      1787      4729      6056
 -1     40873    3    0    3
 -2      4886      3768      2101      4381
 -1     40874    3    0    3
 -2      6139      2286      4611      6593
 -1     40875    3    0    3
 -2      6417      5282      5279      4121
 -1     40876    3    0    3
 -2      5282      6417      5279      6433
 -1     40877    3    0    3
 -2      1121      1120      1175      6433
 -1     40878    3    0    3
 -2      6417      1175      5279      6433
 -1     40879    3    0    3
 -2      1007      5279      1175      6433
 -1     40880    3    0    3
 -2      4536      2043      4537      3922
 -1     40881    3    0    3
 -2      6139      2286      2239      1938
 -1     40882    3    0    3
 -2      6139      2286      1938      4611
 -1     40883    3    0    3
 -2      1346      1294      5193      6780
 -1     40884    3    0    3
 -2      1030      1004      5111      6435
 -1     40885    3    0    3
 -2      1004      1030      1122      6435
 -1     40886    3    0    3
 -2      6482      3561      4658      4104
 -1     40887    3    0    3
 -2      2511      6504      2686      6601
 -1     40888    3    0    3
 -2      2511      6504      6600      2509
 -1     40889    3    0    3
 -2      5283      6175      5296      4014
 -1     40890    3    0    3
 -2      1531      6203      1586      1262
 -1     40891    3    0    3
 -2      1277      6743      6426      6175
 -1     40892    3    0    3
 -2      6436      3954      4625      4135
 -1     40893    3    0    3
 -2      5180      1122      6441      6446
 -1     40894    3    0    3
 -2      6142      4161      3763      6548
 -1     40895    3    0    3
 -2      6163      1545      1476      5152
 -1     40896    3    0    3
 -2      3262      4104      6606      3173
 -1     40897    3    0    3
 -2      6436      2018      2210      6439
 -1     40898    3    0    3
 -2      4625      2210      2362      6439
 -1     40899    3    0    3
 -2      2648      6605      2578      2581
 -1     40900    3    0    3
 -2      2005      2210      4625      6436
 -1     40901    3    0    3
 -2      3137      5088      5087      5086
 -1     40902    3    0    3
 -2      3979      4005      5221      4037
 -1     40903    3    0    3
 -2      6437      2429      4613      6593
 -1     40904    3    0    3
 -2      6461      4103      5183      6188
 -1     40905    3    0    3
 -2      6154      4614      4129      6437
 -1     40906    3    0    3
 -2      4537       427      2972      2900
 -1     40907    3    0    3
 -2      4923      4920      3817      6438
 -1     40908    3    0    3
 -2      5686      2531      2546      2498
 -1     40909    3    0    3
 -2      4489      3817      4920      6438
 -1     40910    3    0    3
 -2      4920      1947      4489      6438
 -1     40911    3    0    3
 -2      6266      3577      4885      6249
 -1     40912    3    0    3
 -2      6120      4624      4626      4110
 -1     40913    3    0    3
 -2      2361      4623      4624      5710
 -1     40914    3    0    3
 -2      4083      4132      5371      6799
 -1     40915    3    0    3
 -2      6120      4624      4110      2017
 -1     40916    3    0    3
 -2      6597      2525      2657      2706
 -1     40917    3    0    3
 -2      6120      4624      6439      4626
 -1     40918    3    0    3
 -2      3180      6607      4104      3561
 -1     40919    3    0    3
 -2      5191      6780      1123      6768
 -1     40920    3    0    3
 -2      5178      1442      1457      5714
 -1     40921    3    0    3
 -2      5178      1442      5714      6442
 -1     40922    3    0    3
 -2      6452      4021      6455      5182
 -1     40923    3    0    3
 -2      1395      1172      1170      6440
 -1     40924    3    0    3
 -2      5394      1281      6049      5700
 -1     40925    3    0    3
 -2      1395      1368      1172      6440
 -1     40926    3    0    3
 -2      1395      5177      6440      6070
 -1     40927    3    0    3
 -2      6452      4021      5182      3991
 -1     40928    3    0    3
 -2      5177      1395      6440      1368
 -1     40929    3    0    3
 -2      6070      6064      4129      6440
 -1     40930    3    0    3
 -2      6064      5175      4129      6440
 -1     40931    3    0    3
 -2      6441      1286      1355      6455
 -1     40932    3    0    3
 -2      5182      3991      5188      6452
 -1     40933    3    0    3
 -2      4021      5182      6441      6455
 -1     40934    3    0    3
 -2      6605      2579      2580      2581
 -1     40935    3    0    3
 -2      6674      4023      6676      4832
 -1     40936    3    0    3
 -2      1299      1355      1286      6455
 -1     40937    3    0    3
 -2      6605      2579      4619      6744
 -1     40938    3    0    3
 -2      6436      1837      1834      2018
 -1     40939    3    0    3
 -2      1312      5187      1461      6452
 -1     40940    3    0    3
 -2      1312      1461      1299      6452
 -1     40941    3    0    3
 -2      6452      1299      5182      6455
 -1     40942    3    0    3
 -2      1286      5182      1299      6455
 -1     40943    3    0    3
 -2      6768      5182      5180      3962
 -1     40944    3    0    3
 -2      5182      6768      5180      6446
 -1     40945    3    0    3
 -2      6129      1171      5176      6064
 -1     40946    3    0    3
 -2      1171      6129      5176      6444
 -1     40947    3    0    3
 -2      2133      6120      2017      4624
 -1     40948    3    0    3
 -2      2133      6120      2018      2017
 -1     40949    3    0    3
 -2      6129      5179      3660      6444
 -1     40950    3    0    3
 -2      6129      1118      5179      6444
 -1     40951    3    0    3
 -2      5179      1118       892      6444
 -1     40952    3    0    3
 -2      1171      5176       984      6444
 -1     40953    3    0    3
 -2      1298      6452      5188      1312
 -1     40954    3    0    3
 -2      1571      1583      5575      1643
 -1     40955    3    0    3
 -2      3540      5544      4241      6445
 -1     40956    3    0    3
 -2      5544       988      4241      6445
 -1     40957    3    0    3
 -2      1213      5544      5774      6445
 -1     40958    3    0    3
 -2      1213       988      5544      6445
 -1     40959    3    0    3
 -2      5774      5547      1213      6445
 -1     40960    3    0    3
 -2      1213      5547       906      6445
 -1     40961    3    0    3
 -2      6471       989      4072       900
 -1     40962    3    0    3
 -2      5180      4158      6435      6768
 -1     40963    3    0    3
 -2      6453      4158      5191      6768
 -1     40964    3    0    3
 -2      6441      1122      1286      6446
 -1     40965    3    0    3
 -2      1285      1286      1122      6446
 -1     40966    3    0    3
 -2      1531      6203      5168      1519
 -1     40967    3    0    3
 -2      5180      4616      3995      3962
 -1     40968    3    0    3
 -2      4065       892      5179      6448
 -1     40969    3    0    3
 -2       893      1095       892      6448
 -1     40970    3    0    3
 -2       892      1095      5179      6448
 -1     40971    3    0    3
 -2      5191      6780      3962      5193
 -1     40972    3    0    3
 -2      5179      6441      6447      6448
 -1     40973    3    0    3
 -2      3465       720       933       993
 -1     40974    3    0    3
 -2      4616      5180      3995      4022
 -1     40975    3    0    3
 -2      5107      4065      4432      6448
 -1     40976    3    0    3
 -2       930      5192      4251      6449
 -1     40977    3    0    3
 -2      5192      3554      4251      6449
 -1     40978    3    0    3
 -2      6435      6447      1004      3760
 -1     40979    3    0    3
 -2      6164      6426      5281      6175
 -1     40980    3    0    3
 -2      5905      5192      1091      6449
 -1     40981    3    0    3
 -2       930      1091      5192      6449
 -1     40982    3    0    3
 -2      1318      1462      6076      6450
 -1     40983    3    0    3
 -2      1462      1318      1467      6450
 -1     40984    3    0    3
 -2      6076      5146      1318      6450
 -1     40985    3    0    3
 -2      1467      1318      5146      6450
 -1     40986    3    0    3
 -2      5186      4076      5185      6461
 -1     40987    3    0    3
 -2      4858      4859      2184      6635
 -1     40988    3    0    3
 -2      5186      5189      4017      6480
 -1     40989    3    0    3
 -2      1864      6482      1872      6607
 -1     40990    3    0    3
 -2      5181      6129      5178      6443
 -1     40991    3    0    3
 -2      5726      1312      5188      5187
 -1     40992    3    0    3
 -2      6129      5181      5178      4080
 -1     40993    3    0    3
 -2       406      6494      1829      1741
 -1     40994    3    0    3
 -2      5322      3279      5314      4754
 -1     40995    3    0    3
 -2      5188      3932      5182      6454
 -1     40996    3    0    3
 -2      1299      5182      1298      6452
 -1     40997    3    0    3
 -2      5724      5181      4021      6455
 -1     40998    3    0    3
 -2      3870      4635      3932      4629
 -1     40999    3    0    3
 -2      3870      4635      4379      3932
 -1     41000    3    0    3
 -2      1355      5724      6441      6455
 -1     41001    3    0    3
 -2      5724      4021      6441      6455
 -1     41002    3    0    3
 -2      6605      2579      6744      2580
 -1     41003    3    0    3
 -2      1285      5182      6768      6780
 -1     41004    3    0    3
 -2      6436      3954      6439      4625
 -1     41005    3    0    3
 -2      5182      1285      6768      6446
 -1     41006    3    0    3
 -2      3020      2959      3477      3016
 -1     41007    3    0    3
 -2      3465      5218      5212       933
 -1     41008    3    0    3
 -2      5803      2307      5022      6696
 -1     41009    3    0    3
 -2      5803      2307      6696      2274
 -1     41010    3    0    3
 -2      6163      1545      5183      1491
 -1     41011    3    0    3
 -2      5523      3432      3433      4175
 -1     41012    3    0    3
 -2      1583      1571      5575      5573
 -1     41013    3    0    3
 -2      6079       922      1128      6458
 -1     41014    3    0    3
 -2      3194       697      3895      5208
 -1     41015    3    0    3
 -2       697      3194      3895      6457
 -1     41016    3    0    3
 -2      1192      3858       923      1029
 -1     41017    3    0    3
 -2      5181      1474      6452      6455
 -1     41018    3    0    3
 -2      1192      3858      6456      5191
 -1     41019    3    0    3
 -2      6452      1474      1299      6455
 -1     41020    3    0    3
 -2      1474      1355      1299      6455
 -1     41021    3    0    3
 -2      3858      5192      4251      6456
 -1     41022    3    0    3
 -2      5111      1004      3760      6435
 -1     41023    3    0    3
 -2      3858      1029      5118      5115
 -1     41024    3    0    3
 -2       214      6559       215       842
 -1     41025    3    0    3
 -2      1004      5111      3760      5110
 -1     41026    3    0    3
 -2      1092      1029       930      6456
 -1     41027    3    0    3
 -2       709      6458      5123      5126
 -1     41028    3    0    3
 -2      5192       930      4251      6456
 -1     41029    3    0    3
 -2      3194       128      3193      6457
 -1     41030    3    0    3
 -2       697       128      3194      6457
 -1     41031    3    0    3
 -2       838       128       697      6457
 -1     41032    3    0    3
 -2      6079       922      6458      5195
 -1     41033    3    0    3
 -2      6079       922      1176      1128
 -1     41034    3    0    3
 -2      6180      1720      2020      2061
 -1     41035    3    0    3
 -2      2344      6722      5795      5777
 -1     41036    3    0    3
 -2      6079      5196      5195      6458
 -1     41037    3    0    3
 -2      5196      4336      5195      6458
 -1     41038    3    0    3
 -2      2344      6722      2419      2154
 -1     41039    3    0    3
 -2       755      3874       934      5537
 -1     41040    3    0    3
 -2      1074       862      1129      6769
 -1     41041    3    0    3
 -2      6079      1129      6459      6769
 -1     41042    3    0    3
 -2      5196      3787      5198      6769
 -1     41043    3    0    3
 -2      6462      2674      4613      6437
 -1     41044    3    0    3
 -2      1580      1421      1566      6460
 -1     41045    3    0    3
 -2      1480      6613      1481      5554
 -1     41046    3    0    3
 -2      5211      4069      5166      6460
 -1     41047    3    0    3
 -2      1480      6613      5553      1364
 -1     41048    3    0    3
 -2      2133      6120      4624      6439
 -1     41049    3    0    3
 -2      1592      1591      1498      6461
 -1     41050    3    0    3
 -2      1592      5183      1591      6461
 -1     41051    3    0    3
 -2      5185      1592      1497      6461
 -1     41052    3    0    3
 -2      1498      1497      1592      6461
 -1     41053    3    0    3
 -2      4619      4613      4103      6462
 -1     41054    3    0    3
 -2      6437      2674      2572      6462
 -1     41055    3    0    3
 -2      2674      2700      2572      6462
 -1     41056    3    0    3
 -2      2572      2700      2701      6462
 -1     41057    3    0    3
 -2      1067      5210      6204      3498
 -1     41058    3    0    3
 -2      6462      2700      2701      6744
 -1     41059    3    0    3
 -2      2670      4613      4619      6463
 -1     41060    3    0    3
 -2      4613      2670      4619      5723
 -1     41061    3    0    3
 -2      6623      1914      1950      2246
 -1     41062    3    0    3
 -2      1914      6623      1950      6482
 -1     41063    3    0    3
 -2      6611      1604      1624      1608
 -1     41064    3    0    3
 -2      5898      1644      5587      1584
 -1     41065    3    0    3
 -2      5898      1644      1584      1645
 -1     41066    3    0    3
 -2      5898      1644      1645      5585
 -1     41067    3    0    3
 -2      1637      5659      1638      5397
 -1     41068    3    0    3
 -2       485      6761      3340      3367
 -1     41069    3    0    3
 -2      1156      1363      1296      6781
 -1     41070    3    0    3
 -2      6785      3102      3127      6526
 -1     41071    3    0    3
 -2      6313       967       937      6465
 -1     41072    3    0    3
 -2       967       821       937      6465
 -1     41073    3    0    3
 -2      6046      3678      1788      6044
 -1     41074    3    0    3
 -2      5436      5435      1500      6109
 -1     41075    3    0    3
 -2      4114      5170      5173      6626
 -1     41076    3    0    3
 -2      5170      6466      5173      6626
 -1     41077    3    0    3
 -2      5162      1531      6505      1466
 -1     41078    3    0    3
 -2      5862      2490      4985      6801
 -1     41079    3    0    3
 -2      6465      4512      3260      6467
 -1     41080    3    0    3
 -2      5224      4512      6465      6467
 -1     41081    3    0    3
 -2      3945      6608      4660      3917
 -1     41082    3    0    3
 -2      5223      1316      5415      6156
 -1     41083    3    0    3
 -2      5774      5542      5545      3693
 -1     41084    3    0    3
 -2      4110      2019      3653      4641
 -1     41085    3    0    3
 -2      1223      5223      6313      6468
 -1     41086    3    0    3
 -2      1223      1246      5223      6468
 -1     41087    3    0    3
 -2      6313       937      1223      6468
 -1     41088    3    0    3
 -2      1223       937      1246      6468
 -1     41089    3    0    3
 -2      6469      4635      4624      6609
 -1     41090    3    0    3
 -2      4110      4624      4635      6609
 -1     41091    3    0    3
 -2      1498      6480      1525      1496
 -1     41092    3    0    3
 -2      1963      3975      3564      6586
 -1     41093    3    0    3
 -2      3975      1963      3564      4633
 -1     41094    3    0    3
 -2      6590      4629      3962      6788
 -1     41095    3    0    3
 -2      6416      6051       701      6470
 -1     41096    3    0    3
 -2      6183      4731      4014      6128
 -1     41097    3    0    3
 -2      6416       701       849      6470
 -1     41098    3    0    3
 -2       126       849       701      6470
 -1     41099    3    0    3
 -2      4055      4616      5180      4021
 -1     41100    3    0    3
 -2      4616      4055      5180      4022
 -1     41101    3    0    3
 -2      1238      1298      6454      6471
 -1     41102    3    0    3
 -2       214      6559      3099       215
 -1     41103    3    0    3
 -2      1216      1298      1238      6471
 -1     41104    3    0    3
 -2      6583      4561      3978      4664
 -1     41105    3    0    3
 -2      2593      6194      2560      6045
 -1     41106    3    0    3
 -2      2929      5230       847       848
 -1     41107    3    0    3
 -2      5542       868      1109      6473
 -1     41108    3    0    3
 -2      1932      3621      1933      4637
 -1     41109    3    0    3
 -2      1932      3621      6152      1933
 -1     41110    3    0    3
 -2      6142      4161      6548      6551
 -1     41111    3    0    3
 -2      3905      6456      6078      5194
 -1     41112    3    0    3
 -2      3905      6456      5191      6078
 -1     41113    3    0    3
 -2       704       900       703      6474
 -1     41114    3    0    3
 -2       704      3242      5206      6474
 -1     41115    3    0    3
 -2      4443      5206      3242      6474
 -1     41116    3    0    3
 -2      5114       186       750       828
 -1     41117    3    0    3
 -2      3629      2079      4631      2044
 -1     41118    3    0    3
 -2      6488      6501      1426      1425
 -1     41119    3    0    3
 -2      5726       989      1094      6475
 -1     41120    3    0    3
 -2      1094       989       913      6475
 -1     41121    3    0    3
 -2      5190       989      5726      6475
 -1     41122    3    0    3
 -2       993      6489       721       967
 -1     41123    3    0    3
 -2      5222      3921      4658      3979
 -1     41124    3    0    3
 -2      3921      5222      4658      4425
 -1     41125    3    0    3
 -2      5774      5542      5544      6476
 -1     41126    3    0    3
 -2        75      5070       511       592
 -1     41127    3    0    3
 -2       883      6372      6741      5994
 -1     41128    3    0    3
 -2      1086      1109      1213      6476
 -1     41129    3    0    3
 -2      5544      1213      5774      6476
 -1     41130    3    0    3
 -2      5544      1086      1213      6476
 -1     41131    3    0    3
 -2      3873      4980      4485      6477
 -1     41132    3    0    3
 -2      6091      1076      6294      5442
 -1     41133    3    0    3
 -2      6488      6501      1425      5172
 -1     41134    3    0    3
 -2      4990      2344      6758      2425
 -1     41135    3    0    3
 -2      5184      5187      4017      4047
 -1     41136    3    0    3
 -2      6442      5184      5714      5178
 -1     41137    3    0    3
 -2      3537       974       894      5636
 -1     41138    3    0    3
 -2      4892       334      3387      1697
 -1     41139    3    0    3
 -2      4892       334      1697      1696
 -1     41140    3    0    3
 -2      6476      1108      1109      6478
 -1     41141    3    0    3
 -2       869      1109      1108      6478
 -1     41142    3    0    3
 -2      6538      6502      5157      6490
 -1     41143    3    0    3
 -2      6538      6502      6490      5158
 -1     41144    3    0    3
 -2      6538      6502      4225      5157
 -1     41145    3    0    3
 -2      6538      6502      5158      4225
 -1     41146    3    0    3
 -2      5184      5187      4047      6442
 -1     41147    3    0    3
 -2      2700      6462      6463      6744
 -1     41148    3    0    3
 -2      3557      4162      4190      5097
 -1     41149    3    0    3
 -2       406      6494      3049      3050
 -1     41150    3    0    3
 -2      1864      6482      4658      1914
 -1     41151    3    0    3
 -2      1864      6482      1914      1872
 -1     41152    3    0    3
 -2      5184      6442      6451      6480
 -1     41153    3    0    3
 -2      6461      5184      6451      6480
 -1     41154    3    0    3
 -2      4859      4858      2184      6224
 -1     41155    3    0    3
 -2      1981      4808      1982      5737
 -1     41156    3    0    3
 -2      6451      6442      1525      6480
 -1     41157    3    0    3
 -2      1922      5043      1753      2026
 -1     41158    3    0    3
 -2      1123      6435      6768      1122
 -1     41159    3    0    3
 -2      1123      6435      6453      6768
 -1     41160    3    0    3
 -2      2340      2267      2449      6481
 -1     41161    3    0    3
 -2      4648      2267      2183      6481
 -1     41162    3    0    3
 -2      2340      2183      2267      6481
 -1     41163    3    0    3
 -2      4648      2183      4647      6481
 -1     41164    3    0    3
 -2      4647      2183      2340      6481
 -1     41165    3    0    3
 -2      6161       489       488      6606
 -1     41166    3    0    3
 -2      6392      1159      1201      1367
 -1     41167    3    0    3
 -2      3538      3243      4642      3219
 -1     41168    3    0    3
 -2      3178       321      3179      6607
 -1     41169    3    0    3
 -2      6392      1159      1367      5551
 -1     41170    3    0    3
 -2      6606      3262      1781      6622
 -1     41171    3    0    3
 -2      2472      2471      4814      6483
 -1     41172    3    0    3
 -2      2471      2472      2496      6483
 -1     41173    3    0    3
 -2      2471      4813      4814      6483
 -1     41174    3    0    3
 -2      2497      4813      2471      6483
 -1     41175    3    0    3
 -2      2496      2497      2471      6483
 -1     41176    3    0    3
 -2      2497      2496      4609      6483
 -1     41177    3    0    3
 -2      6012      2495      2470      6669
 -1     41178    3    0    3
 -2      4647      2359      2183      6484
 -1     41179    3    0    3
 -2      2183      2359      2182      6484
 -1     41180    3    0    3
 -2      3945      4657      4658      6623
 -1     41181    3    0    3
 -2      6330      5725      2095      6774
 -1     41182    3    0    3
 -2      4659      2246      4657      6623
 -1     41183    3    0    3
 -2      3945      4659      4657      6623
 -1     41184    3    0    3
 -2      1195      5363      5570      5846
 -1     41185    3    0    3
 -2      3490      3994      4067      5453
 -1     41186    3    0    3
 -2      4167       926      5526      3630
 -1     41187    3    0    3
 -2      6250      5785      4976      6485
 -1     41188    3    0    3
 -2       508       537      3997       536
 -1     41189    3    0    3
 -2      6494      4593      6783      5667
 -1     41190    3    0    3
 -2      4970      4978      4969      1927
 -1     41191    3    0    3
 -2      3631      5546      5545      6778
 -1     41192    3    0    3
 -2      6392      1201      5540      5793
 -1     41193    3    0    3
 -2      6486      1387      6391      6778
 -1     41194    3    0    3
 -2      1201      6392      5540      6487
 -1     41195    3    0    3
 -2      4138      5533      3737      6487
 -1     41196    3    0    3
 -2      6494      4593      5667      6536
 -1     41197    3    0    3
 -2      1922      3935      5782      5039
 -1     41198    3    0    3
 -2      6022      1386      1293      1597
 -1     41199    3    0    3
 -2      3398       646      5466      5787
 -1     41200    3    0    3
 -2      3118      6112      6527      3120
 -1     41201    3    0    3
 -2      3118      6112      3120       481
 -1     41202    3    0    3
 -2      6774      5718      1865      1709
 -1     41203    3    0    3
 -2      5099       180       850       664
 -1     41204    3    0    3
 -2      1620      5166      5172      6501
 -1     41205    3    0    3
 -2      5220       138      3266       673
 -1     41206    3    0    3
 -2       967      5222      6465      6313
 -1     41207    3    0    3
 -2      3176       721      5227      6489
 -1     41208    3    0    3
 -2      3176      5227      4010      6489
 -1     41209    3    0    3
 -2      3177       140      3176      6489
 -1     41210    3    0    3
 -2       140       721      3176      6489
 -1     41211    3    0    3
 -2      1635      5163      5165      6511
 -1     41212    3    0    3
 -2       722       997      5158      6490
 -1     41213    3    0    3
 -2       917       997       722      6490
 -1     41214    3    0    3
 -2      4225      5169      5167      6502
 -1     41215    3    0    3
 -2      3074      6490      5158      6538
 -1     41216    3    0    3
 -2      4577      4583      4363      3496
 -1     41217    3    0    3
 -2      6184       935      1197      6503
 -1     41218    3    0    3
 -2      6490       917       997      6502
 -1     41219    3    0    3
 -2      6490       997      5158      6502
 -1     41220    3    0    3
 -2      2177      4631      6585      6083
 -1     41221    3    0    3
 -2       944      1048      1196      6523
 -1     41222    3    0    3
 -2      4631      2177      6585      6581
 -1     41223    3    0    3
 -2       945      5155      6491      6533
 -1     41224    3    0    3
 -2       996      5156       669      6533
 -1     41225    3    0    3
 -2      6491      5156       996      6533
 -1     41226    3    0    3
 -2      6103      5161      1100      6491
 -1     41227    3    0    3
 -2      6103      1100      1107      6491
 -1     41228    3    0    3
 -2      4831      6660      6678      4083
 -1     41229    3    0    3
 -2      2484      6138      6492      6630
 -1     41230    3    0    3
 -2      2118      2035      6209      6492
 -1     41231    3    0    3
 -2      2118      2501      2035      6492
 -1     41232    3    0    3
 -2      4569      6528      6117      6782
 -1     41233    3    0    3
 -2      4583      4584      4287      6558
 -1     41234    3    0    3
 -2      6022      1443      5373      6493
 -1     41235    3    0    3
 -2      6466      1423      1597      6493
 -1     41236    3    0    3
 -2      1597      1423      1443      6493
 -1     41237    3    0    3
 -2       834      3728      2906      5098
 -1     41238    3    0    3
 -2      6022      1597      1443      6493
 -1     41239    3    0    3
 -2       477      5091       225      3094
 -1     41240    3    0    3
 -2      2592      6370      2610      2558
 -1     41241    3    0    3
 -2      6022      1386      5170      6497
 -1     41242    3    0    3
 -2      3763      6142      6545      5140
 -1     41243    3    0    3
 -2      1519      5168      1531      6495
 -1     41244    3    0    3
 -2      5168      1519      5171      6495
 -1     41245    3    0    3
 -2      3453      5768      6409      5561
 -1     41246    3    0    3
 -2      3122      3101      4389      3904
 -1     41247    3    0    3
 -2      5155      3033       705      6507
 -1     41248    3    0    3
 -2      5147      6563      4333      6506
 -1     41249    3    0    3
 -2      1519      6626      1426      1427
 -1     41250    3    0    3
 -2      6525      3030      6599      6789
 -1     41251    3    0    3
 -2      5458      3424      3437      4365
 -1     41252    3    0    3
 -2      6525      3030      3078      3090
 -1     41253    3    0    3
 -2      6306      1360      6293      1326
 -1     41254    3    0    3
 -2      5551      3576      5839      6496
 -1     41255    3    0    3
 -2      3576      5551      5552      6496
 -1     41256    3    0    3
 -2      5839      3576      5550      6496
 -1     41257    3    0    3
 -2      3576      5552      5550      6496
 -1     41258    3    0    3
 -2      5372      4143      5169      6497
 -1     41259    3    0    3
 -2      6022      5170      4143      6497
 -1     41260    3    0    3
 -2      5170      5169      4143      6497
 -1     41261    3    0    3
 -2      6508      1407      5148      1655
 -1     41262    3    0    3
 -2      6508      1407      1655      1662
 -1     41263    3    0    3
 -2      6185      4280      4905      4059
 -1     41264    3    0    3
 -2      6598      4279      4595      6537
 -1     41265    3    0    3
 -2      6598      4279      4597      4229
 -1     41266    3    0    3
 -2      6495      5171      5165      6500
 -1     41267    3    0    3
 -2      5171      6495      5165      4148
 -1     41268    3    0    3
 -2      5091       477       225       801
 -1     41269    3    0    3
 -2      3269      3706      3240      3923
 -1     41270    3    0    3
 -2      4596      4178      4598      6627
 -1     41271    3    0    3
 -2      5462      4507      4898      3459
 -1     41272    3    0    3
 -2      4596      4599      4178      6627
 -1     41273    3    0    3
 -2      4114      5168      5170      6626
 -1     41274    3    0    3
 -2      3075      6792      4805      5962
 -1     41275    3    0    3
 -2      5148      6784      5142      4314
 -1     41276    3    0    3
 -2      1519      6495      1621      6500
 -1     41277    3    0    3
 -2      6495      1519      1621      1531
 -1     41278    3    0    3
 -2      6171      3905      4627      4629
 -1     41279    3    0    3
 -2      6784      5148      5142      6516
 -1     41280    3    0    3
 -2      4096      5165      5171      6501
 -1     41281    3    0    3
 -2      6500      5165      1634      6501
 -1     41282    3    0    3
 -2      5164      5166      1633      6512
 -1     41283    3    0    3
 -2      1101      1197       935      6503
 -1     41284    3    0    3
 -2       917       935      6184      6502
 -1     41285    3    0    3
 -2      3453      6409      5563      5561
 -1     41286    3    0    3
 -2      6169      2196      2015      2129
 -1     41287    3    0    3
 -2       669      5156       936      6745
 -1     41288    3    0    3
 -2      6503       936      5156      6745
 -1     41289    3    0    3
 -2      5157      4255      5156      6503
 -1     41290    3    0    3
 -2       936      5156      5161      6503
 -1     41291    3    0    3
 -2      5156      4255      5161      6503
 -1     41292    3    0    3
 -2      3058       237       812      6534
 -1     41293    3    0    3
 -2      3069       237      3058      6534
 -1     41294    3    0    3
 -2      4605      4603      4171      6602
 -1     41295    3    0    3
 -2      4813      4810      4093      6685
 -1     41296    3    0    3
 -2      1621      5165      6495      6505
 -1     41297    3    0    3
 -2      6504      2634      2695      6634
 -1     41298    3    0    3
 -2      6602      2635      2634      6634
 -1     41299    3    0    3
 -2      2695      2634      2635      6634
 -1     41300    3    0    3
 -2      4606      4609      4093      6685
 -1     41301    3    0    3
 -2      1635      5165      1621      6505
 -1     41302    3    0    3
 -2      1519      6626      5168      5171
 -1     41303    3    0    3
 -2      6626      1519      5168      6203
 -1     41304    3    0    3
 -2      1531      1621      6495      6505
 -1     41305    3    0    3
 -2      6171      3905      6787      4628
 -1     41306    3    0    3
 -2      1531      1466      1621      6505
 -1     41307    3    0    3
 -2      4034      5141      5142      6543
 -1     41308    3    0    3
 -2      5133      4309      5149      6523
 -1     41309    3    0    3
 -2      6507       944      5155      6523
 -1     41310    3    0    3
 -2      2031      4646      6615      2144
 -1     41311    3    0    3
 -2      2409      4585      6558      6565
 -1     41312    3    0    3
 -2      6651       406      3050      6494
 -1     41313    3    0    3
 -2      3993      5692      4834      5690
 -1     41314    3    0    3
 -2      3993      5692      5690      6058
 -1     41315    3    0    3
 -2      5148      6784      4314      5147
 -1     41316    3    0    3
 -2      5148      6784      6520      6516
 -1     41317    3    0    3
 -2      5148      6784      5147      6520
 -1     41318    3    0    3
 -2      4569      4309      6647      6648
 -1     41319    3    0    3
 -2      6789      5155      3033      6599
 -1     41320    3    0    3
 -2      6506      5133      5149      6523
 -1     41321    3    0    3
 -2      6651       406      6494      1829
 -1     41322    3    0    3
 -2       675       218      5130       676
 -1     41323    3    0    3
 -2      6506      5149      5147      6554
 -1     41324    3    0    3
 -2      1662      5142      6508      6516
 -1     41325    3    0    3
 -2      1405      1407      5148      6520
 -1     41326    3    0    3
 -2      6106      2487      2353      2354
 -1     41327    3    0    3
 -2      6202      2690      4610      6509
 -1     41328    3    0    3
 -2      3921      5212      4648      3979
 -1     41329    3    0    3
 -2      2690      2496      4610      6509
 -1     41330    3    0    3
 -2      4260      4578      4581      6510
 -1     41331    3    0    3
 -2      4576      6567      1913      6572
 -1     41332    3    0    3
 -2      2715      2537      2538      6553
 -1     41333    3    0    3
 -2      4579      4239      4581      6566
 -1     41334    3    0    3
 -2      3962      3991      4618      3932
 -1     41335    3    0    3
 -2      6505      1465      1635      6511
 -1     41336    3    0    3
 -2      5163      1635      1465      6511
 -1     41337    3    0    3
 -2      6505      1635      5165      6511
 -1     41338    3    0    3
 -2      5163      5165      4118      6512
 -1     41339    3    0    3
 -2      3110      4389      3154      3112
 -1     41340    3    0    3
 -2      5163      1633      1635      6512
 -1     41341    3    0    3
 -2       409      6791      6650      1754
 -1     41342    3    0    3
 -2      6528      6526      6646      6117
 -1     41343    3    0    3
 -2      4831      6660      4083      4819
 -1     41344    3    0    3
 -2      4118      5164      5163      6512
 -1     41345    3    0    3
 -2      5163      5164      1633      6512
 -1     41346    3    0    3
 -2      3557      4162      3963      5175
 -1     41347    3    0    3
 -2      6479      2586      2454      6513
 -1     41348    3    0    3
 -2      2454      2586      2578      6513
 -1     41349    3    0    3
 -2      6479      2454      4622      6513
 -1     41350    3    0    3
 -2      4622      2454      2578      6513
 -1     41351    3    0    3
 -2      2641      2588      4645      6514
 -1     41352    3    0    3
 -2      4645      4600      2641      6514
 -1     41353    3    0    3
 -2      4585      6782      4583      6565
 -1     41354    3    0    3
 -2      4650       317      1835       316
 -1     41355    3    0    3
 -2      4037      5166      5172      6515
 -1     41356    3    0    3
 -2      5166      1451      5172      6515
 -1     41357    3    0    3
 -2      5172      5221      4037      6515
 -1     41358    3    0    3
 -2      5172      1451      5221      6515
 -1     41359    3    0    3
 -2      6520      5147      5148      6554
 -1     41360    3    0    3
 -2      3489      5721      4359      5139
 -1     41361    3    0    3
 -2      1063      6517      6524      6541
 -1     41362    3    0    3
 -2      4363      5141      4290      6784
 -1     41363    3    0    3
 -2      4178      6600      4601      4148
 -1     41364    3    0    3
 -2      4178      6600      4148      4598
 -1     41365    3    0    3
 -2      6462      4076      4619      6744
 -1     41366    3    0    3
 -2      1063      1455      6517      6541
 -1     41367    3    0    3
 -2      1565      5148      6122      6555
 -1     41368    3    0    3
 -2      4184      4157      4122      4588
 -1     41369    3    0    3
 -2      4590      4587      4589      4184
 -1     41370    3    0    3
 -2      4184      4157      5152      4122
 -1     41371    3    0    3
 -2      1565      1564      1405      6555
 -1     41372    3    0    3
 -2      5148      1565      1405      6555
 -1     41373    3    0    3
 -2      4287      5148      5147      6554
 -1     41374    3    0    3
 -2      1568      5150      6122      6521
 -1     41375    3    0    3
 -2      6506      5133      6563      4333
 -1     41376    3    0    3
 -2      1567      5150      1568      6521
 -1     41377    3    0    3
 -2      6136      2485      2657      4584
 -1     41378    3    0    3
 -2       695      5107      2970      5110
 -1     41379    3    0    3
 -2      2657      6597      2671      6136
 -1     41380    3    0    3
 -2      1873      6610      6615      6614
 -1     41381    3    0    3
 -2      1155      5774      5545      6393
 -1     41382    3    0    3
 -2      6517      6506      1068      6519
 -1     41383    3    0    3
 -2      6435      6447      1122      1004
 -1     41384    3    0    3
 -2      6650      3044      3043      3042
 -1     41385    3    0    3
 -2      1406      1407      1405      6520
 -1     41386    3    0    3
 -2      5851      3848      1167      6800
 -1     41387    3    0    3
 -2      1063       875      1406      6541
 -1     41388    3    0    3
 -2      2537      2486      6566      2389
 -1     41389    3    0    3
 -2      1455      1063      1406      6541
 -1     41390    3    0    3
 -2      6541      1027      1406      6543
 -1     41391    3    0    3
 -2      6518      1567      5150      6178
 -1     41392    3    0    3
 -2      1593      6178      5160      1398
 -1     41393    3    0    3
 -2      2638      4788      5972      2606
 -1     41394    3    0    3
 -2      4209      5150      6518      6521
 -1     41395    3    0    3
 -2      2107      6154      2305      4612
 -1     41396    3    0    3
 -2      5133      6506      6563      6519
 -1     41397    3    0    3
 -2      2638      4788      2557      4794
 -1     41398    3    0    3
 -2      2638      4788      2606      2557
 -1     41399    3    0    3
 -2      5159      1106      1396      6522
 -1     41400    3    0    3
 -2      6113      3064      3090      3087
 -1     41401    3    0    3
 -2      3054      6538      5157      6490
 -1     41402    3    0    3
 -2      1436      5360      5354      5983
 -1     41403    3    0    3
 -2      2031      4646      2267      4164
 -1     41404    3    0    3
 -2      6506      5149      1310      6523
 -1     41405    3    0    3
 -2      1196      5149      6522      6523
 -1     41406    3    0    3
 -2      6559      5132      6524      6540
 -1     41407    3    0    3
 -2      6522      5159      1106      6523
 -1     41408    3    0    3
 -2      5159       944      1106      6523
 -1     41409    3    0    3
 -2      6522      1106      1196      6523
 -1     41410    3    0    3
 -2       944      1196      1106      6523
 -1     41411    3    0    3
 -2      5374      6656      4087      5375
 -1     41412    3    0    3
 -2       875      1027      1406      6541
 -1     41413    3    0    3
 -2      6516      1665      5142      6543
 -1     41414    3    0    3
 -2      6524      6517      5147      6541
 -1     41415    3    0    3
 -2      6516      6520      6543      6784
 -1     41416    3    0    3
 -2      6524      6517       941      6540
 -1     41417    3    0    3
 -2      6774      5718      1709      5713
 -1     41418    3    0    3
 -2      6517      1068       941      6540
 -1     41419    3    0    3
 -2      1754       409      1755      6650
 -1     41420    3    0    3
 -2      3131      1763      1703       412
 -1     41421    3    0    3
 -2      6647      6530      4569      6648
 -1     41422    3    0    3
 -2      4591      6113      4279      6749
 -1     41423    3    0    3
 -2      6242      1139      6239      6803
 -1     41424    3    0    3
 -2      3143      3118       480      6638
 -1     41425    3    0    3
 -2      5132      6798      4333      6563
 -1     41426    3    0    3
 -2      3080      6112      6507      6789
 -1     41427    3    0    3
 -2      2296      5678      5769      4993
 -1     41428    3    0    3
 -2      3152      3127      3102      6526
 -1     41429    3    0    3
 -2      6626      1596      6203      5170
 -1     41430    3    0    3
 -2      6527      3118      3147      6798
 -1     41431    3    0    3
 -2      2671      4589      2672      4587
 -1     41432    3    0    3
 -2      3131      3127      3152      6526
 -1     41433    3    0    3
 -2      3131      4568      3127      6526
 -1     41434    3    0    3
 -2      6779      1194      5295      6420
 -1     41435    3    0    3
 -2      3147      3111      5132      6798
 -1     41436    3    0    3
 -2      6650      3044      6525      3043
 -1     41437    3    0    3
 -2      4568      4389      3111      6561
 -1     41438    3    0    3
 -2      6526      4568      3127      6785
 -1     41439    3    0    3
 -2      3496      6209      6492      6782
 -1     41440    3    0    3
 -2      1733      2127      2118      6528
 -1     41441    3    0    3
 -2      6520      1455      6554      1405
 -1     41442    3    0    3
 -2      6648      1754      4569      2086
 -1     41443    3    0    3
 -2      6648      1754      2086      5711
 -1     41444    3    0    3
 -2      6650      6648      1754      6791
 -1     41445    3    0    3
 -2      1733      1912      2127      6528
 -1     41446    3    0    3
 -2       674       842       215      6559
 -1     41447    3    0    3
 -2      4570      4573      4149      3109
 -1     41448    3    0    3
 -2      3101      3100      3099      6529
 -1     41449    3    0    3
 -2      3101      3904      3100      6529
 -1     41450    3    0    3
 -2      6644      4309      4569      6648
 -1     41451    3    0    3
 -2      6644      4569      2086      6648
 -1     41452    3    0    3
 -2      6798      5132      4333      6561
 -1     41453    3    0    3
 -2      6668      4168      4811      6792
 -1     41454    3    0    3
 -2      3111      4568      6561      6785
 -1     41455    3    0    3
 -2      6528      1912      4569      6646
 -1     41456    3    0    3
 -2      6647      4333      4309      4569
 -1     41457    3    0    3
 -2      5155      6789      3033      6507
 -1     41458    3    0    3
 -2      6531      6113      5156      6535
 -1     41459    3    0    3
 -2      3081      3087      3064      6531
 -1     41460    3    0    3
 -2      6163      1467      1476      1319
 -1     41461    3    0    3
 -2      3069      3081      3070      6531
 -1     41462    3    0    3
 -2      3070      5155       668      6533
 -1     41463    3    0    3
 -2      6531      5156      5155      6533
 -1     41464    3    0    3
 -2      5155      3070      6531      6533
 -1     41465    3    0    3
 -2      3070      3069      6531      6533
 -1     41466    3    0    3
 -2       690      3368       172      6532
 -1     41467    3    0    3
 -2      5738      2087      1930      2263
 -1     41468    3    0    3
 -2      3376       691       172      6532
 -1     41469    3    0    3
 -2       690       172       691      6532
 -1     41470    3    0    3
 -2      4275      5323      3246      3227
 -1     41471    3    0    3
 -2      1789      5755      2090      1757
 -1     41472    3    0    3
 -2       668       238      3070      6533
 -1     41473    3    0    3
 -2       238       668       669      6533
 -1     41474    3    0    3
 -2       238      3069      3070      6533
 -1     41475    3    0    3
 -2       669      3069       238      6533
 -1     41476    3    0    3
 -2      3496      6561      4363      4389
 -1     41477    3    0    3
 -2      6791      3078      6525      6530
 -1     41478    3    0    3
 -2      6791      3078      6530       479
 -1     41479    3    0    3
 -2      6535      3082      3077      6536
 -1     41480    3    0    3
 -2      6535      3077      4592      6536
 -1     41481    3    0    3
 -2      3092      3077      4592      6535
 -1     41482    3    0    3
 -2      3077      3092      3081      6535
 -1     41483    3    0    3
 -2      2137      5005      5828      5773
 -1     41484    3    0    3
 -2      3082      3077      3081      6535
 -1     41485    3    0    3
 -2      1596      6626      1424      6466
 -1     41486    3    0    3
 -2      6520      1455      1405      1406
 -1     41487    3    0    3
 -2      6520      1455      1406      6541
 -1     41488    3    0    3
 -2      6520      1455      6541      6554
 -1     41489    3    0    3
 -2      3087      3081      3092      6535
 -1     41490    3    0    3
 -2      6531      3081      3087      6535
 -1     41491    3    0    3
 -2      3087      6113      6531      6535
 -1     41492    3    0    3
 -2      6501      1425      1620      1426
 -1     41493    3    0    3
 -2      5140      6557      4292      6142
 -1     41494    3    0    3
 -2      6113      4592      6535      6649
 -1     41495    3    0    3
 -2      4255      5157      5156      6536
 -1     41496    3    0    3
 -2      3082      6531      3081      3069
 -1     41497    3    0    3
 -2      1426      6500      5171      1519
 -1     41498    3    0    3
 -2      1426      6500      1519      1667
 -1     41499    3    0    3
 -2       707      5656      5663      3624
 -1     41500    3    0    3
 -2      5656       707      5663       807
 -1     41501    3    0    3
 -2      5131      6541      6524      4290
 -1     41502    3    0    3
 -2       958      4291      5525       654
 -1     41503    3    0    3
 -2      5157      3054       827      3058
 -1     41504    3    0    3
 -2      6211      5814      4053      4083
 -1     41505    3    0    3
 -2       958      5525       959       654
 -1     41506    3    0    3
 -2       958      5525      6544       959
 -1     41507    3    0    3
 -2      1632      5185      5154      6539
 -1     41508    3    0    3
 -2      1632      1592      5185      6539
 -1     41509    3    0    3
 -2      1592      1632      1545      6539
 -1     41510    3    0    3
 -2      5183      5185      1592      6539
 -1     41511    3    0    3
 -2      1545      5183      1592      6539
 -1     41512    3    0    3
 -2      1653      5151      5152      6542
 -1     41513    3    0    3
 -2      6527      5132      6540      6563
 -1     41514    3    0    3
 -2      6111       778      6519      6540
 -1     41515    3    0    3
 -2      5721      4034      5142      6543
 -1     41516    3    0    3
 -2       875      3546      1027      6541
 -1     41517    3    0    3
 -2      6408      3457      3516      5553
 -1     41518    3    0    3
 -2      6608      4853      6719      2008
 -1     41519    3    0    3
 -2      6597      2657      2671      2706
 -1     41520    3    0    3
 -2      5151      1653      5152      6450
 -1     41521    3    0    3
 -2      3622      3134      3095      3772
 -1     41522    3    0    3
 -2      1410      5145      5142      6557
 -1     41523    3    0    3
 -2      5145      1410      5142      6508
 -1     41524    3    0    3
 -2      5154      5153      1660      6542
 -1     41525    3    0    3
 -2      5154      4184      5153      6542
 -1     41526    3    0    3
 -2      5154      5152      4184      6542
 -1     41527    3    0    3
 -2      6549      5177      1368      6163
 -1     41528    3    0    3
 -2      5177      6549      1368      6440
 -1     41529    3    0    3
 -2      6541      5147      4290      6784
 -1     41530    3    0    3
 -2      4290      5141      6541      6784
 -1     41531    3    0    3
 -2      5147      4314      4363      6784
 -1     41532    3    0    3
 -2      5147      6541      6520      6784
 -1     41533    3    0    3
 -2      4290      5147      4363      6784
 -1     41534    3    0    3
 -2      6541      1406      6520      6543
 -1     41535    3    0    3
 -2      6518      1567      6521      5150
 -1     41536    3    0    3
 -2      2638      4788      4794      5972
 -1     41537    3    0    3
 -2      5018      2719      5019      5910
 -1     41538    3    0    3
 -2      5018      2719      5910      2688
 -1     41539    3    0    3
 -2      1619      6376      5357      5359
 -1     41540    3    0    3
 -2      6722      4979      5795      5777
 -1     41541    3    0    3
 -2      1619      6376      5359      1521
 -1     41542    3    0    3
 -2      5137       748      4359      6746
 -1     41543    3    0    3
 -2      4359       748      5720      6746
 -1     41544    3    0    3
 -2      5137      3138       748      6746
 -1     41545    3    0    3
 -2      4343      4573      5134      3129
 -1     41546    3    0    3
 -2      5140      3763      4437      6545
 -1     41547    3    0    3
 -2       986      3861      5095      6546
 -1     41548    3    0    3
 -2      5098      5095      4253      6546
 -1     41549    3    0    3
 -2      5095      5098       979      6546
 -1     41550    3    0    3
 -2      3557      5098      4253      6546
 -1     41551    3    0    3
 -2       979      5098      3557      6546
 -1     41552    3    0    3
 -2      5144      4253      3861      6546
 -1     41553    3    0    3
 -2       986      5144      3861      6546
 -1     41554    3    0    3
 -2      4408      5525       959      6550
 -1     41555    3    0    3
 -2      5839      5550      5549      6547
 -1     41556    3    0    3
 -2      5549      5550      3871      6547
 -1     41557    3    0    3
 -2      4579      4318      4576      4292
 -1     41558    3    0    3
 -2      3453      5768      5561      3482
 -1     41559    3    0    3
 -2      4318      4579      4576      4519
 -1     41560    3    0    3
 -2      4188      5175      5144      6549
 -1     41561    3    0    3
 -2      1462      6450      1653      6552
 -1     41562    3    0    3
 -2      6450      1462      1653      1467
 -1     41563    3    0    3
 -2      5144      6546      5175      4253
 -1     41564    3    0    3
 -2      6546      1172      1187      6549
 -1     41565    3    0    3
 -2      4578      2718      6630      6138
 -1     41566    3    0    3
 -2      6544      5804      1111      6550
 -1     41567    3    0    3
 -2      6544      1111       959      6550
 -1     41568    3    0    3
 -2       959      5525      6544      6550
 -1     41569    3    0    3
 -2      5525      5804      6544      6550
 -1     41570    3    0    3
 -2      5094      5091      3454      6551
 -1     41571    3    0    3
 -2       924      5091      5094      6551
 -1     41572    3    0    3
 -2      3454      5091      4161      6551
 -1     41573    3    0    3
 -2      5091       924      6548      6551
 -1     41574    3    0    3
 -2      4161      5091      6548      6551
 -1     41575    3    0    3
 -2      3453      5768      5558      6409
 -1     41576    3    0    3
 -2      1410      5145      1462      6552
 -1     41577    3    0    3
 -2      1410      1462      1654      6552
 -1     41578    3    0    3
 -2      1462      1653      1654      6552
 -1     41579    3    0    3
 -2      3622      3134      3133      3095
 -1     41580    3    0    3
 -2      5151      1653      6450      6552
 -1     41581    3    0    3
 -2      3676      3477      3016      4350
 -1     41582    3    0    3
 -2      6510      2503      4587      6136
 -1     41583    3    0    3
 -2      4292      4581      6569      6571
 -1     41584    3    0    3
 -2      2389      4582      6144      6566
 -1     41585    3    0    3
 -2      3676      3477      4547      3448
 -1     41586    3    0    3
 -2      6498      1596      6203      1392
 -1     41587    3    0    3
 -2      4581      6553      6569      6571
 -1     41588    3    0    3
 -2      4400       477      4031      5094
 -1     41589    3    0    3
 -2      6146      4075      6127      4718
 -1     41590    3    0    3
 -2      4592      6536      5667      4255
 -1     41591    3    0    3
 -2      4332      2888      4139      3005
 -1     41592    3    0    3
 -2      6528      6645      1733      1912
 -1     41593    3    0    3
 -2      6554      4287      5148      6555
 -1     41594    3    0    3
 -2      6133      4287      6554      6555
 -1     41595    3    0    3
 -2      1854      2982       430      4545
 -1     41596    3    0    3
 -2      1854      2982      4545      4548
 -1     41597    3    0    3
 -2      1854      2982      4548       431
 -1     41598    3    0    3
 -2      1854      2982       431       430
 -1     41599    3    0    3
 -2      6528      6645      6646      6526
 -1     41600    3    0    3
 -2      6146      4075      4718      4719
 -1     41601    3    0    3
 -2      6146      4075      6123      6127
 -1     41602    3    0    3
 -2      6146      4075      4719      6123
 -1     41603    3    0    3
 -2      4576      3824      4339      6556
 -1     41604    3    0    3
 -2      5140      4339      3824      6556
 -1     41605    3    0    3
 -2      5140      4292      4339      6556
 -1     41606    3    0    3
 -2      6142      6076      1409      6557
 -1     41607    3    0    3
 -2      6076      6142      5143      6557
 -1     41608    3    0    3
 -2      6076      5143      5145      6557
 -1     41609    3    0    3
 -2      5143      4292      5145      6557
 -1     41610    3    0    3
 -2      2525      2409      2450      6636
 -1     41611    3    0    3
 -2      1263      5161      5162      6108
 -1     41612    3    0    3
 -2      2086      2409      2127      6565
 -1     41613    3    0    3
 -2      6565      4583      6492      6782
 -1     41614    3    0    3
 -2      6528      6209      6117      6782
 -1     41615    3    0    3
 -2      4583      6492      6558      6565
 -1     41616    3    0    3
 -2      3904      5132      6559      6529
 -1     41617    3    0    3
 -2      5156      6536      4592      4255
 -1     41618    3    0    3
 -2      5850      5901      5016      2825
 -1     41619    3    0    3
 -2      6529      3100      3099      6559
 -1     41620    3    0    3
 -2       215      3099      3100      6559
 -1     41621    3    0    3
 -2      2710      4821      4815      6796
 -1     41622    3    0    3
 -2      6225      4903      2232      6560
 -1     41623    3    0    3
 -2      1916      2232      4903      6560
 -1     41624    3    0    3
 -2      6225      2232      2162      6560
 -1     41625    3    0    3
 -2      2232      1916      2162      6560
 -1     41626    3    0    3
 -2      5133      6638      6647      6789
 -1     41627    3    0    3
 -2      6218      5448      1255      6091
 -1     41628    3    0    3
 -2      6561      5132      3111      6798
 -1     41629    3    0    3
 -2      4565      2035      1763      1918
 -1     41630    3    0    3
 -2      3118      3143      3111      6798
 -1     41631    3    0    3
 -2      6507      6112      5133      6789
 -1     41632    3    0    3
 -2      4119      3208      4721      5284
 -1     41633    3    0    3
 -2      6791       479      6530      6646
 -1     41634    3    0    3
 -2      6791       479       478      3043
 -1     41635    3    0    3
 -2      4284      3412      3591      6562
 -1     41636    3    0    3
 -2      1763      3131      3130       412
 -1     41637    3    0    3
 -2      6138      2098      3964      6567
 -1     41638    3    0    3
 -2      6638      5133      6112      6789
 -1     41639    3    0    3
 -2      5448      6218      1255      6291
 -1     41640    3    0    3
 -2      6519      6517      6506      6563
 -1     41641    3    0    3
 -2      5813      4902      6232      6564
 -1     41642    3    0    3
 -2      4902      3591      6232      6564
 -1     41643    3    0    3
 -2      6138      2098      6567      2718
 -1     41644    3    0    3
 -2      6138      2098      2718      2125
 -1     41645    3    0    3
 -2      6138      2098      2125      3964
 -1     41646    3    0    3
 -2      6558      6492      2501      6565
 -1     41647    3    0    3
 -2      6492      2118      2501      6565
 -1     41648    3    0    3
 -2      6558      2501      2409      6565
 -1     41649    3    0    3
 -2      2118      2409      2501      6565
 -1     41650    3    0    3
 -2      6528      2127      2118      6565
 -1     41651    3    0    3
 -2      2127      2409      2118      6565
 -1     41652    3    0    3
 -2      4581      4579      6566      6571
 -1     41653    3    0    3
 -2       422      4525      3123      1871
 -1     41654    3    0    3
 -2      1900      3108      4570      3106
 -1     41655    3    0    3
 -2      1900      3108       418      1903
 -1     41656    3    0    3
 -2      1310      6554      5149      6506
 -1     41657    3    0    3
 -2      4213      4582      4588      6640
 -1     41658    3    0    3
 -2      4581      4213      4587      6640
 -1     41659    3    0    3
 -2      6554      1405      5148      6520
 -1     41660    3    0    3
 -2      1172      5175      6549      6546
 -1     41661    3    0    3
 -2      2502      2538      2517      6569
 -1     41662    3    0    3
 -2      4576      4292      6569      6572
 -1     41663    3    0    3
 -2      3664      4579      4576      6572
 -1     41664    3    0    3
 -2      4576      4579      4292      6572
 -1     41665    3    0    3
 -2      4578      4339      4576      3467
 -1     41666    3    0    3
 -2      4902      4904      4424      6568
 -1     41667    3    0    3
 -2      1751      5816      1953      6564
 -1     41668    3    0    3
 -2      4481      3388      5459      3414
 -1     41669    3    0    3
 -2      4424      4904      4903      6568
 -1     41670    3    0    3
 -2      6560      4903      4904      6568
 -1     41671    3    0    3
 -2      6560      6225      4903      6568
 -1     41672    3    0    3
 -2      2162      2231      6225      6568
 -1     41673    3    0    3
 -2      4525       422      3123      3093
 -1     41674    3    0    3
 -2      6572      6571      2516      6786
 -1     41675    3    0    3
 -2      3664      1913      1899      1995
 -1     41676    3    0    3
 -2      6569      6567      4576      6572
 -1     41677    3    0    3
 -2      1985      2260      2240      6570
 -1     41678    3    0    3
 -2      1985      3846      2260      6570
 -1     41679    3    0    3
 -2      4580      4579      3846      6570
 -1     41680    3    0    3
 -2      3846      4579      2260      6570
 -1     41681    3    0    3
 -2      6514      2518      4647      4602
 -1     41682    3    0    3
 -2      4400       477      2933       476
 -1     41683    3    0    3
 -2      4400       477      5094      2933
 -1     41684    3    0    3
 -2      6553      2538      6569      6571
 -1     41685    3    0    3
 -2      2538      2516      6569      6571
 -1     41686    3    0    3
 -2      2538      2486      2516      6571
 -1     41687    3    0    3
 -2      2126      2516      2486      6786
 -1     41688    3    0    3
 -2      6571      2486      2516      6786
 -1     41689    3    0    3
 -2      2486      4579      2126      6786
 -1     41690    3    0    3
 -2      4624      6609      2377      6469
 -1     41691    3    0    3
 -2      6609      4624      2377      2132
 -1     41692    3    0    3
 -2      4587      4581      6510      4260
 -1     41693    3    0    3
 -2      1913      3664      1899      3694
 -1     41694    3    0    3
 -2      6569      4292      6571      6572
 -1     41695    3    0    3
 -2      4900      3585      6275      6573
 -1     41696    3    0    3
 -2      4900      4478      4449      6573
 -1     41697    3    0    3
 -2      3585      4900      4449      6573
 -1     41698    3    0    3
 -2      4449      4478      4903      6573
 -1     41699    3    0    3
 -2      4903      3585      4449      6573
 -1     41700    3    0    3
 -2      4901      2221      6225      6573
 -1     41701    3    0    3
 -2      2221      4901      6225      6574
 -1     41702    3    0    3
 -2      2231      2221      6225      6574
 -1     41703    3    0    3
 -2      2221      2231      1954      6574
 -1     41704    3    0    3
 -2      2337      6247      4884      6579
 -1     41705    3    0    3
 -2      6247      2337      4884      4878
 -1     41706    3    0    3
 -2      3919       887      6140      5418
 -1     41707    3    0    3
 -2      2701      2572      6462      6595
 -1     41708    3    0    3
 -2      2547      2573      2587      6618
 -1     41709    3    0    3
 -2      1285      6454      6780      1346
 -1     41710    3    0    3
 -2      6319       723      6726       699
 -1     41711    3    0    3
 -2      5856      4958      3822      2104
 -1     41712    3    0    3
 -2      2416      4614      2573      6594
 -1     41713    3    0    3
 -2      2573      6618      4614      6595
 -1     41714    3    0    3
 -2      2107      3922      4536      6576
 -1     41715    3    0    3
 -2      4536      3922      4354      6576
 -1     41716    3    0    3
 -2      4612      3922      2107      6576
 -1     41717    3    0    3
 -2      4612      4354      3922      6576
 -1     41718    3    0    3
 -2      6266      3577      3636      4885
 -1     41719    3    0    3
 -2      6245      2134      4882      5674
 -1     41720    3    0    3
 -2       437      4560      1764      2886
 -1     41721    3    0    3
 -2       437      4560      1707      1764
 -1     41722    3    0    3
 -2      3649      4900      4277      6577
 -1     41723    3    0    3
 -2      4900      2222      1944      6577
 -1     41724    3    0    3
 -2      5735      5736      5030      5027
 -1     41725    3    0    3
 -2      6751      2761      2784      2783
 -1     41726    3    0    3
 -2      6243      4900      4899      6577
 -1     41727    3    0    3
 -2      4899      4900      3649      6577
 -1     41728    3    0    3
 -2      4541      3862      1999      6591
 -1     41729    3    0    3
 -2      4055      4254      4616      6578
 -1     41730    3    0    3
 -2      4616      4021      4055      6578
 -1     41731    3    0    3
 -2      4615      4254      4055      6578
 -1     41732    3    0    3
 -2      4021      4615      4055      6578
 -1     41733    3    0    3
 -2      6578      4615      4254      6591
 -1     41734    3    0    3
 -2      6578      4254      4616      6591
 -1     41735    3    0    3
 -2      1776      6577      1943      4932
 -1     41736    3    0    3
 -2      6268      4884      4897      6579
 -1     41737    3    0    3
 -2      4897      4884      6247      6579
 -1     41738    3    0    3
 -2      2510      6627      2679      2632
 -1     41739    3    0    3
 -2      4225      6536      6210      5157
 -1     41740    3    0    3
 -2      4225      6536      4593      6210
 -1     41741    3    0    3
 -2      2157      6125      6126      6580
 -1     41742    3    0    3
 -2      2196      2252      2157      6580
 -1     41743    3    0    3
 -2      6126      2158      2157      6580
 -1     41744    3    0    3
 -2      2196      2157      2158      6580
 -1     41745    3    0    3
 -2      2158      6126      6173      6580
 -1     41746    3    0    3
 -2      2196      2158      6173      6580
 -1     41747    3    0    3
 -2      2143      4618      6578      6094
 -1     41748    3    0    3
 -2      2174      2177      4631      6581
 -1     41749    3    0    3
 -2      2177      2174      2215      6581
 -1     41750    3    0    3
 -2      6168      1748      2081      2059
 -1     41751    3    0    3
 -2      4525      2126      3846      4097
 -1     41752    3    0    3
 -2      6168      1748      4549      4552
 -1     41753    3    0    3
 -2      3692      4553      4095      6584
 -1     41754    3    0    3
 -2      4095      4553      4556      6584
 -1     41755    3    0    3
 -2      6581      4633      6585      4631
 -1     41756    3    0    3
 -2      4036      4631      2079      6083
 -1     41757    3    0    3
 -2      6581      4633      6152      2215
 -1     41758    3    0    3
 -2      4877      2452      2467      6582
 -1     41759    3    0    3
 -2      2452      2475      2467      6582
 -1     41760    3    0    3
 -2      2467      2637      6084      6582
 -1     41761    3    0    3
 -2      2467      2475      2637      6582
 -1     41762    3    0    3
 -2      2252      6174      6580      6583
 -1     41763    3    0    3
 -2      6174      2252      2016      6583
 -1     41764    3    0    3
 -2      6580      6174      4632      6583
 -1     41765    3    0    3
 -2      3978      4632      6174      6583
 -1     41766    3    0    3
 -2      6580      4632      4712      6583
 -1     41767    3    0    3
 -2      4632      3978      4712      6583
 -1     41768    3    0    3
 -2      2044      3629      4556      6584
 -1     41769    3    0    3
 -2      4095      4556      3629      6584
 -1     41770    3    0    3
 -2      2044      4631      3629      6584
 -1     41771    3    0    3
 -2      4095      3629      4631      6584
 -1     41772    3    0    3
 -2      2174      4631      2044      6584
 -1     41773    3    0    3
 -2      2718      6569      4578      2502
 -1     41774    3    0    3
 -2      4628      6787      6171      6588
 -1     41775    3    0    3
 -2      4875      2452      4877      6582
 -1     41776    3    0    3
 -2      3787      4633      4631      6585
 -1     41777    3    0    3
 -2      6087      3932      5193      3794
 -1     41778    3    0    3
 -2      2215      1963      2225      6585
 -1     41779    3    0    3
 -2      2215      4633      1963      6585
 -1     41780    3    0    3
 -2      4525      2126      4524      1871
 -1     41781    3    0    3
 -2      1890       309      3272      6586
 -1     41782    3    0    3
 -2      5866      4493      1888      4390
 -1     41783    3    0    3
 -2      1890      1889       309      6586
 -1     41784    3    0    3
 -2      6581      3839      6152      4633
 -1     41785    3    0    3
 -2      6152      4628      2174      6588
 -1     41786    3    0    3
 -2      6047      2271      6196      2301
 -1     41787    3    0    3
 -2      6054      2279      2299      2436
 -1     41788    3    0    3
 -2      6079       970       922      5195
 -1     41789    3    0    3
 -2      1898      1965      4634      6587
 -1     41790    3    0    3
 -2       125      6470      3175       126
 -1     41791    3    0    3
 -2      2844      1758      2822       371
 -1     41792    3    0    3
 -2      5774      1155      6473      1109
 -1     41793    3    0    3
 -2      2216      2174      2173      6588
 -1     41794    3    0    3
 -2      6609      2017      4110      4624
 -1     41795    3    0    3
 -2      6609      2017      2019      4110
 -1     41796    3    0    3
 -2      2173      2427      2216      6588
 -1     41797    3    0    3
 -2      4327       983      5231      3947
 -1     41798    3    0    3
 -2      4773      6042      4744      3750
 -1     41799    3    0    3
 -2      4616      6596      2304      2000
 -1     41800    3    0    3
 -2      6171      6167      2427      6787
 -1     41801    3    0    3
 -2      6249      4885      2192      6589
 -1     41802    3    0    3
 -2      2241      5758      5801      4981
 -1     41803    3    0    3
 -2      6249      2192      2205      6589
 -1     41804    3    0    3
 -2      2192      1998      2205      6589
 -1     41805    3    0    3
 -2      4885      1998      2192      6589
 -1     41806    3    0    3
 -2      6575      4614      4080      4612
 -1     41807    3    0    3
 -2      6154      4611      2292      6593
 -1     41808    3    0    3
 -2      4611      6154      2292      6576
 -1     41809    3    0    3
 -2      6167      2332      2333      6590
 -1     41810    3    0    3
 -2      2332      2300      2333      6590
 -1     41811    3    0    3
 -2      4612      5176      4162      4129
 -1     41812    3    0    3
 -2      4627      4629      3962      6590
 -1     41813    3    0    3
 -2      4103      6595      4620      6462
 -1     41814    3    0    3
 -2      6480      1498      1525      6451
 -1     41815    3    0    3
 -2      2695      4607      2686      6504
 -1     41816    3    0    3
 -2      3862      4615      1999      6591
 -1     41817    3    0    3
 -2      3862      4254      4615      6591
 -1     41818    3    0    3
 -2      2152      2143      1999      6591
 -1     41819    3    0    3
 -2      3115      4571      3126      4495
 -1     41820    3    0    3
 -2      2152      1999      4615      6591
 -1     41821    3    0    3
 -2      2539      4618      4617      5710
 -1     41822    3    0    3
 -2      4618      2539      4617      6094
 -1     41823    3    0    3
 -2      2304      2333      6590      6592
 -1     41824    3    0    3
 -2      2333      2304      2374      6592
 -1     41825    3    0    3
 -2      4229      6511      4178      5160
 -1     41826    3    0    3
 -2      3919       799      5421      6140
 -1     41827    3    0    3
 -2      2377      6592      4618      6788
 -1     41828    3    0    3
 -2      3919       799      5422      5421
 -1     41829    3    0    3
 -2      4129      6154      6437      6593
 -1     41830    3    0    3
 -2      6154      4129      4611      6593
 -1     41831    3    0    3
 -2      6575      4614      4612      6154
 -1     41832    3    0    3
 -2      6590      2304      4616      6596
 -1     41833    3    0    3
 -2      6575      4614      6594      4080
 -1     41834    3    0    3
 -2      2407      6206      4603      2238
 -1     41835    3    0    3
 -2      2286      2429      2292      6593
 -1     41836    3    0    3
 -2      6575      4615      4080      6594
 -1     41837    3    0    3
 -2      3919       887      4420      5422
 -1     41838    3    0    3
 -2      5363      6331      5570      4406
 -1     41839    3    0    3
 -2      2416      6575      4614      6594
 -1     41840    3    0    3
 -2      6575      2416      4614      6154
 -1     41841    3    0    3
 -2      2304      6590      4616      6592
 -1     41842    3    0    3
 -2      6595      2587      2573      6618
 -1     41843    3    0    3
 -2      2547      2587      2656      6618
 -1     41844    3    0    3
 -2      4623      2656      2587      6618
 -1     41845    3    0    3
 -2      6129      5178      1314      6064
 -1     41846    3    0    3
 -2      6590      2300      2304      6596
 -1     41847    3    0    3
 -2      4604      2407      4603      6181
 -1     41848    3    0    3
 -2      6590      4616      4627      6596
 -1     41849    3    0    3
 -2      1531      5162      5168      6108
 -1     41850    3    0    3
 -2      6136      2671      4587      6597
 -1     41851    3    0    3
 -2      2671      4589      4587      6597
 -1     41852    3    0    3
 -2      6136      4587      4584      6597
 -1     41853    3    0    3
 -2      4233      4584      4587      6597
 -1     41854    3    0    3
 -2      4598      4597      4229      6598
 -1     41855    3    0    3
 -2      4507      5462      4898      4478
 -1     41856    3    0    3
 -2      4598      4229      4596      6598
 -1     41857    3    0    3
 -2      4595      4596      4229      6598
 -1     41858    3    0    3
 -2      4258      4596      4595      6629
 -1     41859    3    0    3
 -2      2127      4569      2086      6565
 -1     41860    3    0    3
 -2      6599      5155      6113      6749
 -1     41861    3    0    3
 -2       669      3069      5156      6534
 -1     41862    3    0    3
 -2       481      3030       480      6789
 -1     41863    3    0    3
 -2      3131      6209      4568      6526
 -1     41864    3    0    3
 -2      5145      1409      6557      1410
 -1     41865    3    0    3
 -2      6638       481       480      6789
 -1     41866    3    0    3
 -2      3080       481      6112      6789
 -1     41867    3    0    3
 -2      5357      1619      1440      1441
 -1     41868    3    0    3
 -2      5155      5133      4309      6647
 -1     41869    3    0    3
 -2      4164      3986      6615      4646
 -1     41870    3    0    3
 -2      2511      4601      2679      6600
 -1     41871    3    0    3
 -2      3269      3706      4653      3240
 -1     41872    3    0    3
 -2      4599      2661      6499      6627
 -1     41873    3    0    3
 -2      6525      6791      6650      3043
 -1     41874    3    0    3
 -2      6624      5847      5601      5590
 -1     41875    3    0    3
 -2      6499      2679      4601      6627
 -1     41876    3    0    3
 -2      6624      5847      6625      1001
 -1     41877    3    0    3
 -2      2684      2683      2519      6628
 -1     41878    3    0    3
 -2      6514      4600      2641      6643
 -1     41879    3    0    3
 -2      4600      6499      2652      6643
 -1     41880    3    0    3
 -2      6504      4607      2686      6601
 -1     41881    3    0    3
 -2      4148      6504      6600      6601
 -1     41882    3    0    3
 -2      4148      4607      6504      6601
 -1     41883    3    0    3
 -2      2635      2634      2321      6602
 -1     41884    3    0    3
 -2      2407      2321      2634      6602
 -1     41885    3    0    3
 -2      2407      2634      4604      6602
 -1     41886    3    0    3
 -2      2601      2635      2487      6634
 -1     41887    3    0    3
 -2      2635      4606      2487      6634
 -1     41888    3    0    3
 -2      4512      6620      5224      3887
 -1     41889    3    0    3
 -2      4625      4622      2454      6604
 -1     41890    3    0    3
 -2      4622      4625      2454      6479
 -1     41891    3    0    3
 -2      6116      4225      4594      6603
 -1     41892    3    0    3
 -2      5850      5901      2825      1812
 -1     41893    3    0    3
 -2      4605      4225      6206      6603
 -1     41894    3    0    3
 -2      4225      6116      6206      6603
 -1     41895    3    0    3
 -2      6206      1937      2138      6603
 -1     41896    3    0    3
 -2      6206      6116      1937      6603
 -1     41897    3    0    3
 -2      2443      2454      4622      6604
 -1     41898    3    0    3
 -2      2145      2454      2443      6604
 -1     41899    3    0    3
 -2      4625      2454      2145      6604
 -1     41900    3    0    3
 -2      4512      6620      3887      3213
 -1     41901    3    0    3
 -2      4512      6620      3213      6467
 -1     41902    3    0    3
 -2      4512      6620      6467      5224
 -1     41903    3    0    3
 -2      2581      2578      2580      6605
 -1     41904    3    0    3
 -2      2578      4622      6513      6605
 -1     41905    3    0    3
 -2      6666      1981      1882      5737
 -1     41906    3    0    3
 -2      4622      4076      6513      6605
 -1     41907    3    0    3
 -2      4622      4621      4076      6605
 -1     41908    3    0    3
 -2      6463      6462      4619      6744
 -1     41909    3    0    3
 -2      6514      4118      4602      4069
 -1     41910    3    0    3
 -2      3557      4162      5175      4190
 -1     41911    3    0    3
 -2      6469      4635      2302      6198
 -1     41912    3    0    3
 -2      6272      6314      6278      6228
 -1     41913    3    0    3
 -2      5885      3449      4790      5938
 -1     41914    3    0    3
 -2      6161      1730      6229      4853
 -1     41915    3    0    3
 -2      2182      4658      6623      1914
 -1     41916    3    0    3
 -2       322      3262      3179      6622
 -1     41917    3    0    3
 -2      1231      5590      5847      6625
 -1     41918    3    0    3
 -2      3178      1864       321      6607
 -1     41919    3    0    3
 -2      5227      5222      4010      6489
 -1     41920    3    0    3
 -2      1872       321      1864      6607
 -1     41921    3    0    3
 -2      6392      1159      5551      6487
 -1     41922    3    0    3
 -2      6392      1159      6487      1201
 -1     41923    3    0    3
 -2      2355      2285      2284      6719
 -1     41924    3    0    3
 -2      4852      6790      2298      2285
 -1     41925    3    0    3
 -2      4852      3976      4659      6698
 -1     41926    3    0    3
 -2      6525      6791      6648      6650
 -1     41927    3    0    3
 -2      6525      6791      6530      6648
 -1     41928    3    0    3
 -2      4635      2019      4110      6609
 -1     41929    3    0    3
 -2      2019      4635      4110      3653
 -1     41930    3    0    3
 -2      6469      2377      2302      6609
 -1     41931    3    0    3
 -2      5144      4216      4580      4243
 -1     41932    3    0    3
 -2      2132      2302      2377      6609
 -1     41933    3    0    3
 -2      2460      5969      6013      2363
 -1     41934    3    0    3
 -2      2145      4625      6615      6610
 -1     41935    3    0    3
 -2      4625      2145      6615      6604
 -1     41936    3    0    3
 -2      6436      4135      4625      6610
 -1     41937    3    0    3
 -2      2055      6720      6099      4853
 -1     41938    3    0    3
 -2      1604      5556      1669      6710
 -1     41939    3    0    3
 -2      5556      5562      5743      6707
 -1     41940    3    0    3
 -2      1412      5403      5411      5840
 -1     41941    3    0    3
 -2      1605      5555      5818      6611
 -1     41942    3    0    3
 -2      5555      1605      5818      6408
 -1     41943    3    0    3
 -2      5927      2857      2860      6777
 -1     41944    3    0    3
 -2      5282      1381      1241      6743
 -1     41945    3    0    3
 -2      4962      4964      2553      6612
 -1     41946    3    0    3
 -2      4964      4962      3460      6612
 -1     41947    3    0    3
 -2      5008      2553      4964      6612
 -1     41948    3    0    3
 -2      5008      4964      3460      6612
 -1     41949    3    0    3
 -2      6753      1379      5734      5597
 -1     41950    3    0    3
 -2      5862      4988      2492      6801
 -1     41951    3    0    3
 -2      1331      5528      5529      6613
 -1     41952    3    0    3
 -2      1331      5529      1481      6613
 -1     41953    3    0    3
 -2      1098      6725      5598      1391
 -1     41954    3    0    3
 -2      5592      5591      1328      6616
 -1     41955    3    0    3
 -2      5591      5592      1328      6343
 -1     41956    3    0    3
 -2      4814      2472      4610      6698
 -1     41957    3    0    3
 -2      6610      2145      2004      6615
 -1     41958    3    0    3
 -2      5711      4309      4591      4595
 -1     41959    3    0    3
 -2      3706      4652      4164      6615
 -1     41960    3    0    3
 -2       727      3146      3096       220
 -1     41961    3    0    3
 -2       727      3146      5137      3096
 -1     41962    3    0    3
 -2       727      3146       749      5137
 -1     41963    3    0    3
 -2      6614      4649      6610      6615
 -1     41964    3    0    3
 -2      2246      6608      2284      1950
 -1     41965    3    0    3
 -2      4649      4625      6610      6615
 -1     41966    3    0    3
 -2      6604      4625      3986      6615
 -1     41967    3    0    3
 -2      4649      3986      4625      6615
 -1     41968    3    0    3
 -2      6604      3986      4646      6615
 -1     41969    3    0    3
 -2      5711      4309      4595      6644
 -1     41970    3    0    3
 -2      5591      5592      4321      6616
 -1     41971    3    0    3
 -2      1098      6725      1391      1362
 -1     41972    3    0    3
 -2      1098      6725      1362      6617
 -1     41973    3    0    3
 -2      1098      6725      6617      5598
 -1     41974    3    0    3
 -2      6040      2424      4738      2680
 -1     41975    3    0    3
 -2      1393      6007      6075      1235
 -1     41976    3    0    3
 -2      6327      4441      5366      6335
 -1     41977    3    0    3
 -2      4235      5599      5032      4259
 -1     41978    3    0    3
 -2      6343      5591      5597      6753
 -1     41979    3    0    3
 -2      1362      6343      6617      6725
 -1     41980    3    0    3
 -2      6327      4441      6335      5361
 -1     41981    3    0    3
 -2      6185      4280      2096      2116
 -1     41982    3    0    3
 -2      6343      1362      1413      6725
 -1     41983    3    0    3
 -2      2209      5989      2110      2207
 -1     41984    3    0    3
 -2      5856      4958      4493      3822
 -1     41985    3    0    3
 -2      6594      4617      4614      6618
 -1     41986    3    0    3
 -2      6618      2573      4614      6594
 -1     41987    3    0    3
 -2      6595      4614      4047      6618
 -1     41988    3    0    3
 -2      4047      4614      4617      6618
 -1     41989    3    0    3
 -2      4515      6775      5573      5574
 -1     41990    3    0    3
 -2      1677      5728      5604      5776
 -1     41991    3    0    3
 -2      5743      1505      5593      6619
 -1     41992    3    0    3
 -2      6340      2175      2406      2445
 -1     41993    3    0    3
 -2      5743      1668      1505      6619
 -1     41994    3    0    3
 -2      1556      1472      5552      1470
 -1     41995    3    0    3
 -2      1584      1505      1668      6619
 -1     41996    3    0    3
 -2      5587      1584      1668      6619
 -1     41997    3    0    3
 -2      6606      4104      4660      6620
 -1     41998    3    0    3
 -2      3173      4104      6606      6620
 -1     41999    3    0    3
 -2      4515      6775      5574      5568
 -1     42000    3    0    3
 -2      4087      6632      6689      4812
 -1     42001    3    0    3
 -2      4087      6632      4812      4026
 -1     42002    3    0    3
 -2      4087      6632      4818      6689
 -1     42003    3    0    3
 -2      5589      5579      1485      6358
 -1     42004    3    0    3
 -2      5592      1078      6694      5753
 -1     42005    3    0    3
 -2      1333      1311      6358      6776
 -1     42006    3    0    3
 -2      1333      1231      1311      6776
 -1     42007    3    0    3
 -2      1604      5556      5743      6707
 -1     42008    3    0    3
 -2      6621      4349      5580      6776
 -1     42009    3    0    3
 -2      5556      1604      5743      6710
 -1     42010    3    0    3
 -2      6621      6358      4349      6776
 -1     42011    3    0    3
 -2      1475      5589      5591      6361
 -1     42012    3    0    3
 -2       406      6494      1741      3049
 -1     42013    3    0    3
 -2      6482      1950      1872      6622
 -1     42014    3    0    3
 -2      1781      1872      1950      6622
 -1     42015    3    0    3
 -2      2202      4975      2083      5788
 -1     42016    3    0    3
 -2      6482      4660      1950      6622
 -1     42017    3    0    3
 -2      2529      4812      4810      5740
 -1     42018    3    0    3
 -2      4657      2246      2182      6623
 -1     42019    3    0    3
 -2      5761      5542      3749      5541
 -1     42020    3    0    3
 -2      2161      6250      5785      2160
 -1     42021    3    0    3
 -2      1914      2182      2246      6623
 -1     42022    3    0    3
 -2      6074       647       790      5871
 -1     42023    3    0    3
 -2      6074       647      5871      6323
 -1     42024    3    0    3
 -2      1078      5592      6694      6617
 -1     42025    3    0    3
 -2      6707      6767      5759      5562
 -1     42026    3    0    3
 -2      1231      1001      1200      6625
 -1     42027    3    0    3
 -2      1231      1200      5590      6625
 -1     42028    3    0    3
 -2      4284      6574      4901      2221
 -1     42029    3    0    3
 -2      5753      5590      1200      6625
 -1     42030    3    0    3
 -2       903      1001      6624      6625
 -1     42031    3    0    3
 -2      1200      1001       903      6625
 -1     42032    3    0    3
 -2      5753       903      6624      6625
 -1     42033    3    0    3
 -2      5753      1200       903      6625
 -1     42034    3    0    3
 -2      5849      2795      2812      2855
 -1     42035    3    0    3
 -2      5572      1037      5582      6637
 -1     42036    3    0    3
 -2      5173      6466      1424      6626
 -1     42037    3    0    3
 -2      2584      4599      4596      6627
 -1     42038    3    0    3
 -2      4599      2584      4596      6182
 -1     42039    3    0    3
 -2      5173      1424      1426      6626
 -1     42040    3    0    3
 -2      1424      1427      1426      6626
 -1     42041    3    0    3
 -2      6499      2661      2679      6627
 -1     42042    3    0    3
 -2      2632      2679      2661      6627
 -1     42043    3    0    3
 -2      6514      2518      2520      2588
 -1     42044    3    0    3
 -2      6600      4601      2679      6627
 -1     42045    3    0    3
 -2      2584      2632      2661      6627
 -1     42046    3    0    3
 -2      2661      4599      2584      6627
 -1     42047    3    0    3
 -2      4595      4596      2328      6629
 -1     42048    3    0    3
 -2      4596      4595      2328      6598
 -1     42049    3    0    3
 -2      3103      4571      3142      3116
 -1     42050    3    0    3
 -2      5166      1634      5165      6501
 -1     42051    3    0    3
 -2      6655      6116      4225      4594
 -1     42052    3    0    3
 -2      6655      6116      4593      4225
 -1     42053    3    0    3
 -2      1634      5166      5165      6512
 -1     42054    3    0    3
 -2      6202      2519      2683      6628
 -1     42055    3    0    3
 -2      2341      2194      2195      6629
 -1     42056    3    0    3
 -2      4595      2195      2194      6629
 -1     42057    3    0    3
 -2      4595      2328      2195      6629
 -1     42058    3    0    3
 -2      2328      2341      2195      6629
 -1     42059    3    0    3
 -2      3944      5298      1051      6197
 -1     42060    3    0    3
 -2      1874      3075      1816      4805
 -1     42061    3    0    3
 -2      2484      2718      6138      6630
 -1     42062    3    0    3
 -2      2485      2718      2484      6630
 -1     42063    3    0    3
 -2      6510      2485      4584      6630
 -1     42064    3    0    3
 -2      5137      4437      5134      3151
 -1     42065    3    0    3
 -2      4437      5137      5134      3489
 -1     42066    3    0    3
 -2      4584      4578      6510      6630
 -1     42067    3    0    3
 -2      5575      5573      1571      6631
 -1     42068    3    0    3
 -2      5852      5576      1590      6631
 -1     42069    3    0    3
 -2      1570      1590      5576      6631
 -1     42070    3    0    3
 -2      5852      1590      1479      6631
 -1     42071    3    0    3
 -2      1590      1570      1479      6631
 -1     42072    3    0    3
 -2      3333      3315      4857      4856
 -1     42073    3    0    3
 -2      4817      4811      4087      6689
 -1     42074    3    0    3
 -2      2373      2213      4817      6689
 -1     42075    3    0    3
 -2      2296      5678      2430      5769
 -1     42076    3    0    3
 -2      4202      6655      5158      4225
 -1     42077    3    0    3
 -2      4818      4817      4087      6689
 -1     42078    3    0    3
 -2      2673      6748      2702      4590
 -1     42079    3    0    3
 -2      2673      6748      2660      2702
 -1     42080    3    0    3
 -2      4608      4657      2518      6633
 -1     42081    3    0    3
 -2      4657      4608      4037      6633
 -1     42082    3    0    3
 -2      2518      4657      4647      6633
 -1     42083    3    0    3
 -2      4647      4657      4037      6633
 -1     42084    3    0    3
 -2      6602      2634      4604      6634
 -1     42085    3    0    3
 -2      6504      4604      2634      6634
 -1     42086    3    0    3
 -2      4604      4606      6602      6634
 -1     42087    3    0    3
 -2      4606      2635      6602      6634
 -1     42088    3    0    3
 -2      2297      2415      2184      6635
 -1     42089    3    0    3
 -2      4858      2184      2415      6635
 -1     42090    3    0    3
 -2      2415      4854      4858      6635
 -1     42091    3    0    3
 -2      2297      4854      2415      6635
 -1     42092    3    0    3
 -2      4853      4660      3856      6795
 -1     42093    3    0    3
 -2      2298      4852      4854      6720
 -1     42094    3    0    3
 -2      4854      3883      4855      6720
 -1     42095    3    0    3
 -2      4586      6629      4585      6636
 -1     42096    3    0    3
 -2      6629      4586      4585      4258
 -1     42097    3    0    3
 -2      2520      6514      2588      2641
 -1     42098    3    0    3
 -2      5581       994      6331      6637
 -1     42099    3    0    3
 -2       994      5581      6331      6337
 -1     42100    3    0    3
 -2      3490      3994      4491      5454
 -1     42101    3    0    3
 -2      5028      4997      4417      5744
 -1     42102    3    0    3
 -2      6637      5582      5772      6762
 -1     42103    3    0    3
 -2      5580      5578      1181      6639
 -1     42104    3    0    3
 -2      5578      5580      1181      6347
 -1     42105    3    0    3
 -2      6774      5037      6773      5713
 -1     42106    3    0    3
 -2      6774      5037      5739      5717
 -1     42107    3    0    3
 -2      6626      1596      1427      6203
 -1     42108    3    0    3
 -2      6527      3147      5132      6798
 -1     42109    3    0    3
 -2      3127      3111      3143      6785
 -1     42110    3    0    3
 -2      4589      2671      2672      2673
 -1     42111    3    0    3
 -2      6526      3102      6645      6646
 -1     42112    3    0    3
 -2      5157       917      6502       935
 -1     42113    3    0    3
 -2      4323      5580      6346      6639
 -1     42114    3    0    3
 -2      5580      4323      5578      6639
 -1     42115    3    0    3
 -2      6346      5580      1181      6639
 -1     42116    3    0    3
 -2      4621      4619      2581      6641
 -1     42117    3    0    3
 -2      4619      4621      2581      6605
 -1     42118    3    0    3
 -2      2389      6566      2537      6640
 -1     42119    3    0    3
 -2      2488      2389      2537      6640
 -1     42120    3    0    3
 -2      6553      6566      4581      6640
 -1     42121    3    0    3
 -2      2389      4582      6566      6640
 -1     42122    3    0    3
 -2      2488      4582      2389      6640
 -1     42123    3    0    3
 -2      4602      2684      4601      6643
 -1     42124    3    0    3
 -2      2684      4602      4601      6628
 -1     42125    3    0    3
 -2      4590      4621      2708      6641
 -1     42126    3    0    3
 -2      3052      4594      6684      3079
 -1     42127    3    0    3
 -2      3052      4594      3036      6270
 -1     42128    3    0    3
 -2      4621      4100      4590      6642
 -1     42129    3    0    3
 -2      4590      2668      4621      6642
 -1     42130    3    0    3
 -2      4621      4645      4100      6642
 -1     42131    3    0    3
 -2      2668      4645      4621      6642
 -1     42132    3    0    3
 -2      3028      1815      1791       399
 -1     42133    3    0    3
 -2      5820      2663      4998      4950
 -1     42134    3    0    3
 -2      3028      1815      3061      4806
 -1     42135    3    0    3
 -2      4601      2687      6499      6643
 -1     42136    3    0    3
 -2      4118      4601      6499      6643
 -1     42137    3    0    3
 -2      4602      4601      4118      6643
 -1     42138    3    0    3
 -2      4557       436      2915      1707
 -1     42139    3    0    3
 -2      4585      4309      4569      6644
 -1     42140    3    0    3
 -2      6648      6530      4569      6791
 -1     42141    3    0    3
 -2      4585      4569      2086      6644
 -1     42142    3    0    3
 -2      4557       436      1706      2956
 -1     42143    3    0    3
 -2      4557       436      2956      2915
 -1     42144    3    0    3
 -2      4557       436      1707      1706
 -1     42145    3    0    3
 -2      3102       410      3152      6645
 -1     42146    3    0    3
 -2      6526      3152      1733      6645
 -1     42147    3    0    3
 -2      3102      3152      6526      6645
 -1     42148    3    0    3
 -2       479      3102      3143      6646
 -1     42149    3    0    3
 -2      3451      6453      4158      5191
 -1     42150    3    0    3
 -2      6117      4569      6638      6646
 -1     42151    3    0    3
 -2      3102       478      6645      6646
 -1     42152    3    0    3
 -2      3451      6453      5191       923
 -1     42153    3    0    3
 -2      5816      4284      4901      3591
 -1     42154    3    0    3
 -2      6646      4569      6530      6791
 -1     42155    3    0    3
 -2      6699       786      6715      6694
 -1     42156    3    0    3
 -2      2710      3972      4821      6285
 -1     42157    3    0    3
 -2      2718      6569      2502      2517
 -1     42158    3    0    3
 -2      2784      6751      2783      2757
 -1     42159    3    0    3
 -2      6791       479      6646       478
 -1     42160    3    0    3
 -2      3152      1703      1733       411
 -1     42161    3    0    3
 -2      3152      1703       411      3131
 -1     42162    3    0    3
 -2       287      5715      2840      6330
 -1     42163    3    0    3
 -2      6647      6525      6530      6648
 -1     42164    3    0    3
 -2      4309      5155      6647      6749
 -1     42165    3    0    3
 -2      3042       409      3043      6650
 -1     42166    3    0    3
 -2      6053      2437      2439      2348
 -1     42167    3    0    3
 -2      1755      6648      5711      1754
 -1     42168    3    0    3
 -2      2684      4601      6643      2687
 -1     42169    3    0    3
 -2      4807      1836      4808      6766
 -1     42170    3    0    3
 -2      6675      1302      1444      1445
 -1     42171    3    0    3
 -2      6675      1302      1445      5411
 -1     42172    3    0    3
 -2      6668      4168      4806      4136
 -1     42173    3    0    3
 -2      4604      6600      2509      4598
 -1     42174    3    0    3
 -2      6114      1763      3130      4203
 -1     42175    3    0    3
 -2      4598      2509      4604      6181
 -1     42176    3    0    3
 -2      5173      5171      1426      6488
 -1     42177    3    0    3
 -2      3763      4292      4318      5143
 -1     42178    3    0    3
 -2      1956      1741      1829      6783
 -1     42179    3    0    3
 -2      6494      1741      4592      6783
 -1     42180    3    0    3
 -2      3089      3056      6538      6655
 -1     42181    3    0    3
 -2      6587       307      1898      1870
 -1     42182    3    0    3
 -2      3029       404      1896      6652
 -1     42183    3    0    3
 -2       404      1765      1896      6652
 -1     42184    3    0    3
 -2      3037      1765       404      6652
 -1     42185    3    0    3
 -2      3029      3037       404      6652
 -1     42186    3    0    3
 -2      1431      5567      5517      1492
 -1     42187    3    0    3
 -2      5000      4998      2562      6654
 -1     42188    3    0    3
 -2      5567      1431      5517      6653
 -1     42189    3    0    3
 -2      2894      4544      2893      3730
 -1     42190    3    0    3
 -2      2663      2562      4998      6654
 -1     42191    3    0    3
 -2      2562      2663      2614      6654
 -1     42192    3    0    3
 -2      5375      1283      5374      1389
 -1     42193    3    0    3
 -2      3056      3089      3036      6655
 -1     42194    3    0    3
 -2      3038      3056      3036      6655
 -1     42195    3    0    3
 -2      6538      3056      6210      6655
 -1     42196    3    0    3
 -2      6210      3056      3038      6655
 -1     42197    3    0    3
 -2      6114      1763      6209      3131
 -1     42198    3    0    3
 -2      6587       307      3182      3244
 -1     42199    3    0    3
 -2      6587       307      1870      3182
 -1     42200    3    0    3
 -2      6792       400      3075      1816
 -1     42201    3    0    3
 -2      1766      3079      4594      1765
 -1     42202    3    0    3
 -2      5375      1283      6019      5988
 -1     42203    3    0    3
 -2      3079      1766      4594      6684
 -1     42204    3    0    3
 -2      5992      1389      1350      6656
 -1     42205    3    0    3
 -2      1389      1453      1350      6656
 -1     42206    3    0    3
 -2      5708      4778      5953      6253
 -1     42207    3    0    3
 -2      6715      6699      6690      6764
 -1     42208    3    0    3
 -2      6715      6699      6764       814
 -1     42209    3    0    3
 -2      5794      6477      2012      4980
 -1     42210    3    0    3
 -2      6715      6699      6694      6690
 -1     42211    3    0    3
 -2      3040      3088      3041      6658
 -1     42212    3    0    3
 -2      6658      6221      4807      6680
 -1     42213    3    0    3
 -2      4806      6221      6658      6680
 -1     42214    3    0    3
 -2      3028      3027       398      6680
 -1     42215    3    0    3
 -2      6221      4806      1791      6680
 -1     42216    3    0    3
 -2      1874       402      3048      6684
 -1     42217    3    0    3
 -2      6479      4076      4622      4017
 -1     42218    3    0    3
 -2      6792       400      1816      1815
 -1     42219    3    0    3
 -2      6792       400      1815      6657
 -1     42220    3    0    3
 -2      6212      4805      4202      6659
 -1     42221    3    0    3
 -2      4594      4202      4805      6659
 -1     42222    3    0    3
 -2      5360      1436      5354      6369
 -1     42223    3    0    3
 -2      1132      6781      1363      1156
 -1     42224    3    0    3
 -2      1929      4825      1732      6662
 -1     42225    3    0    3
 -2      5360      1439      1436      6369
 -1     42226    3    0    3
 -2      5363      6331      6336      1195
 -1     42227    3    0    3
 -2      2264      1997      2446      6678
 -1     42228    3    0    3
 -2      5980      5341      5343      1239
 -1     42229    3    0    3
 -2      6661      1641      1642      6763
 -1     42230    3    0    3
 -2      3892      3954      4626      4135
 -1     42231    3    0    3
 -2      3924      3757      5317      5323
 -1     42232    3    0    3
 -2      5854      4460      5574      6661
 -1     42233    3    0    3
 -2      5568      5574      4460      6661
 -1     42234    3    0    3
 -2      5654      2649      2716      5686
 -1     42235    3    0    3
 -2      4164      3986      4646      3951
 -1     42236    3    0    3
 -2      5703      4833      4826      4222
 -1     42237    3    0    3
 -2      6375      5359      1619      6663
 -1     42238    3    0    3
 -2      5811      5778      2425      6758
 -1     42239    3    0    3
 -2      5811      5778      4973      2164
 -1     42240    3    0    3
 -2      5811      5778      6758      4973
 -1     42241    3    0    3
 -2      6064       891      6193      1170
 -1     42242    3    0    3
 -2      5703      4833      5712      6664
 -1     42243    3    0    3
 -2      5703      4833      6664      4826
 -1     42244    3    0    3
 -2      6211      4833      4826      6664
 -1     42245    3    0    3
 -2      3027      1836      3073       397
 -1     42246    3    0    3
 -2      3972      6261      4821      6285
 -1     42247    3    0    3
 -2      2685      6213      6214      4835
 -1     42248    3    0    3
 -2      2685      6213      2583      6214
 -1     42249    3    0    3
 -2      6662      1731      5701      6665
 -1     42250    3    0    3
 -2      5701      6216      6662      6665
 -1     42251    3    0    3
 -2      6216      5701      2749      6665
 -1     42252    3    0    3
 -2      5701      1731      2749      6665
 -1     42253    3    0    3
 -2      6660      6048      4083      6666
 -1     42254    3    0    3
 -2      6660      4083      4808      6666
 -1     42255    3    0    3
 -2      4060      4812      4810      6691
 -1     42256    3    0    3
 -2      5028      5752      5029      3463
 -1     42257    3    0    3
 -2      4813      4815      6012      4001
 -1     42258    3    0    3
 -2      2612      2613      2693      6667
 -1     42259    3    0    3
 -2      4815      2693      2710      6796
 -1     42260    3    0    3
 -2      2493      2693      4815      6667
 -1     42261    3    0    3
 -2      1012      5369      6729       885
 -1     42262    3    0    3
 -2      4811      2208      2213      6668
 -1     42263    3    0    3
 -2      1959      2213      2208      6668
 -1     42264    3    0    3
 -2      1958      1959      6221      6668
 -1     42265    3    0    3
 -2      1959      1958      2213      6668
 -1     42266    3    0    3
 -2      2470      2495      2627      6669
 -1     42267    3    0    3
 -2      4815      2710      2495      6669
 -1     42268    3    0    3
 -2      2710      2627      2495      6669
 -1     42269    3    0    3
 -2       287      5715       288      2840
 -1     42270    3    0    3
 -2       287      5715      6330      5713
 -1     42271    3    0    3
 -2      5590      6624      5753      4267
 -1     42272    3    0    3
 -2      6271      4821      2640      6796
 -1     42273    3    0    3
 -2      1882      1881       395      6670
 -1     42274    3    0    3
 -2       395       458      1882      6670
 -1     42275    3    0    3
 -2       458       395      3062      6670
 -1     42276    3    0    3
 -2      5737      3063      1881      6670
 -1     42277    3    0    3
 -2      3063       395      1881      6670
 -1     42278    3    0    3
 -2      6751      2760      6216      4826
 -1     42279    3    0    3
 -2      6674      2611      4832      6676
 -1     42280    3    0    3
 -2       665       783       276      6683
 -1     42281    3    0    3
 -2      5807      2166      5896      2049
 -1     42282    3    0    3
 -2      2523      5958      4771      2643
 -1     42283    3    0    3
 -2      2794       665       276      6683
 -1     42284    3    0    3
 -2      6674      2611      6676      2504
 -1     42285    3    0    3
 -2      6673      5582      5891      6794
 -1     42286    3    0    3
 -2      6672       652       651      6794
 -1     42287    3    0    3
 -2      2523      5958      4777      4771
 -1     42288    3    0    3
 -2       652       651       274      6672
 -1     42289    3    0    3
 -2       652       274      2808      6672
 -1     42290    3    0    3
 -2      2807      2808       274      6672
 -1     42291    3    0    3
 -2      2807       274       651      6672
 -1     42292    3    0    3
 -2      5772      2818       836      6673
 -1     42293    3    0    3
 -2       273      2807       651      6673
 -1     42294    3    0    3
 -2      2807       273      2818      6673
 -1     42295    3    0    3
 -2       836      2818       273      6673
 -1     42296    3    0    3
 -2       836       273       651      6673
 -1     42297    3    0    3
 -2       252      5895      2759       253
 -1     42298    3    0    3
 -2      5602      6715      6690      6686
 -1     42299    3    0    3
 -2      5654      2649      4840      2717
 -1     42300    3    0    3
 -2      5602      6715       786      6694
 -1     42301    3    0    3
 -2      5789      5410      3590      5403
 -1     42302    3    0    3
 -2      1445      5411      5833      6675
 -1     42303    3    0    3
 -2      2504      6213      4823      6674
 -1     42304    3    0    3
 -2      5602      6715      6694      6690
 -1     42305    3    0    3
 -2      2567      4838      2647      2630
 -1     42306    3    0    3
 -2      6751      2750      2758      6216
 -1     42307    3    0    3
 -2      4083      6211      6678      4831
 -1     42308    3    0    3
 -2      2325      4832      2611      6676
 -1     42309    3    0    3
 -2      2324      2325      2611      6676
 -1     42310    3    0    3
 -2      4838      2567      2647      4836
 -1     42311    3    0    3
 -2      2504      2324      2611      6676
 -1     42312    3    0    3
 -2      4882      5674      2134      6677
 -1     42313    3    0    3
 -2      4882      2134      1948      6677
 -1     42314    3    0    3
 -2      4975      2202      4974      5788
 -1     42315    3    0    3
 -2      3881      4881      4882      6677
 -1     42316    3    0    3
 -2      3764      5424      5426      4392
 -1     42317    3    0    3
 -2      2481      6222      4879      6772
 -1     42318    3    0    3
 -2      4083      4825      6048      6678
 -1     42319    3    0    3
 -2      4908      2123      4907      3587
 -1     42320    3    0    3
 -2      4908      2123      3587      4423
 -1     42321    3    0    3
 -2      1439      5360      1436      1437
 -1     42322    3    0    3
 -2      1981      2264      6660      6678
 -1     42323    3    0    3
 -2      2264      1981      1997      6678
 -1     42324    3    0    3
 -2      6660      6048      1981      6678
 -1     42325    3    0    3
 -2      6048      1997      1981      6678
 -1     42326    3    0    3
 -2      2832      2871       279      6679
 -1     42327    3    0    3
 -2      2832       279       667      6679
 -1     42328    3    0    3
 -2      5601       667      6624      6679
 -1     42329    3    0    3
 -2      1821      5035      2836      5903
 -1     42330    3    0    3
 -2      5035      1821      2836      6682
 -1     42331    3    0    3
 -2      4806      3028      1791      6680
 -1     42332    3    0    3
 -2      6658      3088      3041      6680
 -1     42333    3    0    3
 -2      3028      3041      3088      6680
 -1     42334    3    0    3
 -2      3041      4806      6658      6680
 -1     42335    3    0    3
 -2      3041      3028      4806      6680
 -1     42336    3    0    3
 -2      4817      2257      2373      6681
 -1     42337    3    0    3
 -2      2373      2257      2360      6681
 -1     42338    3    0    3
 -2      4811      2213      2385      6689
 -1     42339    3    0    3
 -2      2213      2373      2385      6689
 -1     42340    3    0    3
 -2      6690      6715      6764      2852
 -1     42341    3    0    3
 -2      6138      4172      4577      3467
 -1     42342    3    0    3
 -2      5864      1403      5334      6306
 -1     42343    3    0    3
 -2      6138      4172      3467      3964
 -1     42344    3    0    3
 -2      2636      3877      4860      2512
 -1     42345    3    0    3
 -2      4591      6650      6525      6648
 -1     42346    3    0    3
 -2       380      1823      2868      6682
 -1     42347    3    0    3
 -2      1823      5035      5823      6682
 -1     42348    3    0    3
 -2      1823      1821      5035      6682
 -1     42349    3    0    3
 -2      5700      6057      5881      5389
 -1     42350    3    0    3
 -2      2851       747      6686       786
 -1     42351    3    0    3
 -2      6634      4609      2601      6201
 -1     42352    3    0    3
 -2      6674      2611      2504      6213
 -1     42353    3    0    3
 -2      6674      2611      6213      4832
 -1     42354    3    0    3
 -2       381      5823      2840      2868
 -1     42355    3    0    3
 -2      4369      5803      5024      5719
 -1     42356    3    0    3
 -2      2087      1822      5082      5079
 -1     42357    3    0    3
 -2      6671      5584      5857      6683
 -1     42358    3    0    3
 -2      3513      5957      5341      3480
 -1     42359    3    0    3
 -2      6792       400      6657      3075
 -1     42360    3    0    3
 -2      1874      4805      6659      6684
 -1     42361    3    0    3
 -2      4805      1874      3048      6684
 -1     42362    3    0    3
 -2      4805      4594      6659      6684
 -1     42363    3    0    3
 -2      6270      4594      4805      6684
 -1     42364    3    0    3
 -2      5700      6057      5861      6323
 -1     42365    3    0    3
 -2      2851       747       280      2871
 -1     42366    3    0    3
 -2      2851       747      2871      6686
 -1     42367    3    0    3
 -2      5918      6699      6694      4240
 -1     42368    3    0    3
 -2      6751      2760      4826      4049
 -1     42369    3    0    3
 -2      2851       747       786       280
 -1     42370    3    0    3
 -2      2261      6754      2404      2262
 -1     42371    3    0    3
 -2      1677      5775      6334      6764
 -1     42372    3    0    3
 -2       290       291      2852      6764
 -1     42373    3    0    3
 -2      4132      6666      5875      6799
 -1     42374    3    0    3
 -2      6617      1009      1098      6699
 -1     42375    3    0    3
 -2      5918      6699      5603      6690
 -1     42376    3    0    3
 -2      4227      1916      2077      4903
 -1     42377    3    0    3
 -2      4815      2495      2493      6687
 -1     42378    3    0    3
 -2      2495      2494      2493      6687
 -1     42379    3    0    3
 -2      5033      2253      5738      5677
 -1     42380    3    0    3
 -2      1935      6713      4864      3512
 -1     42381    3    0    3
 -2      2494      2529      2493      6691
 -1     42382    3    0    3
 -2      4817      2373      4818      6681
 -1     42383    3    0    3
 -2      4585      2194      4595      6644
 -1     42384    3    0    3
 -2      5937      2853      6755      4803
 -1     42385    3    0    3
 -2      6795      6608      4853      4660
 -1     42386    3    0    3
 -2      2087      2069      2253      6688
 -1     42387    3    0    3
 -2      1403      5864      5334      6231
 -1     42388    3    0    3
 -2      5739      5727      4214      5668
 -1     42389    3    0    3
 -2      5937      2853      2874      2873
 -1     42390    3    0    3
 -2      4202      6655      4594      5974
 -1     42391    3    0    3
 -2      6632      4812      2613      6689
 -1     42392    3    0    3
 -2      4812      2385      2613      6689
 -1     42393    3    0    3
 -2      2613      2385      2373      6689
 -1     42394    3    0    3
 -2      2613      4818      6632      6689
 -1     42395    3    0    3
 -2      4818      2613      2373      6689
 -1     42396    3    0    3
 -2      5728      5603      6764      6690
 -1     42397    3    0    3
 -2       290       289      5728      6690
 -1     42398    3    0    3
 -2       290      2814       289      6690
 -1     42399    3    0    3
 -2      5728       289      5715      6690
 -1     42400    3    0    3
 -2      3507      5082      2069      1779
 -1     42401    3    0    3
 -2      5918      6330      5035      5823
 -1     42402    3    0    3
 -2      5918      5715      4189      6690
 -1     42403    3    0    3
 -2      4060      4810      4813      6691
 -1     42404    3    0    3
 -2      5025      2274      6696      5023
 -1     42405    3    0    3
 -2      5033      2253      6688      5738
 -1     42406    3    0    3
 -2      4813      4815      6691      6687
 -1     42407    3    0    3
 -2      5752      5028      5029      6754
 -1     42408    3    0    3
 -2      6687      4813      2494      6691
 -1     42409    3    0    3
 -2      4815      4813      6691      4060
 -1     42410    3    0    3
 -2      6687      2494      2493      6691
 -1     42411    3    0    3
 -2       777      1003      5775      6692
 -1     42412    3    0    3
 -2       777       808      1003      6692
 -1     42413    3    0    3
 -2       808       777      6334      6692
 -1     42414    3    0    3
 -2       777      5775      6334      6692
 -1     42415    3    0    3
 -2      1677      1691      6334      6692
 -1     42416    3    0    3
 -2      5604      1691      1677      6692
 -1     42417    3    0    3
 -2      1552      1443      1553      6693
 -1     42418    3    0    3
 -2      4907      1767      2123      1805
 -1     42419    3    0    3
 -2      2278      5909      6183      2279
 -1     42420    3    0    3
 -2      6493      1423      1443      6693
 -1     42421    3    0    3
 -2      5990      1082      5372      5987
 -1     42422    3    0    3
 -2      1553      1443      1423      6693
 -1     42423    3    0    3
 -2      4240      5598      5603      6699
 -1     42424    3    0    3
 -2      6617      5598      4240      6699
 -1     42425    3    0    3
 -2      5598      5730      5603      6699
 -1     42426    3    0    3
 -2      4908        66       382      1910
 -1     42427    3    0    3
 -2      5918      5602      4240      6694
 -1     42428    3    0    3
 -2      5603      5728      6764      5775
 -1     42429    3    0    3
 -2      5603      5730      5775      6699
 -1     42430    3    0    3
 -2      5990      5374      5372      6695
 -1     42431    3    0    3
 -2      5372      5374      5988      6695
 -1     42432    3    0    3
 -2      1083       885      1012      6729
 -1     42433    3    0    3
 -2      4321      5023      5025      6696
 -1     42434    3    0    3
 -2      5803      2187      5025      2398
 -1     42435    3    0    3
 -2      4820      4818      2360      6681
 -1     42436    3    0    3
 -2      2603      5030      5917      5735
 -1     42437    3    0    3
 -2      5803      5022      4321      6696
 -1     42438    3    0    3
 -2      5022      5023      4321      6696
 -1     42439    3    0    3
 -2      5911      2719      2712      2515
 -1     42440    3    0    3
 -2      2550      5907      2667      5018
 -1     42441    3    0    3
 -2      2566      4854      2356      6697
 -1     42442    3    0    3
 -2      4852      2356      4854      6697
 -1     42443    3    0    3
 -2      3941      4854      4816      6697
 -1     42444    3    0    3
 -2      4808      1836      3063      6766
 -1     42445    3    0    3
 -2      3538      3247      3280      3682
 -1     42446    3    0    3
 -2      3538      3247      3248      3280
 -1     42447    3    0    3
 -2      4852      4659      3917      6719
 -1     42448    3    0    3
 -2      2284      6608      4659      6719
 -1     42449    3    0    3
 -2      3917      4659      6608      6719
 -1     42450    3    0    3
 -2      6790      4852      2298      6720
 -1     42451    3    0    3
 -2      4852      4853      6720      6790
 -1     42452    3    0    3
 -2       786      2851       281      6715
 -1     42453    3    0    3
 -2       281       814       786      6715
 -1     42454    3    0    3
 -2      6445       776       906       988
 -1     42455    3    0    3
 -2      2851       786      6686      6715
 -1     42456    3    0    3
 -2      4227      1916      3527      4940
 -1     42457    3    0    3
 -2      3733      6716      4868      4875
 -1     42458    3    0    3
 -2      3733      6716      4875      4872
 -1     42459    3    0    3
 -2      3733      6716      4861      4868
 -1     42460    3    0    3
 -2      2343      4860      4861      6224
 -1     42461    3    0    3
 -2      2513      6285      4816      2627
 -1     42462    3    0    3
 -2      6619      4393      5588      6765
 -1     42463    3    0    3
 -2        72      5075       631       630
 -1     42464    3    0    3
 -2      6718      5598      5658      4261
 -1     42465    3    0    3
 -2      4861      4868      6716      6701
 -1     42466    3    0    3
 -2      1219      5361      1301      1206
 -1     42467    3    0    3
 -2      1014      5502       711      5501
 -1     42468    3    0    3
 -2      4868      3981      3512      6701
 -1     42469    3    0    3
 -2      1891      4265      4889      2063
 -1     42470    3    0    3
 -2      4871      4872      2474      6704
 -1     42471    3    0    3
 -2      4872      4871      2474      6246
 -1     42472    3    0    3
 -2      3238      4058      4215      3228
 -1     42473    3    0    3
 -2      1817      1934      6705      6713
 -1     42474    3    0    3
 -2      1674      5037      1693      6702
 -1     42475    3    0    3
 -2      5037      1674      4376      6702
 -1     42476    3    0    3
 -2      5085      4376      1686      1695
 -1     42477    3    0    3
 -2      4376      5085      1686      4186
 -1     42478    3    0    3
 -2      5668      5717      5037      6702
 -1     42479    3    0    3
 -2      5668      5037      4376      6702
 -1     42480    3    0    3
 -2      6296      4875      4876      6703
 -1     42481    3    0    3
 -2      3888      4876      4875      6703
 -1     42482    3    0    3
 -2      2474      4872      2381      6704
 -1     42483    3    0    3
 -2      2527      2474      2381      6704
 -1     42484    3    0    3
 -2      4871      2474      2527      6704
 -1     42485    3    0    3
 -2      5606       500      4357      3987
 -1     42486    3    0    3
 -2      1891      4265      4890      6708
 -1     42487    3    0    3
 -2      1891      4265      6708      4889
 -1     42488    3    0    3
 -2      3790      4872      4871      6704
 -1     42489    3    0    3
 -2      2254      2313      4875      6716
 -1     42490    3    0    3
 -2      4836      2564      4824      6706
 -1     42491    3    0    3
 -2      4836      4824      3844      6706
 -1     42492    3    0    3
 -2      3844      4824      4860      6706
 -1     42493    3    0    3
 -2      4860      4824      2564      6706
 -1     42494    3    0    3
 -2      5546      1296      1297      6391
 -1     42495    3    0    3
 -2      5546      5540      3667      4384
 -1     42496    3    0    3
 -2      5540      5546      3667      3602
 -1     42497    3    0    3
 -2      6404      1608      1602      6707
 -1     42498    3    0    3
 -2      1602      1608      1604      6707
 -1     42499    3    0    3
 -2      4887       332      6708      1775
 -1     42500    3    0    3
 -2      4889      1891      2064      6708
 -1     42501    3    0    3
 -2      1775      4887      2064      6708
 -1     42502    3    0    3
 -2      4798      2149      4792      6727
 -1     42503    3    0    3
 -2      2149      4798      4792      6017
 -1     42504    3    0    3
 -2      2189      2228      5682      6709
 -1     42505    3    0    3
 -2      4881      2189      5682      6709
 -1     42506    3    0    3
 -2      5680      2189      4881      6709
 -1     42507    3    0    3
 -2      5799      5556      5587      6710
 -1     42508    3    0    3
 -2      1668      5587      5743      6710
 -1     42509    3    0    3
 -2      5587      1668      5743      6619
 -1     42510    3    0    3
 -2      6486      3631      5548      5547
 -1     42511    3    0    3
 -2      3646      5620      1052      5619
 -1     42512    3    0    3
 -2      6486      3631      6778      5546
 -1     42513    3    0    3
 -2      3238      4058      3211      3982
 -1     42514    3    0    3
 -2      2691      4873      4871      6712
 -1     42515    3    0    3
 -2      4873      2691      4871      6246
 -1     42516    3    0    3
 -2      2386      5676      6709      6711
 -1     42517    3    0    3
 -2      4632      6126      4712      3731
 -1     42518    3    0    3
 -2      6709      4849      4879      6711
 -1     42519    3    0    3
 -2      5672      4838      2477      6711
 -1     42520    3    0    3
 -2      2815      6690      2852      6686
 -1     42521    3    0    3
 -2      5672      3785      4838      6711
 -1     42522    3    0    3
 -2      3785      4849      4838      6711
 -1     42523    3    0    3
 -2      4838      2567      4836      6712
 -1     42524    3    0    3
 -2      4836      4871      3810      6712
 -1     42525    3    0    3
 -2      4871      4836      2567      6712
 -1     42526    3    0    3
 -2      2691      4871      2567      6712
 -1     42527    3    0    3
 -2      1887      5866      1949      5856
 -1     42528    3    0    3
 -2      4092      1701      4864      4863
 -1     42529    3    0    3
 -2      3238      4058      3228      3211
 -1     42530    3    0    3
 -2      3512      4426      4868      6713
 -1     42531    3    0    3
 -2      5887      4790      4792      4497
 -1     42532    3    0    3
 -2      4848      5696      4837      3836
 -1     42533    3    0    3
 -2      5696      4848      4837      6714
 -1     42534    3    0    3
 -2      3356      5466      4399      5787
 -1     42535    3    0    3
 -2      5696      2463      4848      6714
 -1     42536    3    0    3
 -2      5887      4790      5978      2146
 -1     42537    3    0    3
 -2      4776      2541      4779      6802
 -1     42538    3    0    3
 -2      4428      6631      4483      5576
 -1     42539    3    0    3
 -2      4848      5686      5844      6714
 -1     42540    3    0    3
 -2      5686      4848      2463      6714
 -1     42541    3    0    3
 -2      5686      2464      5844      6714
 -1     42542    3    0    3
 -2      5686      2463      2464      6714
 -1     42543    3    0    3
 -2      5728       290      6690      6764
 -1     42544    3    0    3
 -2      5918      6699      6690      6694
 -1     42545    3    0    3
 -2      3612      6379      4884      4883
 -1     42546    3    0    3
 -2      5887      4790      2146      4792
 -1     42547    3    0    3
 -2      6718      5598      4261      5597
 -1     42548    3    0    3
 -2      6718      5598      1391      5658
 -1     42549    3    0    3
 -2      5544      5761      5542      3749
 -1     42550    3    0    3
 -2      6701      4861      2255      6716
 -1     42551    3    0    3
 -2      4861      2381      2255      6716
 -1     42552    3    0    3
 -2      5977       771      5158      6728
 -1     42553    3    0    3
 -2      5977       771      6728       682
 -1     42554    3    0    3
 -2      5991      4465      4799      4520
 -1     42555    3    0    3
 -2      1839      2003      4856      6717
 -1     42556    3    0    3
 -2      2003      3464      4856      6717
 -1     42557    3    0    3
 -2      6229      6099      1729      6717
 -1     42558    3    0    3
 -2      4042      6099      6229      6717
 -1     42559    3    0    3
 -2      2498      5675      2412      4848
 -1     42560    3    0    3
 -2      5074        73       631       583
 -1     42561    3    0    3
 -2      2355      4659      4852      6719
 -1     42562    3    0    3
 -2      4659      2355      4852      6698
 -1     42563    3    0    3
 -2      4659      2355      2284      6719
 -1     42564    3    0    3
 -2      1991      5914      5897      2306
 -1     42565    3    0    3
 -2      2355      4852      2285      6719
 -1     42566    3    0    3
 -2      4873      6222      4874      3729
 -1     42567    3    0    3
 -2      2002      2297      4855      6720
 -1     42568    3    0    3
 -2      6162      4855      3883      6720
 -1     42569    3    0    3
 -2      6162      6099      4855      6720
 -1     42570    3    0    3
 -2      6162      3883      4853      6720
 -1     42571    3    0    3
 -2      6162      4853      6099      6720
 -1     42572    3    0    3
 -2      2878      5901      5921      2826
 -1     42573    3    0    3
 -2      6247      4889      3712      6721
 -1     42574    3    0    3
 -2      2227      4889      6247      6721
 -1     42575    3    0    3
 -2      4889      2227      2063      6721
 -1     42576    3    0    3
 -2      2550      5907      5018      4987
 -1     42577    3    0    3
 -2      2241      4981      4992      5795
 -1     42578    3    0    3
 -2      5935      5932      4406      5014
 -1     42579    3    0    3
 -2      5798      4997      5767      6733
 -1     42580    3    0    3
 -2      2251      2242      2383      6733
 -1     42581    3    0    3
 -2      2460      5969      2410      4789
 -1     42582    3    0    3
 -2      2282      4996      2283      5797
 -1     42583    3    0    3
 -2      2251      2382      5767      6733
 -1     42584    3    0    3
 -2      2419      6722      5777      5792
 -1     42585    3    0    3
 -2      2531      4848      2498      5686
 -1     42586    3    0    3
 -2      1325      6619      5593      1505
 -1     42587    3    0    3
 -2      2023      2050      1759      6724
 -1     42588    3    0    3
 -2      1759      5014      2023      6724
 -1     42589    3    0    3
 -2      5828      2050      2023      6724
 -1     42590    3    0    3
 -2      5014      5828      2023      6724
 -1     42591    3    0    3
 -2      5597      5591      4341      6753
 -1     42592    3    0    3
 -2      6350      2792      5364      2847
 -1     42593    3    0    3
 -2      6350      2792      2847      2819
 -1     42594    3    0    3
 -2      5707      2829      4783      5940
 -1     42595    3    0    3
 -2      6145      5909      4731      3797
 -1     42596    3    0    3
 -2      2148      5948      4798      5884
 -1     42597    3    0    3
 -2      2148      5948      5884      1960
 -1     42598    3    0    3
 -2      4132      4083      6666      6799
 -1     42599    3    0    3
 -2      4143      6493      4093      5170
 -1     42600    3    0    3
 -2      2792      5364       723      6726
 -1     42601    3    0    3
 -2      5364      2792       723      5984
 -1     42602    3    0    3
 -2      6017      2149      4798      2435
 -1     42603    3    0    3
 -2      3917      6468       966      5224
 -1     42604    3    0    3
 -2      5885      4789      5954      2442
 -1     42605    3    0    3
 -2      5927      5939      2820      2799
 -1     42606    3    0    3
 -2      5668      5033      3507      4376
 -1     42607    3    0    3
 -2      5033      5668      3507      6730
 -1     42608    3    0    3
 -2      2612      6691      2529      4812
 -1     42609    3    0    3
 -2      3907      3996      4823      3966
 -1     42610    3    0    3
 -2      2612      6691      6667      2493
 -1     42611    3    0    3
 -2      2067      3689      4728      2013
 -1     42612    3    0    3
 -2      6044      6046      6731      1941
 -1     42613    3    0    3
 -2      6044      6046      1941      1788
 -1     42614    3    0    3
 -2      5449      1232      5450      6290
 -1     42615    3    0    3
 -2      6005      5369       885      6729
 -1     42616    3    0    3
 -2      6121      3298      1745      5944
 -1     42617    3    0    3
 -2      5374      5369      6005      6729
 -1     42618    3    0    3
 -2      5966      3085      3047      6034
 -1     42619    3    0    3
 -2      3507      5668      5717      6730
 -1     42620    3    0    3
 -2      2853      5930      4803      5937
 -1     42621    3    0    3
 -2      2853      5930      2874      2857
 -1     42622    3    0    3
 -2      3917       966      5416      5224
 -1     42623    3    0    3
 -2      5416      6147       998      6734
 -1     42624    3    0    3
 -2      6147      5416       998      6140
 -1     42625    3    0    3
 -2      2131      6176      6052      6127
 -1     42626    3    0    3
 -2      5657      2220      2235      6731
 -1     42627    3    0    3
 -2      6044      2235      1941      6731
 -1     42628    3    0    3
 -2      1941      2235      2220      6731
 -1     42629    3    0    3
 -2      6741      5326       883      5994
 -1     42630    3    0    3
 -2      6046      1941      2220      6731
 -1     42631    3    0    3
 -2      6741      5326      5994      3616
 -1     42632    3    0    3
 -2      4733      4014      6128      6732
 -1     42633    3    0    3
 -2      4215      3982      3462      5291
 -1     42634    3    0    3
 -2      6183      6128      4014      6732
 -1     42635    3    0    3
 -2      4014      4719      6183      6732
 -1     42636    3    0    3
 -2      4995      5798      6723      6733
 -1     42637    3    0    3
 -2      5744      2383      2242      6733
 -1     42638    3    0    3
 -2      4995      4997      5798      6733
 -1     42639    3    0    3
 -2      4997      4995      5744      6733
 -1     42640    3    0    3
 -2      3917       966      6734      5416
 -1     42641    3    0    3
 -2      3917       966      6156      6734
 -1     42642    3    0    3
 -2      6156      5415      3917      6734
 -1     42643    3    0    3
 -2       490      6161      3856       489
 -1     42644    3    0    3
 -2      5342      1559      5340      6736
 -1     42645    3    0    3
 -2      4348      4183      4714      4152
 -1     42646    3    0    3
 -2      5174      1422      5173      6312
 -1     42647    3    0    3
 -2      4734      6189      6194      6735
 -1     42648    3    0    3
 -2      6189      4734      6186      6735
 -1     42649    3    0    3
 -2      6186      2376      2447      6735
 -1     42650    3    0    3
 -2      6194      6189      2447      6735
 -1     42651    3    0    3
 -2      6189      6186      2447      6735
 -1     42652    3    0    3
 -2      6792      2208      5989      4811
 -1     42653    3    0    3
 -2      6284      6248      5332      6308
 -1     42654    3    0    3
 -2      6792      2208      2084      5989
 -1     42655    3    0    3
 -2      6227       791      5346      6226
 -1     42656    3    0    3
 -2      6356      5342      5339      6736
 -1     42657    3    0    3
 -2       723      2791      5984      2792
 -1     42658    3    0    3
 -2      5924      3545      4772      6737
 -1     42659    3    0    3
 -2      6260      3545      5924      6737
 -1     42660    3    0    3
 -2      6260      5661      3545      6737
 -1     42661    3    0    3
 -2      6258      4772      5925      6737
 -1     42662    3    0    3
 -2      6258      5924      4772      6737
 -1     42663    3    0    3
 -2      6258      2309      5924      6737
 -1     42664    3    0    3
 -2      5925      2309      6258      6737
 -1     42665    3    0    3
 -2      5489       947      5490      3558
 -1     42666    3    0    3
 -2      5761      6240      5543      6383
 -1     42667    3    0    3
 -2      6322      6020      5357      1636
 -1     42668    3    0    3
 -2      6284      6305      5333      6738
 -1     42669    3    0    3
 -2      1361      6256      6290      1227
 -1     42670    3    0    3
 -2      5952      3513      5345      6739
 -1     42671    3    0    3
 -2      3513      5346      5345      6739
 -1     42672    3    0    3
 -2      5884      5933      4800      2175
 -1     42673    3    0    3
 -2      3851      2001      4973      3445
 -1     42674    3    0    3
 -2       883      5326      5514      6027
 -1     42675    3    0    3
 -2      4395      5467      5468      4424
 -1     42676    3    0    3
 -2      4424      5466      5465      6740
 -1     42677    3    0    3
 -2      6325      5465      6207      6740
 -1     42678    3    0    3
 -2      6207      5465      5466      6740
 -1     42679    3    0    3
 -2      6619      4393      6765      5593
 -1     42680    3    0    3
 -2      6324      1126      1135      6325
 -1     42681    3    0    3
 -2      6777      4441      4467      4803
 -1     42682    3    0    3
 -2      2001      3851      4973      5811
 -1     42683    3    0    3
 -2      5994      3616      6372      6741
 -1     42684    3    0    3
 -2      3616      5515      6372      6741
 -1     42685    3    0    3
 -2       762      5607      5510       858
 -1     42686    3    0    3
 -2      5323      4275      3246      5322
 -1     42687    3    0    3
 -2      4944      4904      4174      3470
 -1     42688    3    0    3
 -2      6380      5514      6027      6742
 -1     42689    3    0    3
 -2      6059      5398      5400      3934
 -1     42690    3    0    3
 -2      6532      5514      5868      6742
 -1     42691    3    0    3
 -2      1381      6412      6426      6743
 -1     42692    3    0    3
 -2      1241      1381      6427      6743
 -1     42693    3    0    3
 -2      4924       100       512      4923
 -1     42694    3    0    3
 -2      5720      4437      4359      6746
 -1     42695    3    0    3
 -2      4437      4359      5137      3489
 -1     42696    3    0    3
 -2      4359      4437      5137      6746
 -1     42697    3    0    3
 -2      6514      4118      4600      6643
 -1     42698    3    0    3
 -2      6514      4118      4069      4600
 -1     42699    3    0    3
 -2      6503      5157       935      6745
 -1     42700    3    0    3
 -2       935      5157       812      6745
 -1     42701    3    0    3
 -2      5156      6534      5157      6745
 -1     42702    3    0    3
 -2      5156      5157      6503      6745
 -1     42703    3    0    3
 -2      5720      4437      6746      6545
 -1     42704    3    0    3
 -2      5720      4437      6545      5140
 -1     42705    3    0    3
 -2      5806      4428      5852      5579
 -1     42706    3    0    3
 -2      6747       938      5560      6326
 -1     42707    3    0    3
 -2      4573      4343      5134      3824
 -1     42708    3    0    3
 -2      5563      6409      6428      5561
 -1     42709    3    0    3
 -2      5297      5296      1432      6407
 -1     42710    3    0    3
 -2      5026      2181      5028      5744
 -1     42711    3    0    3
 -2      6084      2482      4880      6222
 -1     42712    3    0    3
 -2      1838      5896      5015      1946
 -1     42713    3    0    3
 -2      4589      4590      4153      6748
 -1     42714    3    0    3
 -2      4590      2702      4600      6748
 -1     42715    3    0    3
 -2      4153      4590      4600      6748
 -1     42716    3    0    3
 -2      2758      6216      2750      2725
 -1     42717    3    0    3
 -2      2758      6216      2725      5880
 -1     42718    3    0    3
 -2      2758      6216      5880      6751
 -1     42719    3    0    3
 -2      6113      6525      6599      6749
 -1     42720    3    0    3
 -2      6525      6113      4591      6749
 -1     42721    3    0    3
 -2      6647      6599      6525      6749
 -1     42722    3    0    3
 -2      4591      6648      6525      6749
 -1     42723    3    0    3
 -2      6648      6647      6525      6749
 -1     42724    3    0    3
 -2      3430      3863      5822      6750
 -1     42725    3    0    3
 -2      5011      5005      2166      5832
 -1     42726    3    0    3
 -2      4743      6394      2615      5882
 -1     42727    3    0    3
 -2      4743      6394      3827      4740
 -1     42728    3    0    3
 -2      2757      2783      2758      6751
 -1     42729    3    0    3
 -2       846      2770      5393      2723
 -1     42730    3    0    3
 -2      6084      2482      6222      2637
 -1     42731    3    0    3
 -2      4083      6211      4831      4053
 -1     42732    3    0    3
 -2      6216      4826      5880      6751
 -1     42733    3    0    3
 -2      1339      6408      1324      1471
 -1     42734    3    0    3
 -2      6299      2441      2250      6752
 -1     42735    3    0    3
 -2      2250      2441      2223      6752
 -1     42736    3    0    3
 -2      3742       987      5666      5647
 -1     42737    3    0    3
 -2      1413      1601      6343      6753
 -1     42738    3    0    3
 -2      1413      1463      1601      6753
 -1     42739    3    0    3
 -2      4983      4960      3611      3549
 -1     42740    3    0    3
 -2      6350      2792      2819      6726
 -1     42741    3    0    3
 -2      5597      1413      6343      6753
 -1     42742    3    0    3
 -2      6350      2792      6726      5364
 -1     42743    3    0    3
 -2      4591      6650      6648      1755
 -1     42744    3    0    3
 -2      4591      6650      6649      6525
 -1     42745    3    0    3
 -2       954      4144      3657      5651
 -1     42746    3    0    3
 -2      5850      5897      5807      1986
 -1     42747    3    0    3
 -2      2262      2404      5026      6754
 -1     42748    3    0    3
 -2      6084      2482      2600      4880
 -1     42749    3    0    3
 -2      6084      2482      2637      2600
 -1     42750    3    0    3
 -2      6340      2175      5884      4800
 -1     42751    3    0    3
 -2      6619      4393      5587      5588
 -1     42752    3    0    3
 -2      6678      1929      6211      4825
 -1     42753    3    0    3
 -2      5934      2097      4803      6755
 -1     42754    3    0    3
 -2      2097      1790      4803      6755
 -1     42755    3    0    3
 -2      5934      1789      2097      6755
 -1     42756    3    0    3
 -2      2097      1789      1790      6755
 -1     42757    3    0    3
 -2      5980      1115      6759       919
 -1     42758    3    0    3
 -2      4804      1789      5934      6755
 -1     42759    3    0    3
 -2      5601      2833      5919      6756
 -1     42760    3    0    3
 -2      5601      2793      2833      6756
 -1     42761    3    0    3
 -2      4284      6574      1954      5816
 -1     42762    3    0    3
 -2      2793      2795      2833      6756
 -1     42763    3    0    3
 -2      5770      4980      3631      6757
 -1     42764    3    0    3
 -2      3494      6475      3632       719
 -1     42765    3    0    3
 -2      3435      5530      3395      3397
 -1     42766    3    0    3
 -2      1334      5572      5571      5689
 -1     42767    3    0    3
 -2      5572      1334      5571      5889
 -1     42768    3    0    3
 -2      1115      6363      5343      6759
 -1     42769    3    0    3
 -2      3054      6210      3056      3055
 -1     42770    3    0    3
 -2      6733      2383      4995      5744
 -1     42771    3    0    3
 -2      5778      2344      2425      6758
 -1     42772    3    0    3
 -2      2391      5004      5005      2392
 -1     42773    3    0    3
 -2      3362      5532      3336      3371
 -1     42774    3    0    3
 -2      1556      5558      5552      5768
 -1     42775    3    0    3
 -2      6565      6209      6528      6782
 -1     42776    3    0    3
 -2      5835      1115      1116      6759
 -1     42777    3    0    3
 -2      6363      1115      5835      6759
 -1     42778    3    0    3
 -2      6363      5835      5353      6759
 -1     42779    3    0    3
 -2      5350      5351      1536      6020
 -1     42780    3    0    3
 -2      5797      4991      2388      5678
 -1     42781    3    0    3
 -2      4991      5797      2388      6760
 -1     42782    3    0    3
 -2      5797      2339      2388      6760
 -1     42783    3    0    3
 -2      2388      2339      2569      6760
 -1     42784    3    0    3
 -2      2339      5797      4994      6760
 -1     42785    3    0    3
 -2      2339      4994      2569      6760
 -1     42786    3    0    3
 -2      1836      3063      3073       396
 -1     42787    3    0    3
 -2      1677      5775      6764      5728
 -1     42788    3    0    3
 -2      6445       776       988      5612
 -1     42789    3    0    3
 -2      5868      3647      3340      6761
 -1     42790    3    0    3
 -2      3367      3340      3647      6761
 -1     42791    3    0    3
 -2      4899      1979      1943      4931
 -1     42792    3    0    3
 -2      5512      3365      3332      3330
 -1     42793    3    0    3
 -2       994       780      1008      6762
 -1     42794    3    0    3
 -2      6637      5772      5581      6762
 -1     42795    3    0    3
 -2      5772       780      5581      6762
 -1     42796    3    0    3
 -2      6637      5581       994      6762
 -1     42797    3    0    3
 -2       780       994      5581      6762
 -1     42798    3    0    3
 -2      1473      1642      1641      6763
 -1     42799    3    0    3
 -2      6661      1642      5854      6763
 -1     42800    3    0    3
 -2      1642      1473      5854      6763
 -1     42801    3    0    3
 -2      1439      6369      5357      6322
 -1     42802    3    0    3
 -2      4460      5568      6661      6763
 -1     42803    3    0    3
 -2      5571      5568      4460      6763
 -1     42804    3    0    3
 -2      4815      2493      6691      6687
 -1     42805    3    0    3
 -2      6719      2008      4853      6790
 -1     42806    3    0    3
 -2      1836      3063       396      1881
 -1     42807    3    0    3
 -2      6694      6690      5918      5602
 -1     42808    3    0    3
 -2      5775      5603      6699      6764
 -1     42809    3    0    3
 -2      6699      5603      6690      6764
 -1     42810    3    0    3
 -2      2493      4815      6691      6667
 -1     42811    3    0    3
 -2      5734      1384      1378      1454
 -1     42812    3    0    3
 -2      6091      1076      1266      1166
 -1     42813    3    0    3
 -2      6606      3173      3856       489
 -1     42814    3    0    3
 -2      4393      5593      5594      6765
 -1     42815    3    0    3
 -2      6586       310      1889       309
 -1     42816    3    0    3
 -2      3173      6606      3856      6620
 -1     42817    3    0    3
 -2      6568      6574      5816      2231
 -1     42818    3    0    3
 -2      3063      6267      4808      6766
 -1     42819    3    0    3
 -2      6267      3063      4808      5875
 -1     42820    3    0    3
 -2      4812      4815      6691      4060
 -1     42821    3    0    3
 -2      4841      4839      3736      3520
 -1     42822    3    0    3
 -2      4880      2600      6084      6770
 -1     42823    3    0    3
 -2      4778      5964      3539      5970
 -1     42824    3    0    3
 -2      5743      1505      1504      6767
 -1     42825    3    0    3
 -2      1504      1505      1320      6767
 -1     42826    3    0    3
 -2      5587      5588      1584      6619
 -1     42827    3    0    3
 -2      1505      5743      5593      6767
 -1     42828    3    0    3
 -2      1320      1505      5593      6767
 -1     42829    3    0    3
 -2      6565      6209      6782      6492
 -1     42830    3    0    3
 -2      6565      6209      2118      6528
 -1     42831    3    0    3
 -2      6434      5193      1294      6780
 -1     42832    3    0    3
 -2      1122      1285      6446      6768
 -1     42833    3    0    3
 -2      1285      1122      1123      6768
 -1     42834    3    0    3
 -2      4104      3262      6606      6622
 -1     42835    3    0    3
 -2      6252      4701      3505      3915
 -1     42836    3    0    3
 -2      2674      6462      4613      6463
 -1     42837    3    0    3
 -2      6449       797      5122      5119
 -1     42838    3    0    3
 -2      6459      4282      5197      6769
 -1     42839    3    0    3
 -2      6449       797       930       970
 -1     42840    3    0    3
 -2      6459      6090      4282      6769
 -1     42841    3    0    3
 -2      6090      5198      4282      6769
 -1     42842    3    0    3
 -2      4597      4592      1956      5667
 -1     42843    3    0    3
 -2      6245      2444      4883      6266
 -1     42844    3    0    3
 -2      4880      4883      6245      6770
 -1     42845    3    0    3
 -2      1218      5144      6076      6551
 -1     42846    3    0    3
 -2      4880      6084      4883      6770
 -1     42847    3    0    3
 -2      6084      4880      4883      3675
 -1     42848    3    0    3
 -2      6142      4292      5143      6557
 -1     42849    3    0    3
 -2      4229      6491      5161      6103
 -1     42850    3    0    3
 -2      4229      6491      4279      5161
 -1     42851    3    0    3
 -2      5905      1011      1191      1147
 -1     42852    3    0    3
 -2      4903      3527      1916      6560
 -1     42853    3    0    3
 -2      4275      3287      3711      3232
 -1     42854    3    0    3
 -2      6677      4881      4882      6772
 -1     42855    3    0    3
 -2      6677      4882      5674      6772
 -1     42856    3    0    3
 -2      4881      5680      4879      6772
 -1     42857    3    0    3
 -2      4881      4879      3699      6772
 -1     42858    3    0    3
 -2      4289      5596      5599      4316
 -1     42859    3    0    3
 -2      3699      4882      4881      6772
 -1     42860    3    0    3
 -2      1687      5713      5718      6773
 -1     42861    3    0    3
 -2      5739      5725      5036      6774
 -1     42862    3    0    3
 -2      5739      2100      5725      6774
 -1     42863    3    0    3
 -2      1838      5896      5901      5015
 -1     42864    3    0    3
 -2      5725      2100      2095      6774
 -1     42865    3    0    3
 -2      6330      5918      5715      5823
 -1     42866    3    0    3
 -2      4347       331      1906      3352
 -1     42867    3    0    3
 -2      5717      1865      2100      6774
 -1     42868    3    0    3
 -2      1865      1709      2100      6774
 -1     42869    3    0    3
 -2      5349      5339      1508      6356
 -1     42870    3    0    3
 -2      5459      3388      3389      3411
 -1     42871    3    0    3
 -2      1579      6355      1622      5338
 -1     42872    3    0    3
 -2      6256      5444      1377      1428
 -1     42873    3    0    3
 -2      6351      1529      5567      6775
 -1     42874    3    0    3
 -2      5923      4406      5581      5867
 -1     42875    3    0    3
 -2      5931      3508      6363      5342
 -1     42876    3    0    3
 -2      4812      2529      4810      6691
 -1     42877    3    0    3
 -2      5579      5589      1485      5806
 -1     42878    3    0    3
 -2      2880      2857      5930      6777
 -1     42879    3    0    3
 -2      5341      5340      1382      5894
 -1     42880    3    0    3
 -2      2860      2857      2880      6777
 -1     42881    3    0    3
 -2      4168      6658      5369      5963
 -1     42882    3    0    3
 -2      4168      6658      4136      5369
 -1     42883    3    0    3
 -2      5975      5365      2860      6777
 -1     42884    3    0    3
 -2      6486      3631      5546      5548
 -1     42885    3    0    3
 -2      6486      5547      6393      6778
 -1     42886    3    0    3
 -2      1637      5659      5397      6010
 -1     42887    3    0    3
 -2      6486      3631      5547      6778
 -1     42888    3    0    3
 -2      1637      5659      6010      1509
 -1     42889    3    0    3
 -2      6418      5297      1358      6779
 -1     42890    3    0    3
 -2      4738      4737      6196      6040
 -1     42891    3    0    3
 -2      6425       952      1114      6411
 -1     42892    3    0    3
 -2      6425       952      1186      1114
 -1     42893    3    0    3
 -2      6436      3954      4626      6439
 -1     42894    3    0    3
 -2      6768      5182      3962      6780
 -1     42895    3    0    3
 -2      3962      5182      5193      6780
 -1     42896    3    0    3
 -2      1123      1285      6768      6780
 -1     42897    3    0    3
 -2      6471       989      1216      5188
 -1     42898    3    0    3
 -2      6434      1294      1123      6780
 -1     42899    3    0    3
 -2      1294      1285      1123      6780
 -1     42900    3    0    3
 -2      1637      5659      1509      1638
 -1     42901    3    0    3
 -2      4593      1829      6494      6783
 -1     42902    3    0    3
 -2      3479      4418      3746      5559
 -1     42903    3    0    3
 -2      4446      4996      5563      4474
 -1     42904    3    0    3
 -2      4333      4569      6117      6782
 -1     42905    3    0    3
 -2        80      5059      1802      1803
 -1     42906    3    0    3
 -2        80      5059      1803       559
 -1     42907    3    0    3
 -2        80      5059       559       562
 -1     42908    3    0    3
 -2        80      5059       562      1802
 -1     42909    3    0    3
 -2      5667      1956      1988      6783
 -1     42910    3    0    3
 -2      1829      1988      1956      6783
 -1     42911    3    0    3
 -2      4593      5667      1988      6783
 -1     42912    3    0    3
 -2      1829      4593      1988      6783
 -1     42913    3    0    3
 -2      6022      1386      6497      1293
 -1     42914    3    0    3
 -2      3101      3122      4389      3112
 -1     42915    3    0    3
 -2      6528      6526      6117      6209
 -1     42916    3    0    3
 -2      6543      5141      5142      6784
 -1     42917    3    0    3
 -2      5142      5141      4314      6784
 -1     42918    3    0    3
 -2      5142      6516      6543      6784
 -1     42919    3    0    3
 -2      6171      3905      4628      4627
 -1     42920    3    0    3
 -2      6092      5440       939      5442
 -1     42921    3    0    3
 -2      6638      6527      6563      6798
 -1     42922    3    0    3
 -2      6638      6563      4333      6798
 -1     42923    3    0    3
 -2      6785      3111      3143      6798
 -1     42924    3    0    3
 -2      6638      4333      6117      6798
 -1     42925    3    0    3
 -2      6167      4629      2289      6787
 -1     42926    3    0    3
 -2      4629      6167      2289      6198
 -1     42927    3    0    3
 -2      3462      3255      3766      3982
 -1     42928    3    0    3
 -2      3255      3462      3766      4727
 -1     42929    3    0    3
 -2      6719      4853      4852      6790
 -1     42930    3    0    3
 -2      4885      6249      2192      6266
 -1     42931    3    0    3
 -2      6167      2289      2427      6787
 -1     42932    3    0    3
 -2      6609      2017      2132      2019
 -1     42933    3    0    3
 -2      4629      4630      2289      6787
 -1     42934    3    0    3
 -2      5794      6477      4980      4977
 -1     42935    3    0    3
 -2      6719      4853      3917      4852
 -1     42936    3    0    3
 -2       287      5715      5713       288
 -1     42937    3    0    3
 -2      3951      4646      4648      4007
 -1     42938    3    0    3
 -2      3975      1890      1963      6124
 -1     42939    3    0    3
 -2      6167      2333      2370      6788
 -1     42940    3    0    3
 -2      4646      3951      4648      4164
 -1     42941    3    0    3
 -2      6306      1360      1403      5334
 -1     42942    3    0    3
 -2      3131      6209      6114      4568
 -1     42943    3    0    3
 -2      6638      6530      6647      6789
 -1     42944    3    0    3
 -2      6638       480      6530      6789
 -1     42945    3    0    3
 -2      2718      6569      6567      4578
 -1     42946    3    0    3
 -2      6530       480      3078      6789
 -1     42947    3    0    3
 -2      4660      1781      6606      6795
 -1     42948    3    0    3
 -2      5927      2857      4803      5929
 -1     42949    3    0    3
 -2      5862      4985      4988      6801
 -1     42950    3    0    3
 -2      3945      6468      5223      3917
 -1     42951    3    0    3
 -2      3945      6468      6313      5223
 -1     42952    3    0    3
 -2      4609      4813      2497      6483
 -1     42953    3    0    3
 -2      2055      2285      2298      6790
 -1     42954    3    0    3
 -2      6536      3076      4593      6210
 -1     42955    3    0    3
 -2      1755      6648      4591      5711
 -1     42956    3    0    3
 -2      4604      6600      6504      2509
 -1     42957    3    0    3
 -2      1755      6648      1754      6650
 -1     42958    3    0    3
 -2      2194      4585      6629      6636
 -1     42959    3    0    3
 -2      2513      4816      4822      6700
 -1     42960    3    0    3
 -2      4604      6600      4148      6504
 -1     42961    3    0    3
 -2      4604      6600      4598      4148
 -1     42962    3    0    3
 -2       760      6323      1035      5861
 -1     42963    3    0    3
 -2      2289      6588      2216      2427
 -1     42964    3    0    3
 -2      2269      5660      5013      5011
 -1     42965    3    0    3
 -2      2289      6588      6787      4630
 -1     42966    3    0    3
 -2      6078      1192      5191      6434
 -1     42967    3    0    3
 -2      5838      3848      1006       648
 -1     42968    3    0    3
 -2      2084      1816      1815      6792
 -1     42969    3    0    3
 -2      4815      4812      6691      6667
 -1     42970    3    0    3
 -2      2269      5660      5011      2336
 -1     42971    3    0    3
 -2      4769      6110      5950      3671
 -1     42972    3    0    3
 -2      5584       665      2794      6683
 -1     42973    3    0    3
 -2      4816      2513      4822      6285
 -1     42974    3    0    3
 -2       760      6323      5861      6057
 -1     42975    3    0    3
 -2       651       652       965      6794
 -1     42976    3    0    3
 -2      5829      1037       965      6794
 -1     42977    3    0    3
 -2       651       965      1037      6794
 -1     42978    3    0    3
 -2      5582      1037      5829      6794
 -1     42979    3    0    3
 -2      5807      2166      2236      5011
 -1     42980    3    0    3
 -2       936      6491      5161      5156
 -1     42981    3    0    3
 -2      2182      4657      4658      6484
 -1     42982    3    0    3
 -2      1192      6078      5191      6456
 -1     42983    3    0    3
 -2      1474      5724      1355      6455
 -1     42984    3    0    3
 -2      2857      5927      4803      6777
 -1     42985    3    0    3
 -2      5590      6624      6625      5753
 -1     42986    3    0    3
 -2      4815      6632      4821      4026
 -1     42987    3    0    3
 -2      6632      4815      4821      6796
 -1     42988    3    0    3
 -2      3193      3895      4282      3185
 -1     42989    3    0    3
 -2      5035      5722      2838      6797
 -1     42990    3    0    3
 -2      5722      5035      2838      4189
 -1     42991    3    0    3
 -2      6667      2693      4815      6796
 -1     42992    3    0    3
 -2      2566      4854      2513      2414
 -1     42993    3    0    3
 -2      4815      6632      6667      6796
 -1     42994    3    0    3
 -2      3193      3895      3185      3194
 -1     42995    3    0    3
 -2      3193      3895      6457      4282
 -1     42996    3    0    3
 -2      3193      3895      3194      6457
 -1     42997    3    0    3
 -2      5903      2836      2867      6797
 -1     42998    3    0    3
 -2      2836      2838      2867      6797
 -1     42999    3    0    3
 -2      6785      6117      6561      6798
 -1     43000    3    0    3
 -2      6561      6117      4333      6798
 -1     43001    3    0    3
 -2      3130      4565      3125      3154
 -1     43002    3    0    3
 -2      6638      3143      3118      6798
 -1     43003    3    0    3
 -2      6344      1385      3657      1039
 -1     43004    3    0    3
 -2      1385      6344      3657      5694
 -1     43005    3    0    3
 -2      3392      4953      3393      3971
 -3
    1PSTEP                         1           1           1          
  100CL  101 1.000000000        6794                     0    1           1
 -4  DISP        4    1
 -5  D1          1    2    1    0
 -5  D2          1    2    2    0
 -5  D3          1    2    3    0
 -5  ALL         1    2    0    0    1ALL
 -1         1-4.48432E-08-1.91847E-08-2.69874E-09
 -1         2-1.15647E-07-3.92949E-07-3.67549E-08
 -1         3-1.12199E-07-4.03483E-07-3.71692E-08
 -1         4-4.30040E-08-1.97186E-08-5.92085E-10
 -1         5 2.63169E-11-4.90067E-08 5.82237E-11
 -1         6-1.47668E-09-3.45969E-07 4.63431E-11
 -1         7 4.49653E-08-1.91116E-08 2.91606E-09
 -1         8 0.00000E+00 0.00000E+00 0.00000E+00
 -1         9 1.16583E-07-3.93260E-07 3.83560E-08
 -1        10 5.49938E-08-4.54400E-07 2.40520E-08
 -1        11-5.56643E-08-4.51702E-07-2.33077E-08
 -1        12 0.00000E+00 0.00000E+00 0.00000E+00
 -1        13 0.00000E+00 0.00000E+00 0.00000E+00
 -1        14 5.30884E-11-5.10137E-08 2.82080E-11
 -1        15-1.50542E-09-3.56593E-07-9.61871E-11
 -1        16 4.27647E-08-1.98026E-08 8.81355E-10
 -1        17 0.00000E+00 0.00000E+00 0.00000E+00
 -1        18-5.32581E-08-4.63783E-07-2.31534E-08
 -1        19 5.26245E-08-4.67301E-07 2.36389E-08
 -1        20 1.13008E-07-4.04399E-07 3.86894E-08
 -1        31-4.63700E-08-2.28428E-08-3.53299E-09
 -1        32-4.87837E-08-2.64167E-08-4.38751E-09
 -1        33-5.16013E-08-3.00310E-08-5.26821E-09
 -1        34-5.49091E-08-3.38907E-08-6.21530E-09
 -1        35-5.85880E-08-3.80956E-08-7.15775E-09
 -1        36-6.26457E-08-4.27512E-08-8.12234E-09
 -1        37-6.70925E-08-4.79788E-08-9.11585E-09
 -1        38-7.18690E-08-5.38927E-08-1.01567E-08
 -1        39-7.70456E-08-6.05329E-08-1.11856E-08
 -1        40-8.23085E-08-6.81696E-08-1.23405E-08
 -1        41-8.76532E-08-7.68654E-08-1.33934E-08
 -1        42-9.31918E-08-8.66723E-08-1.43547E-08
 -1        43-9.87910E-08-9.76441E-08-1.53139E-08
 -1        44-1.04496E-07-1.10025E-07-1.62948E-08
 -1        45-1.09864E-07-1.23666E-07-1.72262E-08
 -1        46-1.14804E-07-1.38544E-07-1.80647E-08
 -1        47-1.19160E-07-1.54571E-07-1.88180E-08
 -1        48-1.22791E-07-1.71465E-07-1.95592E-08
 -1        49-1.25584E-07-1.88878E-07-2.02307E-08
 -1        50-1.27558E-07-2.06415E-07-2.09535E-08
 -1        51-1.28717E-07-2.23910E-07-2.16605E-08
 -1        52-1.28961E-07-2.40712E-07-2.25198E-08
 -1        53-1.28633E-07-2.56875E-07-2.33379E-08
 -1        54-1.27805E-07-2.72039E-07-2.43054E-08
 -1        55-1.26592E-07-2.86135E-07-2.52841E-08
 -1        56-1.25241E-07-2.99210E-07-2.63769E-08
 -1        57-1.23692E-07-3.11242E-07-2.75690E-08
 -1        58-1.22268E-07-3.22397E-07-2.86868E-08
 -1        59-1.20961E-07-3.32820E-07-2.98071E-08
 -1        60-1.19765E-07-3.42566E-07-3.08945E-08
 -1        61-1.18758E-07-3.51776E-07-3.18916E-08
 -1        62-1.17921E-07-3.60574E-07-3.29921E-08
 -1        63-1.17148E-07-3.68982E-07-3.40163E-08
 -1        64-1.16518E-07-3.77153E-07-3.49722E-08
 -1        65-1.16040E-07-3.85109E-07-3.58904E-08
 -1        66-1.12782E-07-4.01669E-07-3.71199E-08
 -1        67-1.13331E-07-3.99866E-07-3.70573E-08
 -1        68-1.13875E-07-3.98093E-07-3.69890E-08
 -1        69-1.14444E-07-3.96342E-07-3.69142E-08
 -1        70-1.15022E-07-3.94631E-07-3.68388E-08
 -1        71-4.43503E-08-2.35197E-08-6.81731E-10
 -1        72-4.65568E-08-2.71927E-08-8.70990E-10
 -1        73-4.92240E-08-3.09794E-08-1.09831E-09
 -1        74-5.23082E-08-3.50112E-08-1.41278E-09
 -1        75-5.58045E-08-3.94308E-08-1.82347E-09
 -1        76-5.96566E-08-4.42896E-08-2.28263E-09
 -1        77-6.38650E-08-4.97381E-08-2.83117E-09
 -1        78-6.84371E-08-5.58853E-08-3.45575E-09
 -1        79-7.33235E-08-6.28592E-08-4.13930E-09
 -1        80-7.84444E-08-7.07276E-08-4.87708E-09
 -1        81-8.37703E-08-7.96242E-08-5.73209E-09
 -1        82-8.93212E-08-8.97518E-08-6.61393E-09
 -1        83-9.46171E-08-1.01022E-07-7.77963E-09
 -1        84-1.00134E-07-1.13717E-07-9.01225E-09
 -1        85-1.05361E-07-1.27748E-07-1.03562E-08
 -1        86-1.10148E-07-1.43020E-07-1.18063E-08
 -1        87-1.14364E-07-1.59369E-07-1.34363E-08
 -1        88-1.17901E-07-1.76580E-07-1.51298E-08
 -1        89-1.20649E-07-1.94367E-07-1.69506E-08
 -1        90-1.22671E-07-2.12457E-07-1.87271E-08
 -1        91-1.23737E-07-2.30104E-07-2.04972E-08
 -1        92-1.24035E-07-2.47476E-07-2.22355E-08
 -1        93-1.23733E-07-2.64009E-07-2.38667E-08
 -1        94-1.22953E-07-2.79548E-07-2.53828E-08
 -1        95-1.21800E-07-2.93989E-07-2.67860E-08
 -1        96-1.20513E-07-3.07385E-07-2.80856E-08
 -1        97-1.19099E-07-3.19716E-07-2.91862E-08
 -1        98-1.17812E-07-3.31172E-07-3.03050E-08
 -1        99-1.16655E-07-3.41880E-07-3.14109E-08
 -1       100-1.15654E-07-3.51870E-07-3.22886E-08
 -1       101-1.14770E-07-3.61332E-07-3.31601E-08
 -1       102-1.13955E-07-3.70328E-07-3.40297E-08
 -1       103-1.13349E-07-3.78971E-07-3.48599E-08
 -1       104-1.12863E-07-3.87333E-07-3.56541E-08
 -1       105-1.12469E-07-3.95498E-07-3.64125E-08
 -1       106-4.31771E-08-1.94602E-08-9.05269E-10
 -1       107-4.34085E-08-1.92615E-08-1.25811E-09
 -1       108-4.36169E-08-1.91681E-08-1.60002E-09
 -1       109-4.39829E-08-1.91096E-08-1.95881E-09
 -1       110-4.43163E-08-1.91315E-08-2.34388E-09
 -1       111-1.95546E-10-4.94209E-08-1.55674E-10
 -1       112-2.36772E-10-5.10499E-08-3.65740E-10
 -1       113 6.83771E-11-5.38779E-08-3.89610E-10
 -1       114 7.43393E-10-5.78243E-08-2.36372E-10
 -1       115 1.83029E-09-6.27973E-08-4.44282E-11
 -1       116 3.47772E-09-6.90093E-08 4.81862E-10
 -1       117 5.63274E-09-7.63480E-08 1.19193E-09
 -1       118 8.28506E-09-8.49210E-08 2.32485E-09
 -1       119 1.09539E-08-9.50361E-08 3.14508E-09
 -1       120 1.43264E-08-1.06343E-07 4.61382E-09
 -1       121 1.75567E-08-1.19297E-07 5.93063E-09
 -1       122 2.11905E-08-1.33578E-07 7.66002E-09
 -1       123 2.46206E-08-1.49438E-07 9.39480E-09
 -1       124 2.80511E-08-1.66397E-07 1.12687E-08
 -1       125 3.12980E-08-1.84073E-07 1.30368E-08
 -1       126 3.40802E-08-2.02109E-07 1.47558E-08
 -1       127 3.64010E-08-2.19843E-07 1.62079E-08
 -1       128 3.80681E-08-2.36939E-07 1.73473E-08
 -1       129 3.90654E-08-2.53001E-07 1.82037E-08
 -1       130 3.94819E-08-2.67815E-07 1.85519E-08
 -1       131 3.91506E-08-2.81147E-07 1.85661E-08
 -1       132 3.82003E-08-2.93012E-07 1.80002E-08
 -1       133 3.65095E-08-3.03508E-07 1.72485E-08
 -1       134 3.43079E-08-3.12701E-07 1.59499E-08
 -1       135 3.12318E-08-3.20578E-07 1.46901E-08
 -1       136 2.77483E-08-3.27359E-07 1.29331E-08
 -1       137 2.36211E-08-3.33042E-07 1.12141E-08
 -1       138 1.91305E-08-3.37635E-07 9.18968E-09
 -1       139 1.42858E-08-3.41222E-07 7.02925E-09
 -1       140 9.15912E-09-3.43786E-07 4.76491E-09
 -1       141 3.85340E-09-3.45376E-07 2.40679E-09
 -1       142-6.77801E-09-3.45679E-07-2.33243E-09
 -1       143-1.19158E-08-3.44368E-07-4.64002E-09
 -1       144-1.68390E-08-3.42038E-07-6.92115E-09
 -1       145-2.14162E-08-3.38663E-07-9.07843E-09
 -1       146-2.56306E-08-3.34242E-07-1.10568E-08
 -1       147-2.93169E-08-3.28651E-07-1.27907E-08
 -1       148-3.26487E-08-3.22064E-07-1.44813E-08
 -1       149-3.55006E-08-3.14255E-07-1.56834E-08
 -1       150-3.74976E-08-3.05017E-07-1.68953E-08
 -1       151-3.90825E-08-2.94748E-07-1.74834E-08
 -1       152-3.97928E-08-2.82880E-07-1.80584E-08
 -1       153-3.99335E-08-2.69513E-07-1.80419E-08
 -1       154-3.93278E-08-2.54759E-07-1.75935E-08
 -1       155-3.82852E-08-2.38544E-07-1.69100E-08
 -1       156-3.63069E-08-2.21400E-07-1.56194E-08
 -1       157-3.40499E-08-2.03622E-07-1.43338E-08
 -1       158-3.11999E-08-1.85489E-07-1.25624E-08
 -1       159-2.80569E-08-1.67629E-07-1.07310E-08
 -1       160-2.47493E-08-1.50608E-07-8.85466E-09
 -1       161-2.09047E-08-1.34662E-07-7.24171E-09
 -1       162-1.74358E-08-1.20127E-07-5.50715E-09
 -1       163-1.42571E-08-1.07045E-07-4.20497E-09
 -1       164-1.09752E-08-9.57011E-08-2.81065E-09
 -1       165-8.24539E-09-8.56468E-08-1.96700E-09
 -1       166-5.42645E-09-7.69130E-08-8.83168E-10
 -1       167-3.26353E-09-6.93574E-08-2.52956E-10
 -1       168-1.70015E-09-6.30608E-08 2.47099E-10
 -1       169-5.88365E-10-5.80378E-08 4.88013E-10
 -1       170 6.98431E-11-5.40198E-08 5.66099E-10
 -1       171 3.15016E-10-5.11680E-08 4.91242E-10
 -1       172 2.50471E-10-4.94841E-08 3.12059E-10
 -1       173 4.32702E-08-1.47176E-08 2.01662E-09
 -1       174 4.04869E-08-9.94640E-09 1.63945E-09
 -1       175 3.60633E-08-5.20070E-09 1.24989E-09
 -1       176 2.92562E-08-8.52144E-10 1.53911E-09
 -1       177 1.95712E-08 1.84031E-09 2.10836E-09
 -1       178 1.16886E-07-3.85183E-07 3.74783E-08
 -1       179 1.17337E-07-3.76973E-07 3.65215E-08
 -1       180 1.17889E-07-3.68572E-07 3.55291E-08
 -1       181 1.18569E-07-3.59921E-07 3.44806E-08
 -1       182 1.19438E-07-3.50931E-07 3.34214E-08
 -1       183 1.20362E-07-3.41537E-07 3.22888E-08
 -1       184 1.21374E-07-3.31628E-07 3.10950E-08
 -1       185 1.22599E-07-3.21131E-07 3.00345E-08
 -1       186 1.23995E-07-3.09848E-07 2.88433E-08
 -1       187 1.25345E-07-2.97681E-07 2.77020E-08
 -1       188 1.26671E-07-2.84536E-07 2.66203E-08
 -1       189 1.27791E-07-2.70355E-07 2.55871E-08
 -1       190 1.28486E-07-2.55156E-07 2.46200E-08
 -1       191 1.28706E-07-2.39069E-07 2.36991E-08
 -1       192 1.28301E-07-2.22252E-07 2.28769E-08
 -1       193 1.27214E-07-2.04905E-07 2.20838E-08
 -1       194 1.25176E-07-1.87470E-07 2.13036E-08
 -1       195 1.22345E-07-1.70185E-07 2.05628E-08
 -1       196 1.18713E-07-1.53422E-07 1.97834E-08
 -1       197 1.14377E-07-1.37529E-07 1.89405E-08
 -1       198 1.09425E-07-1.22776E-07 1.80707E-08
 -1       199 1.04110E-07-1.09238E-07 1.71149E-08
 -1       200 9.84741E-08-9.70478E-08 1.60419E-08
 -1       201 9.28402E-08-8.60666E-08 1.50165E-08
 -1       202 8.73035E-08-7.62948E-08 1.40768E-08
 -1       203 8.19922E-08-6.76672E-08 1.29291E-08
 -1       204 7.65955E-08-6.01887E-08 1.18547E-08
 -1       205 7.15684E-08-5.35681E-08 1.07829E-08
 -1       206 6.68803E-08-4.77259E-08 9.70750E-09
 -1       207 6.24904E-08-4.25397E-08 8.67024E-09
 -1       208 5.84962E-08-3.79115E-08 7.66752E-09
 -1       209 5.48367E-08-3.37069E-08 6.69683E-09
 -1       210 5.15341E-08-2.98487E-08 5.71760E-09
 -1       211 4.87611E-08-2.62869E-08 4.75236E-09
 -1       212 4.64262E-08-2.27552E-08 3.83616E-09
 -1       213 6.13847E-08-4.54017E-07 2.63445E-08
 -1       214 6.78245E-08-4.52979E-07 2.85544E-08
 -1       215 7.41906E-08-4.51210E-07 3.06289E-08
 -1       216 8.04058E-08-4.48742E-07 3.25476E-08
 -1       217 8.63601E-08-4.45583E-07 3.42605E-08
 -1       218 9.19747E-08-4.41747E-07 3.57621E-08
 -1       219 9.71757E-08-4.37281E-07 3.70263E-08
 -1       220 1.01888E-07-4.32228E-07 3.80399E-08
 -1       221 1.06024E-07-4.26643E-07 3.87854E-08
 -1       222 1.09540E-07-4.20602E-07 3.92642E-08
 -1       223 1.12397E-07-4.14158E-07 3.94599E-08
 -1       224 1.14537E-07-4.07398E-07 3.93738E-08
 -1       225 1.15937E-07-4.00396E-07 3.89976E-08
 -1       226-4.88860E-08-4.51688E-07-2.08246E-08
 -1       227-4.22666E-08-4.51807E-07-1.83461E-08
 -1       228-3.58128E-08-4.52150E-07-1.58400E-08
 -1       229-2.95530E-08-4.52753E-07-1.33928E-08
 -1       230-2.33833E-08-4.53736E-07-1.11067E-08
 -1       231-1.71372E-08-4.55027E-07-8.96054E-09
 -1       232-1.05690E-08-4.56093E-07-6.37881E-09
 -1       233-3.07462E-09-4.56861E-07-2.80425E-09
 -1       234 5.55936E-09-4.56961E-07 3.22064E-09
 -1       235 1.40084E-08-4.57260E-07 8.40661E-09
 -1       236 2.12971E-08-4.56804E-07 1.15677E-08
 -1       237 2.80917E-08-4.56161E-07 1.41428E-08
 -1       238 3.46175E-08-4.55381E-07 1.65000E-08
 -1       239 4.12358E-08-4.54815E-07 1.89413E-08
 -1       240 4.80335E-08-4.54507E-07 2.14676E-08
 -1       241-1.14962E-07-3.99853E-07-3.73807E-08
 -1       242-1.13576E-07-4.06613E-07-3.77376E-08
 -1       243-1.11473E-07-4.13150E-07-3.78296E-08
 -1       244-1.08683E-07-4.19370E-07-3.76526E-08
 -1       245-1.05239E-07-4.25210E-07-3.72068E-08
 -1       246-1.01210E-07-4.30598E-07-3.65058E-08
 -1       247-9.66245E-08-4.35467E-07-3.55583E-08
 -1       248-9.15707E-08-4.39762E-07-3.43696E-08
 -1       249-8.61234E-08-4.43445E-07-3.29611E-08
 -1       250-8.03422E-08-4.46473E-07-3.13501E-08
 -1       251-7.43181E-08-4.48829E-07-2.95511E-08
 -1       252-6.81194E-08-4.50471E-07-2.75898E-08
 -1       253-6.18794E-08-4.51422E-07-2.54968E-08
 -1       254-1.98816E-08 1.83840E-09-1.96376E-09
 -1       255-2.89859E-08-1.07346E-09-1.68673E-09
 -1       256-3.57864E-08-5.26346E-09-1.33573E-09
 -1       257-4.02065E-08-9.96950E-09-1.59194E-09
 -1       258-4.31510E-08-1.48012E-08-1.93328E-09
 -1       259 0.00000E+00 0.00000E+00 0.00000E+00
 -1       260 0.00000E+00 0.00000E+00 0.00000E+00
 -1       261 0.00000E+00 0.00000E+00 0.00000E+00
 -1       262 0.00000E+00 0.00000E+00 0.00000E+00
 -1       263 0.00000E+00 0.00000E+00 0.00000E+00
 -1       264 0.00000E+00 0.00000E+00 0.00000E+00
 -1       265 0.00000E+00 0.00000E+00 0.00000E+00
 -1       266 0.00000E+00 0.00000E+00 0.00000E+00
 -1       267 0.00000E+00 0.00000E+00 0.00000E+00
 -1       268 0.00000E+00 0.00000E+00 0.00000E+00
 -1       269 0.00000E+00 0.00000E+00 0.00000E+00
 -1       270 0.00000E+00 0.00000E+00 0.00000E+00
 -1       271 0.00000E+00 0.00000E+00 0.00000E+00
 -1       272 0.00000E+00 0.00000E+00 0.00000E+00
 -1       273 0.00000E+00 0.00000E+00 0.00000E+00
 -1       274 0.00000E+00 0.00000E+00 0.00000E+00
 -1       275 0.00000E+00 0.00000E+00 0.00000E+00
 -1       276 0.00000E+00 0.00000E+00 0.00000E+00
 -1       277 0.00000E+00 0.00000E+00 0.00000E+00
 -1       278 0.00000E+00 0.00000E+00 0.00000E+00
 -1       279 0.00000E+00 0.00000E+00 0.00000E+00
 -1       280 0.00000E+00 0.00000E+00 0.00000E+00
 -1       281 0.00000E+00 0.00000E+00 0.00000E+00
 -1       282-1.87510E-08 9.49996E-10 1.52351E-09
 -1       283-2.80881E-08-1.44924E-09 9.87634E-10
 -1       284-3.44834E-08-5.48149E-09 2.26761E-10
 -1       285-3.85922E-08-1.03634E-08-3.59493E-11
 -1       286-4.13540E-08-1.51884E-08-4.63512E-10
 -1       287 0.00000E+00 0.00000E+00 0.00000E+00
 -1       288 0.00000E+00 0.00000E+00 0.00000E+00
 -1       289 0.00000E+00 0.00000E+00 0.00000E+00
 -1       290 0.00000E+00 0.00000E+00 0.00000E+00
 -1       291 0.00000E+00 0.00000E+00 0.00000E+00
 -1       292-4.99228E-10-5.14578E-08 1.37642E-09
 -1       293-8.93281E-10-5.31461E-08 2.73243E-09
 -1       294-9.69771E-10-5.60252E-08 3.98079E-09
 -1       295-6.19982E-10-6.01053E-08 5.12810E-09
 -1       296 1.28090E-10-6.52090E-08 6.21686E-09
 -1       297 1.39102E-09-7.16893E-08 7.16611E-09
 -1       298 3.13266E-09-7.93802E-08 8.19749E-09
 -1       299 5.57284E-09-8.82477E-08 8.73973E-09
 -1       300 7.88410E-09-9.86089E-08 9.63453E-09
 -1       301 1.09325E-08-1.10045E-07 1.01162E-08
 -1       302 1.38521E-08-1.23430E-07 1.07582E-08
 -1       303 1.72237E-08-1.38251E-07 1.10612E-08
 -1       304 2.04820E-08-1.54446E-07 1.12348E-08
 -1       305 2.36736E-08-1.71827E-07 1.13104E-08
 -1       306 2.67096E-08-1.89960E-07 1.13403E-08
 -1       307 2.94561E-08-2.08461E-07 1.10833E-08
 -1       308 3.16540E-08-2.26675E-07 1.11822E-08
 -1       309 3.36108E-08-2.44197E-07 1.08961E-08
 -1       310 3.46592E-08-2.60766E-07 1.09478E-08
 -1       311 3.53198E-08-2.75927E-07 1.07737E-08
 -1       312 3.52307E-08-2.89653E-07 1.06674E-08
 -1       313 3.45438E-08-3.01974E-07 1.06201E-08
 -1       314 3.30760E-08-3.12563E-07 1.01878E-08
 -1       315 3.11461E-08-3.22178E-07 9.89550E-09
 -1       316 2.84243E-08-3.30327E-07 9.07451E-09
 -1       317 2.51024E-08-3.37260E-07 8.29456E-09
 -1       318 2.14968E-08-3.43222E-07 7.24240E-09
 -1       319 1.74311E-08-3.48056E-07 6.02230E-09
 -1       320 1.30082E-08-3.51809E-07 4.64169E-09
 -1       321 8.30372E-09-3.54479E-07 3.16215E-09
 -1       322 3.44379E-09-3.56069E-07 1.51544E-09
 -1       323-6.39480E-09-3.56275E-07-1.73441E-09
 -1       324-1.10922E-08-3.54772E-07-3.26503E-09
 -1       325-1.55854E-08-3.52241E-07-4.67286E-09
 -1       326-1.97921E-08-3.48700E-07-6.04747E-09
 -1       327-2.35900E-08-3.43960E-07-7.08987E-09
 -1       328-2.69507E-08-3.38168E-07-8.05907E-09
 -1       329-2.99002E-08-3.31251E-07-8.71733E-09
 -1       330-3.24693E-08-3.23275E-07-9.45638E-09
 -1       331-3.41388E-08-3.13837E-07-9.70170E-09
 -1       332-3.54773E-08-3.03250E-07-1.00173E-08
 -1       333-3.58681E-08-2.90995E-07-9.96803E-09
 -1       334-3.58556E-08-2.77264E-07-1.01079E-08
 -1       335-3.51567E-08-2.62079E-07-1.01853E-08
 -1       336-3.38695E-08-2.45453E-07-1.03010E-08
 -1       337-3.20705E-08-2.27868E-07-1.04011E-08
 -1       338-2.96967E-08-2.09545E-07-1.05911E-08
 -1       339-2.69528E-08-1.91050E-07-1.07158E-08
 -1       340-2.36806E-08-1.72714E-07-1.07390E-08
 -1       341-2.04539E-08-1.55246E-07-1.07945E-08
 -1       342-1.72020E-08-1.38945E-07-1.06378E-08
 -1       343-1.39909E-08-1.24104E-07-1.01930E-08
 -1       344-1.07314E-08-1.10637E-07-9.86259E-09
 -1       345-7.94746E-09-9.89121E-08-9.27232E-09
 -1       346-5.52586E-09-8.86174E-08-8.52666E-09
 -1       347-3.00909E-09-7.95623E-08-8.00742E-09
 -1       348-1.27893E-09-7.19123E-08-7.04180E-09
 -1       349 9.36859E-12-6.54422E-08-6.05304E-09
 -1       350 7.44557E-10-6.01927E-08-5.00146E-09
 -1       351 1.03637E-09-5.60966E-08-3.81534E-09
 -1       352 9.31560E-10-5.31360E-08-2.54668E-09
 -1       353 5.91346E-10-5.14491E-08-1.32585E-09
 -1       354 4.12727E-08-1.52792E-08 6.66827E-10
 -1       355 3.84596E-08-1.03690E-08 1.41946E-10
 -1       356 3.40221E-08-5.63102E-09-2.75178E-10
 -1       357 2.74500E-08-1.42045E-09-1.18746E-09
 -1       358 1.84213E-08 1.34903E-09-1.76783E-09
 -1       359 0.00000E+00 0.00000E+00 0.00000E+00
 -1       360 0.00000E+00 0.00000E+00 0.00000E+00
 -1       361 0.00000E+00 0.00000E+00 0.00000E+00
 -1       362 0.00000E+00 0.00000E+00 0.00000E+00
 -1       363 0.00000E+00 0.00000E+00 0.00000E+00
 -1       364 0.00000E+00 0.00000E+00 0.00000E+00
 -1       365 0.00000E+00 0.00000E+00 0.00000E+00
 -1       366 0.00000E+00 0.00000E+00 0.00000E+00
 -1       367 0.00000E+00 0.00000E+00 0.00000E+00
 -1       368 0.00000E+00 0.00000E+00 0.00000E+00
 -1       369 0.00000E+00 0.00000E+00 0.00000E+00
 -1       370 0.00000E+00 0.00000E+00 0.00000E+00
 -1       371 0.00000E+00 0.00000E+00 0.00000E+00
 -1       372 0.00000E+00 0.00000E+00 0.00000E+00
 -1       373 0.00000E+00 0.00000E+00 0.00000E+00
 -1       374 0.00000E+00 0.00000E+00 0.00000E+00
 -1       375 0.00000E+00 0.00000E+00 0.00000E+00
 -1       376 0.00000E+00 0.00000E+00 0.00000E+00
 -1       377 0.00000E+00 0.00000E+00 0.00000E+00
 -1       378 0.00000E+00 0.00000E+00 0.00000E+00
 -1       379 0.00000E+00 0.00000E+00 0.00000E+00
 -1       380 0.00000E+00 0.00000E+00 0.00000E+00
 -1       381 0.00000E+00 0.00000E+00 0.00000E+00
 -1       382-1.11610E-07-4.10519E-07-3.77241E-08
 -1       383-1.10285E-07-4.17402E-07-3.80179E-08
 -1       384-1.08245E-07-4.24037E-07-3.80675E-08
 -1       385-1.05510E-07-4.30361E-07-3.78589E-08
 -1       386-1.02126E-07-4.36287E-07-3.73994E-08
 -1       387-9.81613E-08-4.41772E-07-3.66770E-08
 -1       388-9.36357E-08-4.46731E-07-3.57105E-08
 -1       389-8.86441E-08-4.51119E-07-3.45113E-08
 -1       390-8.32644E-08-4.54893E-07-3.30833E-08
 -1       391-7.75578E-08-4.58025E-07-3.14385E-08
 -1       392-7.15915E-08-4.60486E-07-2.96172E-08
 -1       393-6.54911E-08-4.62242E-07-2.76182E-08
 -1       394-5.93399E-08-4.63334E-07-2.54799E-08
 -1       395-4.66213E-08-4.63991E-07-2.04717E-08
 -1       396-4.02521E-08-4.64425E-07-1.76517E-08
 -1       397-3.40190E-08-4.65100E-07-1.46901E-08
 -1       398-2.81019E-08-4.66243E-07-1.14743E-08
 -1       399-2.23828E-08-4.67864E-07-7.98244E-09
 -1       400-1.68846E-08-4.70384E-07-3.71315E-09
 -1       401-1.09161E-08-4.72484E-07 2.25642E-10
 -1       402-4.08396E-09-4.74874E-07 3.99165E-09
 -1       403 5.85484E-09-4.74352E-07 3.89852E-09
 -1       404 1.52666E-08-4.76582E-07 3.67672E-10
 -1       405 2.17213E-08-4.73866E-07 5.70209E-09
 -1       406 2.73807E-08-4.71381E-07 1.01423E-08
 -1       407 3.32460E-08-4.69606E-07 1.39933E-08
 -1       408 3.94598E-08-4.68455E-07 1.74956E-08
 -1       409 4.58804E-08-4.67689E-07 2.06957E-08
 -1       410 5.88405E-08-4.66709E-07 2.61674E-08
 -1       411 6.51414E-08-4.65485E-07 2.84835E-08
 -1       412 7.14147E-08-4.63589E-07 3.06172E-08
 -1       413 7.75424E-08-4.61016E-07 3.25681E-08
 -1       414 8.34088E-08-4.57742E-07 3.43250E-08
 -1       415 8.89363E-08-4.53809E-07 3.58629E-08
 -1       416 9.40672E-08-4.49233E-07 3.71372E-08
 -1       417 9.87038E-08-4.44072E-07 3.81729E-08
 -1       418 1.02780E-07-4.38378E-07 3.89274E-08
 -1       419 1.06244E-07-4.32232E-07 3.94187E-08
 -1       420 1.09035E-07-4.25684E-07 3.96461E-08
 -1       421 1.11108E-07-4.18808E-07 3.95950E-08
 -1       422 1.12442E-07-4.11685E-07 3.92828E-08
 -1       423 1.13243E-07-3.96141E-07 3.78882E-08
 -1       424 1.13547E-07-3.87740E-07 3.71109E-08
 -1       425 1.13964E-07-3.79124E-07 3.62700E-08
 -1       426 1.14514E-07-3.70249E-07 3.54011E-08
 -1       427 1.15203E-07-3.61025E-07 3.45165E-08
 -1       428 1.16026E-07-3.51388E-07 3.35925E-08
 -1       429 1.16955E-07-3.41187E-07 3.25836E-08
 -1       430 1.18120E-07-3.30409E-07 3.15953E-08
 -1       431 1.19343E-07-3.18791E-07 3.04849E-08
 -1       432 1.20579E-07-3.06280E-07 2.92544E-08
 -1       433 1.21768E-07-2.92819E-07 2.79555E-08
 -1       434 1.22806E-07-2.78315E-07 2.65077E-08
 -1       435 1.23474E-07-2.62757E-07 2.49762E-08
 -1       436 1.23663E-07-2.46272E-07 2.33332E-08
 -1       437 1.23218E-07-2.29044E-07 2.15576E-08
 -1       438 1.22160E-07-2.11204E-07 1.97414E-08
 -1       439 1.20180E-07-1.93351E-07 1.79353E-08
 -1       440 1.17383E-07-1.75659E-07 1.60762E-08
 -1       441 1.13809E-07-1.58523E-07 1.43385E-08
 -1       442 1.09579E-07-1.42241E-07 1.26961E-08
 -1       443 1.04738E-07-1.27078E-07 1.11778E-08
 -1       444 9.95385E-08-1.13194E-07 9.77955E-09
 -1       445 9.40836E-08-1.00583E-07 8.55684E-09
 -1       446 8.88059E-08-8.93723E-08 7.37857E-09
 -1       447 8.32571E-08-7.93479E-08 6.43980E-09
 -1       448 7.79741E-08-7.05096E-08 5.57302E-09
 -1       449 7.28908E-08-6.27194E-08 4.78945E-09
 -1       450 6.80533E-08-5.58031E-08 4.08636E-09
 -1       451 6.35053E-08-4.97175E-08 3.44742E-09
 -1       452 5.92359E-08-4.42735E-08 2.91372E-09
 -1       453 5.54706E-08-3.94699E-08 2.37664E-09
 -1       454 5.20370E-08-3.50801E-08 1.91399E-09
 -1       455 4.89837E-08-3.10609E-08 1.52371E-09
 -1       456 4.63093E-08-2.72794E-08 1.28191E-09
 -1       457 4.41164E-08-2.36082E-08 1.03038E-09
 -1       458-5.36890E-08-4.61687E-07-2.32102E-08
 -1       459-5.41176E-08-4.59641E-07-2.32489E-08
 -1       460-5.45304E-08-4.57632E-07-2.32734E-08
 -1       461-5.49186E-08-4.55631E-07-2.32949E-08
 -1       462-5.53050E-08-4.53677E-07-2.33090E-08
 -1       463 0.00000E+00 0.00000E+00 0.00000E+00
 -1       464 0.00000E+00 0.00000E+00 0.00000E+00
 -1       465 0.00000E+00 0.00000E+00 0.00000E+00
 -1       466 0.00000E+00 0.00000E+00 0.00000E+00
 -1       467 0.00000E+00 0.00000E+00 0.00000E+00
 -1       468 4.29612E-08-1.95315E-08 1.18107E-09
 -1       469 4.32500E-08-1.92775E-08 1.53893E-09
 -1       470 4.35268E-08-1.91504E-08 1.87950E-09
 -1       471 4.39790E-08-1.90481E-08 2.21848E-09
 -1       472 4.44115E-08-1.90635E-08 2.56988E-09
 -1       473 1.13625E-07-4.02484E-07 3.86495E-08
 -1       474 1.14194E-07-4.00589E-07 3.86032E-08
 -1       475 1.14754E-07-3.98723E-07 3.85504E-08
 -1       476 1.15340E-07-3.96869E-07 3.84887E-08
 -1       477 1.15951E-07-3.95046E-07 3.84220E-08
 -1       478 5.30324E-08-4.65038E-07 2.37421E-08
 -1       479 5.34560E-08-4.62810E-07 2.38364E-08
 -1       480 5.38506E-08-4.60651E-07 2.39003E-08
 -1       481 5.42297E-08-4.58553E-07 2.39718E-08
 -1       482 5.46207E-08-4.56464E-07 2.40244E-08
 -1       483 4.84806E-11-5.02147E-08 2.58823E-11
 -1       484 9.98321E-11-4.97228E-08 7.28587E-12
 -1       485 7.66493E-11-4.93312E-08 5.26604E-11
 -1       486 3.58371E-11-4.91261E-08 5.44744E-11
 -1       487 2.13655E-11-4.89565E-08 4.86897E-11
 -1       488-1.49872E-09-3.55037E-07-7.19275E-11
 -1       489-1.48143E-09-3.53418E-07-8.86864E-11
 -1       490-1.46525E-09-3.51647E-07-3.72150E-11
 -1       491-1.46615E-09-3.49776E-07-2.27864E-11
 -1       492-1.46220E-09-3.47917E-07 1.21485E-11
 -1       493-1.18315E-07-3.34616E-07-3.05892E-08
 -1       494-1.19483E-07-3.23940E-07-2.95051E-08
 -1       495-1.09114E-07-1.35447E-07-1.24171E-08
 -1       496-1.12944E-07-1.44453E-07-1.44663E-08
 -1       497-1.08049E-07-1.28668E-07-1.32365E-08
 -1       498-9.54813E-08-9.35557E-08-1.33528E-08
 -1       499-1.00972E-07-1.04881E-07-1.44130E-08
 -1       500-1.23872E-07-1.91617E-07-1.88635E-08
 -1       501-1.23511E-07-1.81741E-07-1.91580E-08
 -1       502-1.21198E-07-1.73777E-07-1.79027E-08
 -1       503-1.22906E-07-2.02113E-07-1.83510E-08
 -1       504-6.68207E-08-5.27732E-08-4.41668E-09
 -1       505-6.22253E-08-4.68141E-08-3.72931E-09
 -1       506-1.18598E-07-3.48347E-07-3.15847E-08
 -1       507-1.19652E-07-3.38793E-07-3.05683E-08
 -1       508-8.60296E-08-7.88268E-08-1.00881E-08
 -1       509-8.42349E-08-7.35873E-08-1.13934E-08
 -1       510-8.07201E-08-6.98765E-08-9.51526E-09
 -1       511-5.81624E-08-4.17043E-08-3.19783E-09
 -1       512-1.17023E-07-3.45170E-07-3.15938E-08
 -1       513-1.24468E-07-2.19629E-07-1.99408E-08
 -1       514-1.25245E-07-2.36938E-07-2.14976E-08
 -1       515-1.23475E-07-3.06391E-07-2.73512E-08
 -1       516-1.25030E-07-2.93639E-07-2.61006E-08
 -1       517-1.23553E-07-3.00240E-07-2.69689E-08
 -1       518-6.01317E-08-4.11789E-08-6.62812E-09
 -1       519-6.43551E-08-4.62108E-08-7.45178E-09
 -1       520-1.13231E-07-3.88848E-07-3.58737E-08
 -1       521-1.13247E-07-3.94124E-07-3.64262E-08
 -1       522-1.13931E-07-3.85477E-07-3.56131E-08
 -1       523-1.19827E-07-3.27079E-07-2.96694E-08
 -1       524-1.21911E-07-3.14023E-07-2.82489E-08
 -1       525-1.20909E-07-3.16621E-07-2.86846E-08
 -1       526-1.20590E-07-1.84259E-07-1.67320E-08
 -1       527-1.17586E-07-1.67772E-07-1.52504E-08
 -1       528-1.20183E-07-1.63831E-07-1.81725E-08
 -1       529-1.16126E-07-1.47424E-07-1.71772E-08
 -1       530-1.17352E-07-1.57016E-07-1.65111E-08
 -1       531-1.16681E-07-3.66072E-07-3.36528E-08
 -1       532-1.17509E-07-3.57333E-07-3.26469E-08
 -1       533-1.16379E-07-3.62785E-07-3.32938E-08
 -1       534-1.15111E-07-3.64185E-07-3.34259E-08
 -1       535-8.97433E-08-8.29958E-08-1.22925E-08
 -1       536-7.98450E-08-7.02446E-08-7.93010E-09
 -1       537-8.48098E-08-7.87390E-08-8.37030E-09
 -1       538-7.86535E-08-6.51627E-08-1.02938E-08
 -1       539-7.36583E-08-5.81202E-08-9.29916E-09
 -1       540-7.52652E-08-6.22301E-08-8.21445E-09
 -1       541-1.13841E-07-3.92395E-07-3.63549E-08
 -1       542-1.25228E-07-2.54322E-07-2.30565E-08
 -1       543-1.26163E-07-2.44462E-07-2.23320E-08
 -1       544-1.11396E-07-1.31805E-07-1.62829E-08
 -1       545-1.06415E-07-1.17834E-07-1.54078E-08
 -1       546-4.96442E-08-2.87229E-08-4.04186E-09
 -1       547-1.27948E-07-2.33907E-07-2.19959E-08
 -1       548-1.23543E-07-2.85361E-07-2.58465E-08
 -1       549-4.55530E-08-2.23599E-08-2.76538E-09
 -1       550-1.14630E-07-3.76303E-07-3.46960E-08
 -1       551-1.13736E-07-3.81311E-07-3.51429E-08
 -1       552-1.16019E-07-3.54718E-07-3.25112E-08
 -1       553-1.17405E-07-3.47567E-07-3.17258E-08
 -1       554-1.17322E-07-3.53567E-07-3.22892E-08
 -1       555-1.18357E-07-3.44803E-07-3.12965E-08
 -1       556-1.24613E-07-2.69930E-07-2.44844E-08
 -1       557-1.16596E-07-1.59175E-07-1.54452E-08
 -1       558-8.71223E-08-8.40529E-08-7.56541E-09
 -1       559-8.16669E-08-7.46434E-08-6.69661E-09
 -1       560-1.20727E-07-3.11853E-07-2.83328E-08
 -1       561-1.18344E-07-3.38202E-07-3.07950E-08
 -1       562-7.65895E-08-6.66701E-08-5.91186E-09
 -1       563-1.26075E-07-2.60458E-07-2.36855E-08
 -1       564-9.84839E-08-1.06863E-07-9.93616E-09
 -1       565-1.04016E-07-1.20403E-07-1.11999E-08
 -1       566-1.02175E-07-1.12852E-07-1.20671E-08
 -1       567-1.16240E-07-3.58320E-07-3.28363E-08
 -1       568-1.28073E-07-2.49803E-07-2.29046E-08
 -1       569-1.26988E-07-2.58945E-07-2.35670E-08
 -1       570-1.27177E-07-2.43280E-07-2.23936E-08
 -1       571-1.16094E-07-3.74189E-07-3.45936E-08
 -1       572-1.24786E-07-2.07899E-07-1.94470E-08
 -1       573-1.22730E-07-1.91874E-07-1.80571E-08
 -1       574-4.49060E-08-2.29615E-08-1.70204E-09
 -1       575-6.08968E-08-4.41849E-08-4.76086E-09
 -1       576-9.23856E-08-9.00240E-08-1.13749E-08
 -1       577-4.74242E-08-2.51686E-08-3.55902E-09
 -1       578-1.20828E-07-3.29011E-07-2.95217E-08
 -1       579-1.12558E-07-1.39100E-07-1.53676E-08
 -1       580-1.14432E-07-3.85893E-07-3.57373E-08
 -1       581-1.14756E-07-3.79814E-07-3.51009E-08
 -1       582-1.14354E-07-3.72959E-07-3.43198E-08
 -1       583-5.10456E-08-3.28285E-08-2.08036E-09
 -1       584-6.50431E-08-4.96480E-08-5.15503E-09
 -1       585-6.57719E-08-4.94617E-08-6.48702E-09
 -1       586-9.27472E-08-9.46779E-08-8.65960E-09
 -1       587-9.58439E-08-9.89687E-08-1.06641E-08
 -1       588-1.15576E-07-3.72229E-07-3.43186E-08
 -1       589-5.45516E-08-3.56564E-08-4.44135E-09
 -1       590-5.12956E-08-3.16860E-08-3.72863E-09
 -1       591-5.28434E-08-3.44208E-08-3.22404E-09
 -1       592-5.43820E-08-3.70139E-08-2.58503E-09
 -1       593-5.28394E-08-3.26771E-08-4.89318E-09
 -1       594-4.50950E-08-2.23484E-08-2.19545E-09
 -1       595-4.43432E-08-2.22437E-08-1.16708E-09
 -1       596-5.63462E-08-3.68077E-08-5.74831E-09
 -1       597-1.19230E-07-3.35879E-07-3.04665E-08
 -1       598-1.22391E-07-3.04976E-07-2.75449E-08
 -1       599-7.14619E-08-5.91346E-08-5.12686E-09
 -1       600-1.13589E-07-1.51062E-07-1.37421E-08
 -1       601-1.27330E-07-2.16543E-07-2.09740E-08
 -1       602-1.25759E-07-1.99141E-07-2.00437E-08
 -1       603-4.70191E-08-2.54574E-08-3.01508E-09
 -1       604-5.65018E-08-3.88624E-08-3.89671E-09
 -1       605-6.87040E-08-5.16482E-08-8.33387E-09
 -1       606-6.97994E-08-5.56906E-08-6.23294E-09
 -1       607-1.22265E-07-2.98904E-07-2.71357E-08
 -1       608-1.24038E-07-2.90189E-07-2.61891E-08
 -1       609-1.24931E-07-2.76234E-07-2.49946E-08
 -1       610-1.15385E-07-3.67742E-07-3.38154E-08
 -1       611-1.25934E-07-2.74393E-07-2.47613E-08
 -1       612-1.20354E-07-1.74937E-07-1.69729E-08
 -1       613-1.15745E-07-3.81277E-07-3.53808E-08
 -1       614-1.15120E-07-3.88133E-07-3.61039E-08
 -1       615-4.97581E-08-3.05436E-08-2.62627E-09
 -1       616-8.99340E-08-8.75132E-08-9.52073E-09
 -1       617-1.14485E-07-3.90267E-07-3.62363E-08
 -1       618-1.26382E-07-2.79866E-07-2.50558E-08
 -1       619-4.71094E-08-2.69149E-08-2.09786E-09
 -1       620-4.86162E-08-2.82672E-08-3.01977E-09
 -1       621-1.26219E-07-2.27026E-07-2.10034E-08
 -1       622-1.27097E-07-2.26685E-07-2.13247E-08
 -1       623-1.26045E-07-2.10845E-07-2.01926E-08
 -1       624-1.25047E-07-2.87703E-07-2.58243E-08
 -1       625-1.22166E-07-3.17877E-07-2.83894E-08
 -1       626-1.15175E-07-3.81280E-07-3.53250E-08
 -1       627-1.07533E-07-1.23938E-07-1.43399E-08
 -1       628-1.27395E-07-2.65740E-07-2.39966E-08
 -1       629-7.05404E-08-5.53183E-08-7.64797E-09
 -1       630-4.58475E-08-2.53629E-08-1.36221E-09
 -1       631-4.81795E-08-2.89883E-08-1.66204E-09
 -1       632-5.82043E-08-3.99939E-08-5.20914E-09
 -1       633-6.18935E-08-4.42432E-08-6.07686E-09
 -1       634-1.20722E-07-3.24991E-07-2.92656E-08
 -1       635-7.45307E-08-6.26096E-08-6.72942E-09
 -1       636-9.82025E-08-1.01525E-07-1.25039E-08
 -1       637-4.64486E-08-2.52021E-08-2.38711E-09
 -1       638-1.03116E-07-1.12054E-07-1.36731E-08
 -1       639 4.34559E-08-2.42061E-08 4.24414E-09
 -1       640 4.58775E-08-2.74126E-08 5.00035E-09
 -1       641-1.08559E-07-3.88397E-07-3.43742E-08
 -1       642-1.08402E-07-3.95322E-07-3.51064E-08
 -1       643 5.50055E-08-3.88358E-08 7.46556E-09
 -1       644 5.16544E-08-3.46507E-08 6.60676E-09
 -1       645-4.70561E-08-1.94077E-07-1.42891E-08
 -1       646-4.93320E-08-2.13714E-07-1.57720E-08
 -1       647-5.77706E-08-4.44286E-07-2.36039E-08
 -1       648-1.06991E-07-4.01865E-07-3.54207E-08
 -1       649-7.61472E-08-7.04912E-08-1.16137E-08
 -1       650-4.32786E-08-2.42128E-08-3.91129E-09
 -1       651-5.71590E-10-2.34538E-09-4.35003E-10
 -1       652-7.95142E-10-2.22111E-09-6.23670E-10
 -1       653-3.65752E-10-5.29380E-08 6.56058E-11
 -1       654-3.89770E-09-6.11078E-08-6.76113E-10
 -1       655-1.78792E-09-5.64728E-08-1.69657E-10
 -1       656 2.84032E-08-8.00495E-09 2.13696E-09
 -1       657 2.09801E-08-5.31781E-09 2.63153E-09
 -1       658 3.37537E-08-1.08283E-08 2.07211E-09
 -1       659 1.10795E-07-3.46927E-07 3.12526E-08
 -1       660 1.10189E-07-3.56073E-07 3.22515E-08
 -1       661 5.71506E-08-4.46815E-07 2.43625E-08
 -1       662 5.10220E-08-4.46625E-07 2.21047E-08
 -1       663-1.10728E-07-3.38569E-07-2.89408E-08
 -1       664 1.09644E-07-3.64723E-07 3.31611E-08
 -1       665-1.40753E-09-2.08291E-09-9.80655E-10
 -1       666-1.84719E-09-1.99741E-09-1.28209E-09
 -1       667-2.33464E-09-1.97704E-09-1.68774E-09
 -1       668 3.81792E-08-4.47138E-07 1.72873E-08
 -1       669 3.16964E-08-4.47655E-07 1.48513E-08
 -1       670 1.05936E-07-4.08427E-07 3.70109E-08
 -1       671 1.04045E-07-4.14643E-07 3.70691E-08
 -1       672-3.93344E-08-4.44336E-07-1.67600E-08
 -1       673 2.35503E-08-3.41685E-07 1.11310E-08
 -1       674 7.45362E-08-4.43265E-07 3.01764E-08
 -1       675 8.96130E-08-4.34073E-07 3.43885E-08
 -1       676 8.49783E-08-4.37681E-07 3.31983E-08
 -1       677 8.13290E-10-2.33895E-09 6.20414E-10
 -1       678 6.01530E-10-2.42912E-09 4.48599E-10
 -1       679-8.55731E-08-8.98642E-08-1.35486E-08
 -1       680-2.07005E-08-4.46748E-07-9.45512E-09
 -1       681-1.41331E-08-4.47472E-07-7.01716E-09
 -1       682-7.43424E-09-4.48212E-07-3.89733E-09
 -1       683 7.97990E-08-4.40838E-07 3.17627E-08
 -1       684-3.88601E-10-4.86699E-08-7.72459E-11
 -1       685-4.15269E-08-3.16310E-07-1.73499E-08
 -1       686 9.81484E-09-4.29827E-09 3.15488E-09
 -1       687-1.92982E-10-5.02261E-08-4.75787E-11
 -1       688-5.14321E-08-2.51067E-07-1.81451E-08
 -1       689-5.07625E-08-2.32871E-07-1.71555E-08
 -1       690 4.53372E-10-4.87341E-08 1.93858E-10
 -1       691 2.35478E-10-4.79576E-08 1.43010E-10
 -1       692-7.17444E-08-6.24976E-08-1.06858E-08
 -1       693-6.74910E-08-5.54822E-08-9.71706E-09
 -1       694 1.11435E-07-3.37306E-07 3.02443E-08
 -1       695 1.12005E-07-3.27165E-07 2.92360E-08
 -1       696 5.02806E-08-2.65748E-07 1.93330E-08
 -1       697 5.07517E-08-2.49340E-07 1.86965E-08
 -1       698 2.15443E-09-1.93971E-09 1.46109E-09
 -1       699 1.84806E-09-1.95487E-09 1.33762E-09
 -1       700 4.00360E-08-1.54238E-07 1.14540E-08
 -1       701 4.72262E-08-1.92960E-07 1.49512E-08
 -1       702 4.39709E-08-1.73378E-07 1.32999E-08
 -1       703 4.63843E-08-2.93115E-07 1.92989E-08
 -1       704 4.35147E-08-3.04592E-07 1.86958E-08
 -1       705 4.46210E-08-4.46749E-07 1.97063E-08
 -1       706 3.87758E-10-2.47585E-09 3.11578E-10
 -1       707-3.38580E-08-1.05916E-08-2.06778E-09
 -1       708 4.87219E-08-2.80278E-07 1.95519E-08
 -1       709 1.13846E-07-2.30919E-07 2.22309E-08
 -1       710-1.13779E-07-2.93486E-07-2.48566E-08
 -1       711-1.14166E-07-2.79734E-07-2.38342E-08
 -1       712-4.96129E-08-2.82271E-07-1.90200E-08
 -1       713 1.02006E-07-1.43707E-07 1.78892E-08
 -1       714 9.83276E-08-1.28274E-07 1.70211E-08
 -1       715 3.54012E-08-1.36542E-07 9.70489E-09
 -1       716 8.03092E-08-7.90082E-08 1.31981E-08
 -1       717 7.58064E-08-6.98621E-08 1.22467E-08
 -1       718 1.13454E-09-2.17006E-09 8.81356E-10
 -1       719 4.03488E-08-3.14618E-07 1.77192E-08
 -1       720 1.84119E-08-3.45621E-07 8.89293E-09
 -1       721 1.29529E-08-3.48540E-07 6.49993E-09
 -1       722 1.00086E-08-4.48229E-07 5.51749E-09
 -1       723 1.37113E-09-2.09130E-09 9.48318E-10
 -1       724 5.86040E-08-4.34943E-08 8.32861E-09
 -1       725 3.68299E-08-3.23279E-07 1.64382E-08
 -1       726-1.11396E-07-3.28583E-07-2.79069E-08
 -1       727 9.40086E-08-4.29825E-07 3.54127E-08
 -1       728-1.14737E-07-2.32727E-07-2.11652E-08
 -1       729 4.02241E-08-1.77411E-08 2.82893E-09
 -1       730-2.06773E-08-3.46248E-07-8.74271E-09
 -1       731-3.30948E-08-4.44919E-07-1.43081E-08
 -1       732 1.40859E-09-3.51510E-07 1.35178E-09
 -1       733 5.42130E-10-5.28176E-08 1.38873E-10
 -1       734 3.78611E-08-1.40919E-08 2.30276E-09
 -1       735 7.13430E-08-6.18669E-08 1.12202E-08
 -1       736-6.70404E-09-6.70968E-08-1.25007E-09
 -1       737-9.02885E-08-1.01648E-07-1.44645E-08
 -1       738-9.47600E-08-1.14874E-07-1.53460E-08
 -1       739-6.36384E-08-4.43885E-07-2.56152E-08
 -1       740 1.46461E-08-8.31665E-08 3.44293E-09
 -1       741 1.06095E-08-7.42890E-08 2.36767E-09
 -1       742 6.87240E-09-6.68749E-08 1.50501E-09
 -1       743 6.68302E-08-5.48954E-08 1.02280E-08
 -1       744-2.69417E-08-4.45742E-07-1.18541E-08
 -1       745-1.13144E-07-3.06220E-07-2.58280E-08
 -1       746 1.09302E-07-1.77568E-07 1.96778E-08
 -1       747-3.03261E-09-2.04589E-09-2.13004E-09
 -1       748 1.01335E-07-4.20139E-07 3.67725E-08
 -1       749 9.78384E-08-4.25271E-07 3.61802E-08
 -1       750 1.12654E-07-3.16353E-07 2.81256E-08
 -1       751 4.86318E-08-3.08912E-08 5.79287E-09
 -1       752-1.00803E-07-4.18961E-07-3.53358E-08
 -1       753-4.55937E-08-4.44034E-07-1.91591E-08
 -1       754-7.13600E-11-2.55122E-09-6.62059E-11
 -1       755-2.44248E-08-1.07038E-07-5.80754E-09
 -1       756-2.99105E-08-1.21493E-07-7.42950E-09
 -1       757-1.09132E-07-3.65352E-07-3.17847E-08
 -1       758-1.09547E-07-3.56942E-07-3.08801E-08
 -1       759-1.51305E-10-4.79149E-08-8.33177E-12
 -1       760-6.91331E-08-4.42834E-07-2.74077E-08
 -1       761 2.95508E-09-1.91073E-09 2.03726E-09
 -1       762-1.14063E-07-2.15118E-07-2.03918E-08
 -1       763-1.93292E-08-9.44333E-08-4.41274E-09
 -1       764 1.05686E-07-1.60224E-07 1.87721E-08
 -1       765-1.04530E-08-7.47007E-08-2.10950E-09
 -1       766 3.27458E-08-3.30556E-07 1.49224E-08
 -1       767-4.72143E-08-2.95229E-07-1.87954E-08
 -1       768-4.45430E-08-3.06549E-07-1.82229E-08
 -1       769-5.92987E-08-4.39509E-08-7.89616E-09
 -1       770-6.32865E-08-4.93497E-08-8.79422E-09
 -1       771 1.15717E-09-4.47976E-07 1.14248E-10
 -1       772 1.02142E-10-2.55921E-09 6.85803E-11
 -1       773-7.46618E-08-4.41085E-07-2.91062E-08
 -1       774-7.97848E-08-4.38781E-07-3.05953E-08
 -1       775-9.87321E-08-1.29337E-07-1.62141E-08
 -1       776-1.02333E-07-1.44934E-07-1.70414E-08
 -1       777-1.06127E-08-5.08251E-09-3.28406E-09
 -1       778 6.31787E-08-4.46293E-07 2.64822E-08
 -1       779-8.48353E-08-4.35789E-07-3.19528E-08
 -1       780-1.86772E-10-2.52517E-09-1.36950E-10
 -1       781-4.87841E-08-3.10592E-08-5.39807E-09
 -1       782-5.20214E-08-3.49192E-08-6.20512E-09
 -1       783-1.11963E-09-2.13795E-09-8.48441E-10
 -1       784-3.99271E-08-1.55203E-07-1.09399E-08
 -1       785-4.37787E-08-1.74248E-07-1.26600E-08
 -1       786-3.87534E-09-2.28902E-09-2.67424E-09
 -1       787 1.94003E-08-9.36818E-08 4.83437E-09
 -1       788 2.45267E-08-1.06157E-07 6.22750E-09
 -1       789 9.00555E-08-1.00895E-07 1.52394E-08
 -1       790-5.18236E-08-4.44009E-07-2.14363E-08
 -1       791 3.51265E-09-2.02671E-09 2.28831E-09
 -1       792 5.12173E-09-2.41960E-09 2.95858E-09
 -1       793-4.58639E-08-2.75182E-08-4.63943E-09
 -1       794-5.10553E-08-2.67646E-07-1.87798E-08
 -1       795-1.08621E-07-3.81052E-07-3.35423E-08
 -1       796-1.08788E-07-3.73385E-07-3.26965E-08
 -1       797 1.14201E-07-2.63411E-07 2.40424E-08
 -1       798-1.10084E-07-3.48005E-07-2.99465E-08
 -1       799-1.55199E-08-3.49025E-07-6.38657E-09
 -1       800-4.13066E-08-2.10116E-08-3.25191E-09
 -1       801 1.08865E-07-3.95598E-07 3.65147E-08
 -1       802 1.07478E-07-4.02374E-07 3.68398E-08
 -1       803-1.00580E-08-3.50800E-07-3.88367E-09
 -1       804 1.13890E-07-2.47740E-07 2.31020E-08
 -1       805 3.47368E-10-5.03621E-08 1.85207E-10
 -1       806 8.51575E-08-8.92209E-08 1.41805E-08
 -1       807-2.85812E-08-7.72774E-09-2.16042E-09
 -1       808-2.12720E-08-5.49498E-09-2.64026E-09
 -1       809-3.76697E-08-1.41124E-08-2.26945E-09
 -1       810-3.98815E-08-1.77435E-08-2.61690E-09
 -1       811 6.25733E-08-4.88094E-08 9.28505E-09
 -1       812 2.49969E-08-4.48102E-07 1.23481E-08
 -1       813-3.41841E-08-3.31768E-07-1.46350E-08
 -1       814-5.67898E-09-3.02045E-09-3.34324E-09
 -1       815-1.03497E-07-4.13683E-07-3.56152E-08
 -1       816-1.14317E-07-2.65010E-07-2.28973E-08
 -1       817-1.09242E-07-1.79290E-07-1.87017E-08
 -1       818 4.05693E-09-6.09354E-08 8.84987E-10
 -1       819-9.73768E-08-4.23889E-07-3.47649E-08
 -1       820-9.36327E-08-4.28270E-07-3.40418E-08
 -1       821 7.22800E-09-3.50490E-07 3.97064E-09
 -1       822 4.16353E-08-2.10575E-08 3.52672E-09
 -1       823-1.05904E-07-1.61713E-07-1.78623E-08
 -1       824 1.93594E-09-5.63618E-08 3.67300E-10
 -1       825-1.14451E-07-2.49315E-07-2.20487E-08
 -1       826-1.05418E-07-4.07706E-07-3.55691E-08
 -1       827 1.82129E-08-4.48647E-07 9.48301E-09
 -1       828 1.13290E-07-3.04782E-07 2.71167E-08
 -1       829 1.14093E-07-2.92198E-07 2.61223E-08
 -1       830-1.12227E-07-3.17843E-07-2.68877E-08
 -1       831-2.54899E-08-3.42486E-07-1.09129E-08
 -1       832-1.12181E-07-1.97173E-07-1.95306E-08
 -1       833-4.37448E-09-3.51639E-07-1.28908E-09
 -1       834 1.08953E-07-3.80900E-07 3.49051E-08
 -1       835 1.08929E-07-3.88458E-07 3.57419E-08
 -1       836-3.77364E-10-2.44120E-09-2.98748E-10
 -1       837 2.26567E-10-2.54868E-09 1.65963E-10
 -1       838 5.04157E-08-2.31533E-07 1.77504E-08
 -1       839 1.14505E-07-2.78277E-07 2.50563E-08
 -1       840 2.83815E-08-3.36762E-07 1.30990E-08
 -1       841-8.07250E-08-7.95179E-08-1.25547E-08
 -1       842 6.88433E-08-4.45144E-07 2.83749E-08
 -1       843-1.46580E-08-8.38922E-08-3.04890E-09
 -1       844 9.43952E-08-1.13994E-07 1.61280E-08
 -1       845 2.99568E-08-1.20582E-07 7.93393E-09
 -1       846-8.93376E-08-4.32338E-07-3.30770E-08
 -1       847 1.12086E-07-1.95487E-07 2.05394E-08
 -1       848 1.13458E-07-2.13454E-07 2.14271E-08
 -1       849 4.92744E-08-2.12520E-07 1.64747E-08
 -1       850 1.09203E-07-3.73007E-07 3.40621E-08
 -1       851-3.54020E-08-1.37595E-07-9.13281E-09
 -1       852-2.99829E-08-3.37717E-07-1.28942E-08
 -1       853-5.55390E-08-3.91699E-08-7.03737E-09
 -1       854-3.80485E-08-3.24717E-07-1.60992E-08
 -1       855-1.01023E-07-2.40910E-07-2.07247E-08
 -1       856-1.00763E-07-2.57432E-07-2.15710E-08
 -1       857-1.01539E-07-2.23935E-07-1.99272E-08
 -1       858-1.00267E-07-2.06053E-07-1.90109E-08
 -1       859-4.21575E-08-2.85072E-08-4.69069E-09
 -1       860-5.49051E-08-4.35911E-07-2.20945E-08
 -1       861-4.88845E-08-4.35758E-07-1.99196E-08
 -1       862 6.25616E-08-2.24249E-07 1.81291E-08
 -1       863 9.99833E-08-2.21567E-07 2.07846E-08
 -1       864 1.57003E-08-7.99586E-09 3.18880E-09
 -1       865-6.34856E-08-2.24772E-07-1.73897E-08
 -1       866-6.36215E-08-2.44920E-07-1.85382E-08
 -1       867-1.27328E-08-7.91578E-09-3.28372E-09
 -1       868-4.98466E-08-1.42378E-07-1.11330E-08
 -1       869-5.43092E-08-1.62123E-07-1.27846E-08
 -1       870-1.00417E-07-3.77678E-07-3.12744E-08
 -1       871-1.00738E-07-3.53385E-07-2.88660E-08
 -1       872-1.00486E-07-3.62006E-07-2.97055E-08
 -1       873-1.75561E-09-4.98746E-09-9.59997E-10
 -1       874-2.38957E-09-4.87619E-09-1.25428E-09
 -1       875 7.88625E-08-4.33575E-07 3.09262E-08
 -1       876 6.47124E-09-5.39218E-09 2.80859E-09
 -1       877 5.02989E-09-4.93343E-09 2.29863E-09
 -1       878-3.94155E-08-2.51385E-08-4.11869E-09
 -1       879 9.15550E-10-5.34782E-09 5.11767E-10
 -1       880 5.84157E-10-5.44610E-09 3.50580E-10
 -1       881 7.29806E-10-4.79632E-08 3.32904E-10
 -1       882-1.40786E-10-4.53810E-08 1.19182E-10
 -1       883 4.53327E-11-4.50710E-08 5.94516E-11
 -1       884 9.36872E-08-4.19127E-07 3.44264E-08
 -1       885-2.39892E-08-4.37964E-07-1.02983E-08
 -1       886-3.02481E-08-4.37112E-07-1.28022E-08
 -1       887-1.98829E-08-3.54221E-07-8.29282E-09
 -1       888-1.40166E-08-3.56502E-07-5.65639E-09
 -1       889 2.19673E-08-9.60548E-09 2.83197E-09
 -1       890 4.50815E-11-4.62798E-08 1.81183E-10
 -1       891 1.00985E-07-3.60972E-07 3.09543E-08
 -1       892 1.01649E-07-3.42774E-07 2.92434E-08
 -1       893 1.01867E-07-3.33045E-07 2.83258E-08
 -1       894-5.50384E-08-4.53394E-08-7.55725E-09
 -1       895-5.83905E-08-5.08926E-08-8.31055E-09
 -1       896-2.26625E-08-8.30443E-08-4.59925E-09
 -1       897-6.89083E-08-7.31175E-08-1.07463E-08
 -1       898 7.24712E-08-8.19075E-08 1.21839E-08
 -1       899 6.86218E-08-7.24248E-08 1.13382E-08
 -1       900 5.21782E-08-3.05033E-07 2.01240E-08
 -1       901 6.49605E-08-6.39733E-08 1.04661E-08
 -1       902-6.81982E-09-5.82036E-09-2.79565E-09
 -1       903-5.30428E-09-5.27498E-09-2.33952E-09
 -1       904 3.95886E-08-2.51305E-08 4.42697E-09
 -1       905 4.19428E-08-2.83221E-08 5.00799E-09
 -1       906-8.68157E-08-1.35323E-07-1.50610E-08
 -1       907-8.42225E-08-1.20187E-07-1.43042E-08
 -1       908-9.37149E-08-1.69820E-07-1.70247E-08
 -1       909 8.08712E-08-1.05325E-07 1.42376E-08
 -1       910 8.38473E-08-1.19163E-07 1.50234E-08
 -1       911-3.10329E-09-4.38833E-07-1.38008E-09
 -1       912-1.06990E-08-4.38779E-07-4.81477E-09
 -1       913 4.36752E-08-3.25679E-07 1.82556E-08
 -1       914-1.01082E-07-3.24187E-07-2.61968E-08
 -1       915 8.69871E-08-4.27116E-07 3.30197E-08
 -1       916-4.26991E-08-4.35879E-07-1.76367E-08
 -1       917 1.39642E-08-4.39138E-07 6.77283E-09
 -1       918-8.68679E-08-4.25607E-07-3.17976E-08
 -1       919 3.93805E-09-4.78163E-09 1.92651E-09
 -1       920 3.13733E-09-4.80476E-09 1.59718E-09
 -1       921-3.65224E-08-4.36343E-07-1.52614E-08
 -1       922 1.00092E-07-2.39433E-07 2.16398E-08
 -1       923 1.02004E-07-2.99503E-07 2.55563E-08
 -1       924 1.01504E-07-3.97899E-07 3.47499E-08
 -1       925 1.00278E-10-4.62938E-08-2.38016E-11
 -1       926-5.86887E-10-4.79578E-08-1.68509E-10
 -1       927-2.25720E-08-9.71897E-09-2.79729E-09
 -1       928 1.19415E-08-6.48693E-08 2.64174E-09
 -1       929 4.73150E-08-3.55514E-08 6.33792E-09
 -1       930 1.01605E-07-2.71680E-07 2.36328E-08
 -1       931 8.35771E-09-6.02695E-09 3.17404E-09
 -1       932-1.00829E-07-3.44184E-07-2.80424E-08
 -1       933 2.35205E-08-3.50563E-07 1.09694E-08
 -1       934-3.59028E-08-1.08557E-07-7.53154E-09
 -1       935 2.15647E-08-4.39167E-07 1.02930E-08
 -1       936 2.84492E-08-4.38986E-07 1.30663E-08
 -1       937 4.94547E-09-3.57651E-07 2.90609E-09
 -1       938-6.53086E-08-6.46578E-08-9.90543E-09
 -1       939-4.47651E-08-3.27358E-07-1.78008E-08
 -1       940-4.92131E-08-3.18198E-07-1.89277E-08
 -1       941 6.94943E-08-4.37802E-07 2.81205E-08
 -1       942 3.58746E-08-1.07556E-07 8.01294E-09
 -1       943 4.35858E-08-1.23825E-07 1.00497E-08
 -1       944 4.79361E-08-4.38004E-07 2.05013E-08
 -1       945 4.15393E-08-4.38123E-07 1.81040E-08
 -1       946-6.32806E-08-2.63695E-07-1.93948E-08
 -1       947-1.00905E-07-3.34564E-07-2.70732E-08
 -1       948 1.68318E-08-7.26421E-08 3.55546E-09
 -1       949 2.27892E-08-8.21162E-08 5.00091E-09
 -1       950-6.16442E-08-2.04069E-07-1.60761E-08
 -1       951-5.82419E-08-1.82867E-07-1.44738E-08
 -1       952 5.73290E-08-5.01702E-08 8.69500E-09
 -1       953 2.96842E-10-5.50108E-09 1.76611E-10
 -1       954-3.49567E-08-1.89763E-08-3.07499E-09
 -1       955-1.01146E-07-2.72851E-07-2.24840E-08
 -1       956 9.73528E-08-4.03218E-07 3.41161E-08
 -1       957-1.00361E-07-3.70066E-07-3.04793E-08
 -1       958-4.57859E-09-5.38999E-08-8.92963E-10
 -1       959-7.80645E-09-5.86048E-08-1.48387E-09
 -1       960-3.06198E-08-3.46822E-07-1.28743E-08
 -1       961-3.55713E-08-3.41625E-07-1.47856E-08
 -1       962-1.00639E-07-3.84899E-07-3.20519E-08
 -1       963 6.28673E-08-2.43803E-07 1.92755E-08
 -1       964 2.90495E-08-9.36983E-08 6.31383E-09
 -1       965-1.28149E-09-5.14589E-09-7.12533E-10
 -1       966-1.49504E-09-3.58213E-07 2.02597E-12
 -1       967 1.13672E-08-3.56203E-07 5.76734E-09
 -1       968-2.54127E-08-3.51044E-07-1.07051E-08
 -1       969-6.18409E-08-5.73181E-08-9.15053E-09
 -1       970 9.99054E-08-2.56566E-07 2.25874E-08
 -1       971 5.89415E-08-1.82571E-07 1.52668E-08
 -1       972 6.15322E-08-2.03469E-07 1.67699E-08
 -1       973-4.82973E-08-3.60707E-08-6.03769E-09
 -1       974-5.16003E-08-4.04139E-08-6.78617E-09
 -1       975-9.70811E-08-1.88260E-07-1.80335E-08
 -1       976 5.64394E-08-2.92509E-07 2.05928E-08
 -1       977 9.37632E-08-1.68048E-07 1.78851E-08
 -1       978 8.98173E-08-1.50513E-07 1.67736E-08
 -1       979 1.00327E-07-3.77226E-07 3.24317E-08
 -1       980 1.00583E-07-3.69362E-07 3.16956E-08
 -1       981-2.89009E-08-9.47058E-08-5.86936E-09
 -1       982-1.18617E-08-6.48528E-08-2.25503E-09
 -1       983 9.77900E-08-1.85691E-07 1.89893E-08
 -1       984 1.01374E-07-3.52119E-07 3.01260E-08
 -1       985 9.98665E-08-2.03904E-07 1.99050E-08
 -1       986 1.00395E-07-3.84678E-07 3.32048E-08
 -1       987-3.69094E-08-2.19837E-08-3.57474E-09
 -1       988-9.00348E-08-1.51927E-07-1.59815E-08
 -1       989 4.80150E-08-3.16051E-07 1.93348E-08
 -1       990-2.69446E-08-1.22675E-08-2.69404E-09
 -1       991 5.94159E-08-4.39572E-07 2.47453E-08
 -1       992 2.37386E-10-4.53851E-08 7.05706E-11
 -1       993 1.75753E-08-3.53850E-07 8.47880E-09
 -1       994-2.36136E-10-5.46707E-09-1.49363E-10
 -1       995 1.60112E-11-5.50525E-09 8.46446E-13
 -1       996 3.51121E-08-4.38424E-07 1.56605E-08
 -1       997 5.42104E-09-4.38838E-07 2.57946E-09
 -1       998-7.83277E-09-3.57824E-07-2.86358E-09
 -1       999 3.92163E-08-3.33886E-07 1.68206E-08
 -1      1000 3.43149E-08-3.40786E-07 1.51584E-08
 -1      1001-4.00197E-09-4.99170E-09-1.88519E-09
 -1      1002-3.04328E-09-4.87307E-09-1.48984E-09
 -1      1003-1.66095E-08-8.48076E-09-3.22349E-09
 -1      1004 1.01852E-07-3.22539E-07 2.74001E-08
 -1      1005-3.44342E-08-1.64491E-08-2.74589E-09
 -1      1006-9.73947E-08-4.02772E-07-3.29093E-08
 -1      1007 4.99392E-08-1.41480E-07 1.17673E-08
 -1      1008-5.16599E-10-5.35963E-09-3.28805E-10
 -1      1009-9.14124E-09-6.70146E-09-3.08664E-09
 -1      1010 4.65616E-09-5.40280E-08 1.18155E-09
 -1      1011 6.20087E-08-2.61749E-07 2.00546E-08
 -1      1012-1.75236E-08-4.38684E-07-7.70085E-09
 -1      1013-1.01979E-07-3.00758E-07-2.43892E-08
 -1      1014-1.01753E-07-2.87287E-07-2.34625E-08
 -1      1015-7.38795E-08-4.32711E-07-2.82809E-08
 -1      1016 7.76690E-09-5.86917E-08 1.78496E-09
 -1      1017-1.01518E-07-3.13041E-07-2.52622E-08
 -1      1018-5.74251E-08-2.94942E-07-1.99872E-08
 -1      1019-6.12618E-08-2.80391E-07-1.98845E-08
 -1      1020 2.44177E-09-5.02688E-09 1.26679E-09
 -1      1021 1.84462E-09-5.16142E-09 9.85775E-10
 -1      1022 1.32964E-09-5.26801E-09 7.54306E-10
 -1      1023-1.67551E-08-7.29686E-08-3.30915E-09
 -1      1024 8.65288E-08-1.34145E-07 1.58081E-08
 -1      1025-4.03344E-08-3.35125E-07-1.64048E-08
 -1      1026-5.31097E-08-3.07444E-07-1.96323E-08
 -1      1027 8.21718E-08-4.29405E-07 3.17037E-08
 -1      1028 5.99983E-08-2.78257E-07 2.04892E-08
 -1      1029 1.02858E-07-2.86387E-07 2.46542E-08
 -1      1030 1.01754E-07-3.11471E-07 2.64370E-08
 -1      1031 3.58257E-08-1.92579E-08 3.33158E-09
 -1      1032-4.51261E-08-3.20941E-08-5.35470E-09
 -1      1033-9.50426E-08-4.13204E-07-3.31850E-08
 -1      1034-6.98248E-08-4.35750E-07-2.71713E-08
 -1      1035-6.47236E-08-4.35446E-07-2.54604E-08
 -1      1036 9.52093E-08-4.14122E-07 3.44476E-08
 -1      1037-8.56550E-10-5.26635E-09-5.01244E-10
 -1      1038 3.74737E-08-2.20864E-08 3.84601E-09
 -1      1039-3.18763E-08-1.41052E-08-2.56213E-09
 -1      1040-9.34782E-08-4.17988E-07-3.31418E-08
 -1      1041-2.17888E-09-5.04737E-08-5.64279E-10
 -1      1042 1.00801E-07-3.91691E-07 3.39723E-08
 -1      1043 7.67266E-08-9.28135E-08 1.32150E-08
 -1      1044-7.89571E-08-4.31766E-07-2.98245E-08
 -1      1045 2.64492E-08-1.25550E-08 2.82229E-09
 -1      1046 3.51677E-08-1.65785E-08 2.89433E-09
 -1      1047 1.16888E-08-7.14230E-09 3.47514E-09
 -1      1048 5.41220E-08-4.38166E-07 2.27395E-08
 -1      1049-7.70398E-08-9.35377E-08-1.25270E-08
 -1      1050-7.28384E-08-8.25753E-08-1.16034E-08
 -1      1051 6.12391E-08-5.65501E-08 9.62315E-09
 -1      1052-8.11708E-08-1.06174E-07-1.34668E-08
 -1      1053-9.82829E-08-4.08755E-07-3.37023E-08
 -1      1054-1.01472E-07-3.97633E-07-3.35118E-08
 -1      1055-1.00949E-07-3.91672E-07-3.27966E-08
 -1      1056-4.36040E-08-1.24843E-07-9.58930E-09
 -1      1057-6.00278E-08-4.37351E-07-2.39754E-08
 -1      1058 5.03106E-08-3.97851E-08 7.05573E-09
 -1      1059 5.36879E-08-4.45854E-08 7.87421E-09
 -1      1060 2.29518E-09-5.05332E-08 7.59707E-10
 -1      1061 4.45624E-08-3.17765E-08 5.69330E-09
 -1      1062 3.22467E-08-1.42563E-08 2.63172E-09
 -1      1063 7.36430E-08-4.34624E-07 2.93100E-08
 -1      1064-8.92403E-08-4.21071E-07-3.21583E-08
 -1      1065 5.46429E-08-1.61497E-07 1.35233E-08
 -1      1066 9.84620E-08-4.09476E-07 3.49881E-08
 -1      1067 2.91038E-08-3.46254E-07 1.31948E-08
 -1      1068 6.42349E-08-4.37564E-07 2.63027E-08
 -1      1069-8.22181E-08-4.27783E-07-3.05525E-08
 -1      1070 8.93507E-08-4.22358E-07 3.33804E-08
 -1      1071 7.38702E-08-1.93425E-07 1.72123E-08
 -1      1072 6.89870E-08-1.70566E-07 1.54763E-08
 -1      1073-8.57908E-08-1.98883E-07-1.75868E-08
 -1      1074 7.44764E-08-2.16017E-07 1.85282E-08
 -1      1075 8.67861E-08-2.10264E-07 1.91621E-08
 -1      1076-5.81923E-08-3.19924E-07-2.03703E-08
 -1      1077-9.08765E-09-9.56756E-09-2.58439E-09
 -1      1078-1.15318E-08-1.01878E-08-2.98152E-09
 -1      1079 8.78309E-08-1.94178E-07 1.84668E-08
 -1      1080 8.29234E-08-1.77854E-07 1.72628E-08
 -1      1081-9.08233E-08-3.07970E-07-2.38176E-08
 -1      1082-1.37452E-08-4.29858E-07-5.67877E-09
 -1      1083-2.05697E-08-4.29633E-07-8.48972E-09
 -1      1084-4.73785E-08-3.38341E-07-1.82202E-08
 -1      1085-4.21308E-08-3.45622E-07-1.66932E-08
 -1      1086-7.87467E-08-1.60249E-07-1.52200E-08
 -1      1087-8.24968E-08-1.79695E-07-1.63799E-08
 -1      1088 3.51396E-08-2.57976E-08 4.39768E-09
 -1      1089 3.30300E-08-2.26963E-08 3.94998E-09
 -1      1090-7.21910E-08-1.92228E-07-1.61633E-08
 -1      1091 8.63816E-08-2.67170E-07 2.20911E-08
 -1      1092 9.22454E-08-2.80634E-07 2.33780E-08
 -1      1093 4.65714E-08-3.36790E-07 1.87148E-08
 -1      1094 5.17426E-08-3.27415E-07 1.99816E-08
 -1      1095 9.19969E-08-3.38684E-07 2.73132E-08
 -1      1096 9.19449E-08-3.28884E-07 2.65518E-08
 -1      1097-1.47711E-09-8.52512E-09-7.04428E-10
 -1      1098-1.54579E-08-1.15257E-08-3.21802E-09
 -1      1099-8.92810E-08-2.80840E-07-2.20391E-08
 -1      1100 3.16028E-08-4.29343E-07 1.38749E-08
 -1      1101 2.46542E-08-4.29851E-07 1.11554E-08
 -1      1102-3.80116E-08-2.95128E-08-4.60623E-09
 -1      1103 2.32591E-09-8.58914E-09 9.91949E-10
 -1      1104 3.17074E-09-8.55662E-09 1.26596E-09
 -1      1105 5.50222E-08-5.84354E-08 8.92374E-09
 -1      1106 4.48390E-08-4.29045E-07 1.89717E-08
 -1      1107 3.82959E-08-4.28988E-07 1.64692E-08
 -1      1108-6.84995E-08-1.70858E-07-1.46821E-08
 -1      1109-6.41428E-08-1.50122E-07-1.31645E-08
 -1      1110-8.39214E-09-5.10073E-08-1.69197E-09
 -1      1111-1.27569E-08-5.63916E-08-2.41282E-09
 -1      1112 1.02249E-09-4.31669E-08 5.03044E-10
 -1      1113 2.83359E-10-4.20788E-08 2.97760E-10
 -1      1114 4.82090E-08-4.58384E-08 7.34026E-09
 -1      1115 5.24986E-09-8.20511E-09 1.94498E-09
 -1      1116 4.17261E-09-8.43484E-09 1.57090E-09
 -1      1117-4.60607E-08-4.27186E-07-1.85385E-08
 -1      1118 9.23513E-08-3.48178E-07 2.81018E-08
 -1      1119 7.21452E-08-1.24054E-07 1.37980E-08
 -1      1120 5.87878E-08-1.28491E-07 1.21933E-08
 -1      1121 7.44531E-08-1.40235E-07 1.46893E-08
 -1      1122 9.10684E-08-3.18048E-07 2.56655E-08
 -1      1123 9.02002E-08-3.06686E-07 2.47350E-08
 -1      1124 6.82354E-08-9.65664E-08 1.21557E-08
 -1      1125 7.13614E-08-1.09871E-07 1.30801E-08
 -1      1126-8.75774E-08-2.65968E-07-2.11001E-08
 -1      1127 6.36044E-11-4.15056E-08 1.42947E-11
 -1      1128 8.71588E-08-2.29205E-07 2.01952E-08
 -1      1129 7.49171E-08-2.36730E-07 1.97210E-08
 -1      1130 1.59605E-09-8.67908E-09 7.14694E-10
 -1      1131 1.07458E-08-9.50908E-09 2.89906E-09
 -1      1132-7.17188E-08-1.10867E-07-1.24870E-08
 -1      1133-7.23304E-08-1.25157E-07-1.31242E-08
 -1      1134 2.63389E-09-4.48956E-08 8.75402E-10
 -1      1135-8.78285E-08-2.48575E-07-2.02268E-08
 -1      1136-7.56751E-08-2.36931E-07-1.88401E-08
 -1      1137-8.81603E-08-2.30740E-07-1.93626E-08
 -1      1138-7.60889E-08-2.14900E-07-1.77174E-08
 -1      1139-8.99625E-08-2.14983E-07-1.87030E-08
 -1      1140-3.11749E-08-3.56276E-07-1.28307E-08
 -1      1141-3.34664E-08-4.27971E-07-1.36648E-08
 -1      1142-2.70234E-08-4.28857E-07-1.11549E-08
 -1      1143-5.03415E-09-4.72713E-08-1.08082E-09
 -1      1144-2.98201E-08-1.91902E-08-3.28395E-09
 -1      1145-5.28018E-08-3.29777E-07-1.95034E-08
 -1      1146-1.20062E-08-3.64469E-07-4.66630E-09
 -1      1147 7.21851E-08-2.73776E-07 2.14106E-08
 -1      1148 8.08959E-08-2.84762E-07 2.26818E-08
 -1      1149-4.71105E-08-4.17283E-08-6.46674E-09
 -1      1150-4.09793E-08-3.32000E-08-5.19747E-09
 -1      1151 2.44480E-08-7.14977E-08 4.93639E-09
 -1      1152 3.97745E-08-3.25492E-08 5.42108E-09
 -1      1153 4.22734E-08-3.64730E-08 5.96561E-09
 -1      1154 6.39053E-08-8.50865E-08 1.11820E-08
 -1      1155-5.89511E-08-1.29461E-07-1.15644E-08
 -1      1156-6.86357E-08-9.75802E-08-1.16571E-08
 -1      1157 2.97391E-08-3.55972E-07 1.32023E-08
 -1      1158 3.57528E-08-3.51070E-07 1.53728E-08
 -1      1159-3.19063E-08-8.28429E-08-6.06346E-09
 -1      1160-6.07940E-08-7.58054E-08-9.85621E-09
 -1      1161-6.42507E-08-8.58187E-08-1.06053E-08
 -1      1162-3.67928E-08-3.51575E-07-1.48939E-08
 -1      1163-9.04758E-08-3.19827E-07-2.45735E-08
 -1      1164-5.80511E-08-6.68419E-08-9.11217E-09
 -1      1165-6.91719E-08-2.93953E-07-2.10853E-08
 -1      1166-6.28848E-08-3.08165E-07-2.08486E-08
 -1      1167-9.38810E-08-3.95939E-07-3.13784E-08
 -1      1168-9.26954E-08-3.89135E-07-3.04970E-08
 -1      1169-3.25442E-08-2.27044E-08-3.70372E-09
 -1      1170 9.19184E-08-3.65862E-07 2.94779E-08
 -1      1171 9.23560E-08-3.57304E-07 2.88464E-08
 -1      1172 9.14184E-08-3.73934E-07 3.00485E-08
 -1      1173 7.88310E-08-1.58882E-07 1.59278E-08
 -1      1174 4.13409E-08-3.44673E-07 1.71884E-08
 -1      1175 6.41904E-08-1.49258E-07 1.39348E-08
 -1      1176 8.70779E-08-2.48353E-07 2.12024E-08
 -1      1177-7.53788E-08-2.56902E-07-1.99095E-08
 -1      1178-3.51780E-08-2.60370E-08-4.12239E-09
 -1      1179 8.41764E-09-5.13042E-08 1.90741E-09
 -1      1180 5.13678E-09-4.76024E-08 1.29122E-09
 -1      1181-2.98259E-09-8.27518E-09-1.18476E-09
 -1      1182-2.13058E-09-8.36166E-09-9.32967E-10
 -1      1183 6.05002E-08-7.49237E-08 1.03919E-08
 -1      1184 6.87273E-08-2.91426E-07 2.18438E-08
 -1      1185 9.19450E-08-3.88873E-07 3.14604E-08
 -1      1186 5.17887E-08-5.17109E-08 8.13344E-09
 -1      1187 9.13393E-08-3.81566E-07 3.06943E-08
 -1      1188 4.85490E-11-4.15056E-08 1.06192E-10
 -1      1189-2.49028E-09-4.47209E-08-7.06063E-10
 -1      1190 3.20013E-08-8.17522E-08 6.48889E-09
 -1      1191 7.45516E-08-2.56049E-07 2.07377E-08
 -1      1192 9.11144E-08-2.93514E-07 2.40086E-08
 -1      1193 3.96050E-08-9.46002E-08 7.99018E-09
 -1      1194 5.78672E-08-6.61737E-08 9.65965E-09
 -1      1195-1.38791E-10-8.87365E-09-6.61457E-11
 -1      1196 5.15628E-08-4.29413E-07 2.14240E-08
 -1      1197 1.72857E-08-4.29987E-07 7.94704E-09
 -1      1198-2.42633E-08-7.23195E-08-4.51322E-09
 -1      1199-5.54232E-08-5.91600E-08-8.46933E-09
 -1      1200-6.91556E-09-8.91968E-09-2.21408E-09
 -1      1201-3.96899E-08-9.56343E-08-7.51687E-09
 -1      1202 3.73641E-08-2.90499E-08 4.84359E-09
 -1      1203-4.40007E-08-3.72535E-08-5.80022E-09
 -1      1204 6.58363E-09-8.35628E-09 2.26445E-09
 -1      1205 4.50371E-08-4.08098E-08 6.60648E-09
 -1      1206 1.04677E-09-8.69623E-09 4.84999E-10
 -1      1207 3.11119E-08-1.96725E-08 3.56730E-09
 -1      1208-7.45999E-08-2.76144E-07-2.07618E-08
 -1      1209-9.09662E-08-2.94958E-07-2.29881E-08
 -1      1210-4.99943E-08-4.67933E-08-7.08442E-09
 -1      1211-1.77396E-08-6.33868E-08-3.31438E-09
 -1      1212-5.27516E-08-5.24622E-08-7.77066E-09
 -1      1213-7.46380E-08-1.41354E-07-1.40041E-08
 -1      1214 1.36182E-08-1.02749E-08 3.24102E-09
 -1      1215-4.81352E-08-1.11450E-07-9.41097E-09
 -1      1216 5.68606E-08-3.16964E-07 2.08779E-08
 -1      1217 9.31313E-09-4.29800E-07 4.43851E-09
 -1      1218 9.33975E-08-3.96038E-07 3.24121E-08
 -1      1219 5.91870E-10-8.80513E-09 3.04899E-10
 -1      1220 1.16303E-09-4.29740E-07 8.11971E-10
 -1      1221 2.27026E-10-8.87043E-09 1.01342E-10
 -1      1222-1.87341E-08-3.62605E-07-7.65917E-09
 -1      1223 9.29171E-09-3.64094E-07 4.76886E-09
 -1      1224 1.63641E-08-3.62278E-07 7.83266E-09
 -1      1225 2.32586E-08-3.59644E-07 1.06637E-08
 -1      1226-6.56324E-09-4.29813E-07-2.49082E-09
 -1      1227-9.11559E-08-3.40547E-07-2.61733E-08
 -1      1228-9.16495E-08-3.49946E-07-2.70101E-08
 -1      1229-1.30607E-10-4.20302E-08-1.36012E-10
 -1      1230-5.11461E-10-8.79028E-09-2.45132E-10
 -1      1231-5.21695E-09-8.43914E-09-1.84394E-09
 -1      1232-9.05299E-08-3.30565E-07-2.52662E-08
 -1      1233-9.16345E-08-3.67043E-07-2.83762E-08
 -1      1234-9.17188E-08-3.58830E-07-2.77289E-08
 -1      1235-3.97973E-08-4.27313E-07-1.61415E-08
 -1      1236-8.32503E-10-4.30999E-08-3.41046E-10
 -1      1237-9.21161E-08-3.82158E-07-2.97533E-08
 -1      1238 6.17704E-08-3.05068E-07 2.14661E-08
 -1      1239 8.51970E-09-8.97260E-09 2.56106E-09
 -1      1240-9.17914E-08-3.74804E-07-2.90837E-08
 -1      1241 4.79920E-08-1.10403E-07 9.96211E-09
 -1      1242-3.94584E-09-8.20871E-09-1.50220E-09
 -1      1243-5.01156E-09-3.65340E-07-1.57973E-09
 -1      1244-9.53516E-10-8.65303E-09-4.79738E-10
 -1      1245 1.27493E-08-5.63590E-08 2.68165E-09
 -1      1246 2.09527E-09-3.65163E-07 1.60213E-09
 -1      1247 1.79431E-08-6.29983E-08 3.70395E-09
 -1      1248-2.51534E-08-3.59925E-07-1.03789E-08
 -1      1249-5.25183E-08-4.27485E-07-2.08319E-08
 -1      1250-3.77320E-08-3.61662E-07-1.49581E-08
 -1      1251-4.36269E-08-3.56170E-07-1.69153E-08
 -1      1252-2.48499E-09-3.92765E-08-7.35608E-10
 -1      1253-9.07392E-10-3.82747E-08-4.08992E-10
 -1      1254-8.04702E-08-3.01924E-07-2.24802E-08
 -1      1255-8.01110E-08-3.15126E-07-2.30959E-08
 -1      1256 9.75180E-09-1.26511E-08 2.44498E-09
 -1      1257 7.70591E-09-1.17588E-08 2.16036E-09
 -1      1258 4.27030E-08-8.21238E-08 7.97460E-09
 -1      1259 5.54774E-08-8.88157E-08 1.01353E-08
 -1      1260 5.16869E-08-7.76658E-08 9.24033E-09
 -1      1261 4.58526E-08-5.33448E-08 7.45505E-09
 -1      1262 2.04027E-08-4.20895E-07 9.14113E-09
 -1      1263 2.76414E-08-4.20308E-07 1.20550E-08
 -1      1264 5.47568E-08-3.38613E-07 2.05678E-08
 -1      1265 4.89962E-08-3.47856E-07 1.92366E-08
 -1      1266-6.89527E-08-3.21431E-07-2.19813E-08
 -1      1267-7.20335E-08-3.08410E-07-2.18455E-08
 -1      1268-4.50051E-09-1.20008E-08-1.41383E-09
 -1      1269-4.23343E-08-4.31615E-08-6.02993E-09
 -1      1270-4.43746E-08-4.81535E-08-6.50602E-09
 -1      1271-4.64065E-08-5.40027E-08-7.05214E-09
 -1      1272-8.03552E-08-2.89510E-07-2.18523E-08
 -1      1273-3.27244E-09-1.20384E-08-1.11281E-09
 -1      1274-2.28765E-09-1.21981E-08-8.51957E-10
 -1      1275-6.15622E-08-3.31834E-07-2.10780E-08
 -1      1276 5.01338E-08-9.71514E-08 9.67949E-09
 -1      1277 6.09273E-08-1.00752E-07 1.13468E-08
 -1      1278 4.32952E-08-3.55566E-07 1.75936E-08
 -1      1279 3.69439E-08-3.61438E-07 1.55377E-08
 -1      1280 8.29416E-08-3.44261E-07 2.61588E-08
 -1      1281-5.95882E-08-4.28412E-07-2.33385E-08
 -1      1282 3.47184E-08-3.34859E-08 5.03644E-09
 -1      1283-1.66420E-08-4.21074E-07-6.60782E-09
 -1      1284-9.64909E-09-4.20706E-07-3.67370E-09
 -1      1285 7.86720E-08-3.15069E-07 2.39120E-08
 -1      1286 8.25277E-08-3.25036E-07 2.49782E-08
 -1      1287-7.97980E-08-3.26541E-07-2.36264E-08
 -1      1288 1.46145E-08-3.70682E-07 6.95048E-09
 -1      1289 2.23761E-08-3.68689E-07 1.01449E-08
 -1      1290 3.26393E-08-7.09225E-08 6.29036E-09
 -1      1291 3.67052E-08-3.75417E-08 5.42849E-09
 -1      1292 5.35081E-09-4.15445E-08 1.40578E-09
 -1      1293-2.44206E-09-4.20250E-07-5.52504E-10
 -1      1294 8.00522E-08-2.99831E-07 2.33309E-08
 -1      1295-5.19760E-08-7.88452E-08-8.74842E-09
 -1      1296-5.56987E-08-8.98640E-08-9.59239E-09
 -1      1297-5.03591E-08-9.82115E-08-9.17860E-09
 -1      1298 6.68632E-08-3.17621E-07 2.23904E-08
 -1      1299 7.17662E-08-3.28922E-07 2.35445E-08
 -1      1300 4.99466E-10-1.26985E-08 2.20574E-10
 -1      1301 1.00987E-09-1.24653E-08 4.35683E-10
 -1      1302-8.51012E-08-3.93554E-07-2.89347E-08
 -1      1303-8.37617E-08-3.86659E-07-2.81124E-08
 -1      1304 1.16362E-09-3.83533E-08 5.74124E-10
 -1      1305 3.89676E-10-3.75850E-08 2.84647E-10
 -1      1306 4.96781E-09-1.24924E-08 1.53334E-09
 -1      1307 3.57928E-09-1.24267E-08 1.20413E-09
 -1      1308-2.44174E-08-3.68896E-07-9.90094E-09
 -1      1309-3.13322E-08-3.65836E-07-1.26208E-08
 -1      1310 5.88426E-08-4.30356E-07 2.40646E-08
 -1      1311-7.88629E-09-1.26421E-08-2.05190E-09
 -1      1312 6.08611E-08-3.28431E-07 2.16994E-08
 -1      1313-5.52678E-08-3.41114E-07-1.99636E-08
 -1      1314 8.37847E-08-3.53518E-07 2.69191E-08
 -1      1315 8.36139E-08-3.62358E-07 2.74984E-08
 -1      1316-1.40345E-09-3.73320E-07 2.76073E-11
 -1      1317 6.65443E-09-3.72257E-07 3.55772E-09
 -1      1318 8.42144E-08-3.93421E-07 2.97570E-08
 -1      1319 8.25606E-08-3.85976E-07 2.88059E-08
 -1      1320-3.64518E-08-3.45202E-08-4.90393E-09
 -1      1321-3.96278E-08-3.85442E-08-5.47130E-09
 -1      1322 2.99178E-08-3.65658E-07 1.30426E-08
 -1      1323 1.83127E-08-5.44820E-08 3.61284E-09
 -1      1324-1.81871E-08-5.47747E-08-3.28217E-09
 -1      1325-3.38696E-08-3.07614E-08-4.42453E-09
 -1      1326 2.86194E-08-2.31566E-08 3.84973E-09
 -1      1327 5.47944E-08-4.21095E-07 2.22387E-08
 -1      1328-1.31584E-08-1.38673E-08-2.74891E-09
 -1      1329-1.04001E-08-1.34219E-08-2.40115E-09
 -1      1330-5.20410E-09-4.10033E-08-1.21783E-09
 -1      1331-8.74377E-09-4.39642E-08-1.80160E-09
 -1      1332 8.77385E-09-4.46197E-08 2.01268E-09
 -1      1333-5.99379E-09-1.20423E-08-1.71782E-09
 -1      1334-1.49506E-09-1.22750E-08-6.00962E-10
 -1      1335-8.94172E-10-1.23889E-08-3.85619E-10
 -1      1336 3.93316E-08-4.19138E-08 6.06274E-09
 -1      1337 3.46894E-08-4.19656E-07 1.47721E-08
 -1      1338-3.28468E-08-7.21709E-08-5.86911E-09
 -1      1339-2.46698E-08-6.27060E-08-4.34587E-09
 -1      1340-4.81810E-08-6.09238E-08-7.51317E-09
 -1      1341 1.30576E-08-4.88263E-08 2.69723E-09
 -1      1342-4.99113E-08-6.90199E-08-8.15505E-09
 -1      1343 1.55077E-08-1.35413E-08 3.09896E-09
 -1      1344 1.90639E-08-1.39386E-08 3.21085E-09
 -1      1345 2.48044E-08-6.17765E-08 4.81213E-09
 -1      1346 7.12340E-08-3.05954E-07 2.26131E-08
 -1      1347 1.83605E-08-1.11444E-08 3.16257E-09
 -1      1348 2.35698E-08-1.43707E-08 3.17149E-09
 -1      1349-3.65983E-08-4.18606E-07-1.46312E-08
 -1      1350-2.99914E-08-4.19576E-07-1.20770E-08
 -1      1351-8.32395E-08-3.71935E-07-2.69690E-08
 -1      1352-8.30418E-08-3.63929E-07-2.63840E-08
 -1      1353 8.53441E-11-3.71243E-08 9.04879E-11
 -1      1354 3.23748E-08-2.98132E-08 4.52620E-09
 -1      1355 8.18955E-08-3.34684E-07 2.54442E-08
 -1      1356-9.28491E-09-3.72978E-07-3.44483E-09
 -1      1357-1.70407E-08-3.71100E-07-6.79154E-09
 -1      1358 4.81341E-08-6.02912E-08 7.97654E-09
 -1      1359 4.29142E-08-4.74370E-08 6.74304E-09
 -1      1360 2.67279E-08-2.00094E-08 3.57057E-09
 -1      1361-8.09519E-08-3.37309E-07-2.43749E-08
 -1      1362-1.66255E-08-1.43447E-08-3.00994E-09
 -1      1363-6.11678E-08-1.01733E-07-1.07840E-08
 -1      1364-1.30606E-08-4.84789E-08-2.48010E-09
 -1      1365 3.04939E-08-2.63943E-08 4.19663E-09
 -1      1366-8.33565E-08-3.79511E-07-2.75291E-08
 -1      1367-4.29031E-08-8.32562E-08-7.68240E-09
 -1      1368 8.21033E-08-3.78443E-07 2.82128E-08
 -1      1369-4.93589E-08-3.49234E-07-1.85798E-08
 -1      1370 2.49930E-09-1.24265E-08 9.14394E-10
 -1      1371 6.58462E-09-1.24549E-08 1.86647E-09
 -1      1372 2.71746E-09-3.95189E-08 9.09682E-10
 -1      1373 4.99539E-11-1.28521E-08 2.07199E-11
 -1      1374-3.84367E-10-1.26529E-08-1.77374E-10
 -1      1375-2.03102E-08-1.23666E-08-3.13172E-09
 -1      1376-8.25117E-08-3.46661E-07-2.52410E-08
 -1      1377-8.31601E-08-3.55633E-07-2.58781E-08
 -1      1378-2.82138E-08-2.36204E-08-3.65779E-09
 -1      1379-2.60332E-08-2.00242E-08-3.34214E-09
 -1      1380 4.95941E-08-6.80565E-08 8.58611E-09
 -1      1381 6.00020E-08-1.12152E-07 1.15918E-08
 -1      1382 1.24088E-08-1.31208E-08 2.81073E-09
 -1      1383 2.94847E-08-1.65193E-08 3.19704E-09
 -1      1384-3.09102E-08-2.70751E-08-3.98160E-09
 -1      1385-2.77533E-08-1.59287E-08-3.01120E-09
 -1      1386 4.98873E-09-4.20472E-07 2.57010E-09
 -1      1387-6.01130E-08-1.13255E-07-1.10307E-08
 -1      1388-2.34625E-10-3.73547E-08-1.45785E-10
 -1      1389-2.34101E-08-4.20593E-07-9.41215E-09
 -1      1390 1.65560E-09-1.23708E-08 6.61578E-10
 -1      1391-2.22544E-08-1.58083E-08-3.15719E-09
 -1      1392 1.27207E-08-4.20830E-07 5.86540E-09
 -1      1393-4.30580E-08-4.18145E-07-1.70937E-08
 -1      1394-4.93128E-08-4.18817E-07-1.93578E-08
 -1      1395 8.26701E-08-3.70626E-07 2.78323E-08
 -1      1396 4.14874E-08-4.19444E-07 1.73893E-08
 -1      1397-5.58033E-08-4.19510E-07-2.16189E-08
 -1      1398 4.80455E-08-4.20326E-07 1.98046E-08
 -1      1399-8.77342E-08-4.00509E-07-3.01331E-08
 -1      1400 4.00738E-08-5.48822E-08 6.71653E-09
 -1      1401 3.69936E-08-4.89468E-08 6.06319E-09
 -1      1402 1.99604E-08-2.10297E-08 3.19849E-09
 -1      1403 2.27255E-08-2.02505E-08 3.41626E-09
 -1      1404 1.69462E-08-1.71039E-08 3.00227E-09
 -1      1405 6.77890E-08-4.21650E-07 2.66132E-08
 -1      1406 7.44457E-08-4.26281E-07 2.90282E-08
 -1      1407 7.26225E-08-4.17537E-07 2.79188E-08
 -1      1408 9.02776E-08-4.07873E-07 3.25123E-08
 -1      1409 8.71987E-08-4.00797E-07 3.11123E-08
 -1      1410 8.14252E-08-4.06151E-07 2.98350E-08
 -1      1411-9.04823E-08-4.07232E-07-3.14059E-08
 -1      1412-8.19811E-08-4.05524E-07-2.89093E-08
 -1      1413-2.09587E-08-1.77217E-08-3.09292E-09
 -1      1414 1.80956E-08-4.67406E-08 3.50684E-09
 -1      1415 2.45909E-08-5.29519E-08 4.57666E-09
 -1      1416 2.38166E-08-4.52318E-08 4.20451E-09
 -1      1417 1.00423E-08-1.67286E-08 2.27800E-09
 -1      1418-7.12668E-10-1.65304E-08-2.62865E-10
 -1      1419 4.60254E-08-3.77729E-07 1.83470E-08
 -1      1420 3.75195E-08-3.71712E-07 1.56073E-08
 -1      1421 3.74761E-08-3.82006E-07 1.55235E-08
 -1      1422 1.78867E-09-3.91005E-07 1.35741E-09
 -1      1423-2.24668E-09-4.00949E-07-3.74452E-10
 -1      1424 5.14516E-09-4.01400E-07 2.71847E-09
 -1      1425 9.51966E-09-3.86650E-07 4.64628E-09
 -1      1426 1.16554E-08-3.94954E-07 5.45588E-09
 -1      1427 1.16768E-08-4.04438E-07 5.41124E-09
 -1      1428-7.53169E-08-3.52584E-07-2.42215E-08
 -1      1429-6.62153E-08-3.54663E-07-2.24592E-08
 -1      1430-7.26518E-08-3.44815E-07-2.33958E-08
 -1      1431-2.33690E-09-3.40592E-08-7.20151E-10
 -1      1432 4.11697E-08-6.98123E-08 7.48591E-09
 -1      1433 5.21604E-09-1.66339E-08 1.42966E-09
 -1      1434 3.62800E-09-1.65620E-08 1.11760E-09
 -1      1435 5.11343E-09-2.11932E-08 1.35144E-09
 -1      1436 2.38311E-09-1.64248E-08 8.12375E-10
 -1      1437 1.50436E-09-1.62420E-08 5.80748E-10
 -1      1438-6.72324E-08-4.27695E-07-2.58291E-08
 -1      1439 2.01107E-09-2.04826E-08 7.08159E-10
 -1      1440 1.27011E-09-2.01224E-08 4.81817E-10
 -1      1441 1.31467E-09-2.49748E-08 5.03899E-10
 -1      1442 7.50591E-08-3.50114E-07 2.50472E-08
 -1      1443-5.77423E-09-4.10882E-07-1.88233E-09
 -1      1444-7.55098E-08-3.90953E-07-2.62459E-08
 -1      1445-7.83047E-08-3.98133E-07-2.73914E-08
 -1      1446 3.08080E-10-1.72146E-08 1.37058E-10
 -1      1447-1.90747E-10-1.71451E-08-7.93658E-11
 -1      1448 5.96606E-11-2.20792E-08 4.81791E-11
 -1      1449-1.48365E-08-3.79668E-07-5.76305E-09
 -1      1450-4.66421E-09-1.59991E-08-1.30343E-09
 -1      1451 2.08997E-08-3.77719E-07 9.40712E-09
 -1      1452 1.23289E-08-3.79093E-07 5.89218E-09
 -1      1453-2.60281E-08-4.11493E-07-1.03453E-08
 -1      1454-2.37245E-08-2.50714E-08-3.39418E-09
 -1      1455 6.67255E-08-4.29501E-07 2.67197E-08
 -1      1456 7.47133E-08-3.66929E-07 2.57975E-08
 -1      1457 7.60902E-08-3.58719E-07 2.56674E-08
 -1      1458 6.84769E-08-3.62729E-07 2.41899E-08
 -1      1459-7.51653E-08-3.68481E-07-2.49696E-08
 -1      1460-7.43965E-08-3.60347E-07-2.44273E-08
 -1      1461 6.36640E-08-3.39242E-07 2.24349E-08
 -1      1462 7.74030E-08-3.98344E-07 2.81869E-08
 -1      1463-2.23926E-08-2.11195E-08-3.14403E-09
 -1      1464-1.80240E-08-2.16361E-08-2.90433E-09
 -1      1465 3.79394E-08-4.09837E-07 1.58434E-08
 -1      1466 3.05462E-08-4.10733E-07 1.30267E-08
 -1      1467 7.43110E-08-3.90635E-07 2.68941E-08
 -1      1468-6.43391E-09-1.62194E-08-1.61718E-09
 -1      1469 1.29309E-08-4.19093E-08 2.63979E-09
 -1      1470-3.21600E-08-6.24104E-08-5.51910E-09
 -1      1471-2.45416E-08-5.41437E-08-4.25780E-09
 -1      1472-3.17449E-08-5.48852E-08-5.20353E-09
 -1      1473-2.19435E-09-1.63144E-08-7.39929E-10
 -1      1474 7.30726E-08-3.40805E-07 2.42362E-08
 -1      1475-1.38970E-08-1.79596E-08-2.56214E-09
 -1      1476 7.28174E-08-3.82687E-07 2.60865E-08
 -1      1477-8.62365E-08-4.13426E-07-3.06839E-08
 -1      1478-3.29321E-09-1.61633E-08-1.03777E-09
 -1      1479-4.63778E-09-2.03917E-08-1.20763E-09
 -1      1480-1.82355E-08-4.68320E-08-3.21289E-09
 -1      1481-1.30913E-08-4.10287E-08-2.45538E-09
 -1      1482-1.83728E-08-3.96395E-08-3.05548E-09
 -1      1483-7.45877E-08-3.83855E-07-2.56342E-08
 -1      1484-3.84220E-08-3.71872E-07-1.50245E-08
 -1      1485-8.11859E-09-1.60880E-08-1.85985E-09
 -1      1486-9.17164E-09-2.12180E-08-1.92498E-09
 -1      1487-1.07447E-08-1.76260E-08-2.21449E-09
 -1      1488-1.35213E-08-2.26858E-08-2.45784E-09
 -1      1489-8.64330E-09-3.72589E-08-1.81965E-09
 -1      1490-4.13729E-08-7.12124E-08-7.05260E-09
 -1      1491 7.29547E-08-3.74764E-07 2.57623E-08
 -1      1492-8.83205E-10-3.36117E-08-3.19850E-10
 -1      1493 2.50047E-08-1.70717E-08 3.30199E-09
 -1      1494 2.07097E-08-1.69736E-08 3.23670E-09
 -1      1495 4.51469E-08-3.66593E-07 1.80977E-08
 -1      1496 5.71211E-08-3.49608E-07 2.12495E-08
 -1      1497 5.14816E-08-3.59162E-07 1.98552E-08
 -1      1498 6.02015E-08-3.60317E-07 2.21300E-08
 -1      1499-4.49557E-08-3.66869E-07-1.71942E-08
 -1      1500-5.09726E-08-3.60118E-07-1.89475E-08
 -1      1501-7.50870E-08-3.76527E-07-2.53799E-08
 -1      1502 2.43194E-08-2.36940E-08 3.61888E-09
 -1      1503-3.57111E-08-4.01000E-08-5.17505E-09
 -1      1504-3.21794E-08-3.61660E-08-4.55051E-09
 -1      1505-2.92366E-08-3.21442E-08-4.08432E-09
 -1      1506-1.35801E-09-1.62427E-08-5.08588E-10
 -1      1507 1.38757E-08-2.13877E-08 2.57599E-09
 -1      1508 1.06306E-08-2.27473E-08 2.16458E-09
 -1      1509-6.20879E-08-4.19770E-07-2.37404E-08
 -1      1510-3.98150E-08-4.09031E-07-1.56611E-08
 -1      1511-2.14546E-08-3.87280E-07-8.46609E-09
 -1      1512-2.31347E-08-3.77951E-07-9.24746E-09
 -1      1513-3.02204E-08-3.84478E-07-1.19603E-08
 -1      1514-3.10997E-08-3.75327E-07-1.23655E-08
 -1      1515-3.88629E-08-3.82004E-07-1.50981E-08
 -1      1516 3.53649E-08-4.38201E-08 5.67813E-09
 -1      1517-3.83765E-08-4.91869E-08-5.86523E-09
 -1      1518-3.95760E-08-5.51954E-08-6.28317E-09
 -1      1519 1.80629E-08-4.03468E-07 8.02956E-09
 -1      1520 3.41265E-09-3.80787E-07 2.09521E-09
 -1      1521 3.58669E-10-2.72807E-08 1.82946E-10
 -1      1522-2.85413E-10-2.63288E-08-1.03498E-10
 -1      1523-9.27908E-11-3.20792E-08-2.75812E-11
 -1      1524-7.09505E-08-3.34234E-07-2.26596E-08
 -1      1525 6.56134E-08-3.49306E-07 2.31239E-08
 -1      1526 3.99071E-08-6.06977E-08 6.91568E-09
 -1      1527 3.15368E-08-5.18830E-08 5.50117E-09
 -1      1528-7.66706E-10-2.93551E-08-2.86685E-10
 -1      1529-1.83575E-09-2.94896E-08-5.66795E-10
 -1      1530-6.37179E-08-3.43595E-07-2.17385E-08
 -1      1531 2.31656E-08-4.11666E-07 1.01261E-08
 -1      1532 2.56021E-08-2.70891E-08 3.89270E-09
 -1      1533 1.91798E-08-2.41599E-08 3.19824E-09
 -1      1534 2.74633E-08-3.08887E-08 4.19529E-09
 -1      1535 7.50336E-09-1.70134E-08 1.86884E-09
 -1      1536 4.19553E-09-2.54885E-08 1.15572E-09
 -1      1537 4.77091E-09-3.02850E-08 1.34162E-09
 -1      1538 7.32849E-09-2.60849E-08 1.70297E-09
 -1      1539-3.28530E-08-4.10206E-07-1.30315E-08
 -1      1540 1.75853E-08-3.96918E-08 3.29109E-09
 -1      1541 1.24382E-08-3.53069E-08 2.53082E-09
 -1      1542 1.20645E-09-3.36457E-08 5.37488E-10
 -1      1543 2.70914E-09-3.42590E-08 9.14945E-10
 -1      1544 2.33060E-09-2.90955E-08 8.14168E-10
 -1      1545 6.32248E-08-3.78221E-07 2.33797E-08
 -1      1546 6.42140E-08-3.87371E-07 2.39716E-08
 -1      1547 3.88901E-10-3.28849E-08 2.30572E-10
 -1      1548-1.11408E-09-2.00590E-08-3.90637E-10
 -1      1549-5.38761E-10-2.14204E-08-1.75955E-10
 -1      1550-6.55215E-08-3.87688E-07-2.34028E-08
 -1      1551-1.56698E-08-4.04996E-07-6.00445E-09
 -1      1552-1.26148E-08-4.12195E-07-4.77414E-09
 -1      1553-9.60277E-09-4.02326E-07-3.45530E-09
 -1      1554-7.27932E-08-4.03222E-07-2.61872E-08
 -1      1555-7.78177E-08-4.11142E-07-2.80726E-08
 -1      1556-4.02418E-08-6.21410E-08-6.62523E-09
 -1      1557 3.20135E-08-6.06832E-08 5.84724E-09
 -1      1558 1.63393E-08-2.00141E-08 2.91690E-09
 -1      1559 1.29716E-08-1.67215E-08 2.58978E-09
 -1      1560 5.22500E-09-3.57637E-08 1.38536E-09
 -1      1561 8.57274E-09-3.82144E-08 1.97990E-09
 -1      1562 8.19858E-09-3.21000E-08 1.86839E-09
 -1      1563 2.93975E-08-4.41397E-08 4.91237E-09
 -1      1564 6.13039E-08-4.21350E-07 2.44562E-08
 -1      1565 6.45034E-08-4.13758E-07 2.51290E-08
 -1      1566 2.94417E-08-3.75203E-07 1.27128E-08
 -1      1567 5.12940E-08-4.12507E-07 2.07086E-08
 -1      1568 5.74279E-08-4.11538E-07 2.27190E-08
 -1      1569 5.13588E-08-4.01873E-07 2.04523E-08
 -1      1570-6.78825E-09-2.51786E-08-1.52751E-09
 -1      1571-4.08066E-09-2.93672E-08-1.05091E-09
 -1      1572-4.15464E-09-2.43420E-08-1.10731E-09
 -1      1573 1.02049E-09-2.95179E-08 4.49897E-10
 -1      1574-5.59249E-08-3.82205E-07-2.05374E-08
 -1      1575-5.80060E-08-3.92998E-07-2.14159E-08
 -1      1576 2.30374E-08-3.84667E-08 3.95796E-09
 -1      1577 2.99531E-08-3.85330E-08 4.75438E-09
 -1      1578 2.26592E-08-3.28388E-08 3.75752E-09
 -1      1579 1.60209E-08-2.71651E-08 2.87491E-09
 -1      1580 2.81637E-08-3.84417E-07 1.21228E-08
 -1      1581-6.58867E-08-3.79924E-07-2.32236E-08
 -1      1582-1.94616E-08-4.12591E-07-7.63275E-09
 -1      1583-4.89900E-09-3.50570E-08-1.20212E-09
 -1      1584-2.21409E-08-2.94555E-08-3.33580E-09
 -1      1585-1.84535E-08-2.54147E-08-2.92267E-09
 -1      1586 1.59046E-08-4.12386E-07 7.14241E-09
 -1      1587-1.28844E-08-3.87367E-07-4.86641E-09
 -1      1588-6.97003E-09-3.92868E-07-2.36229E-09
 -1      1589-5.44704E-09-3.82408E-07-1.72109E-09
 -1      1590-6.40817E-09-2.00148E-08-1.50161E-09
 -1      1591 6.46684E-08-3.69515E-07 2.34798E-08
 -1      1592 5.45051E-08-3.70982E-07 2.08442E-08
 -1      1593 4.51709E-08-4.10002E-07 1.84978E-08
 -1      1594 4.20118E-08-4.00089E-07 1.71924E-08
 -1      1595-5.84715E-08-4.10345E-07-2.21363E-08
 -1      1596 8.39275E-09-4.11706E-07 4.04581E-09
 -1      1597 1.34039E-09-4.10620E-07 1.10344E-09
 -1      1598-2.75840E-08-2.87111E-08-3.84280E-09
 -1      1599-1.18644E-09-2.48712E-08-4.13270E-10
 -1      1600-2.54483E-09-2.51197E-08-7.68820E-10
 -1      1601-1.73778E-08-1.77403E-08-2.88038E-09
 -1      1602-3.64680E-08-4.39986E-08-5.37722E-09
 -1      1603 8.60536E-08-4.14395E-07 3.17927E-08
 -1      1604-2.94510E-08-3.94438E-08-4.40932E-09
 -1      1605-2.48320E-08-4.69700E-08-4.06247E-09
 -1      1606 8.44039E-10-1.66221E-08 3.36108E-10
 -1      1607-6.67728E-08-3.64973E-07-2.29415E-08
 -1      1608-3.07713E-08-4.48516E-08-4.79948E-09
 -1      1609-6.84456E-08-3.72685E-07-2.36090E-08
 -1      1610-6.06284E-08-3.72677E-07-2.16248E-08
 -1      1611-5.89071E-08-3.62737E-07-2.09958E-08
 -1      1612-5.73610E-08-3.52226E-07-2.04278E-08
 -1      1613-4.67135E-08-4.08982E-07-1.81333E-08
 -1      1614-5.25481E-08-4.11284E-07-2.02098E-08
 -1      1615 2.98233E-08-3.45908E-08 4.60949E-09
 -1      1616-4.37196E-08-3.99481E-07-1.68875E-08
 -1      1617-4.78077E-08-3.89509E-07-1.81283E-08
 -1      1618-5.26760E-08-4.01068E-07-1.99800E-08
 -1      1619 6.51723E-10-2.17662E-08 2.72529E-10
 -1      1620 1.85978E-08-3.87019E-07 8.35770E-09
 -1      1621 2.56512E-08-4.02679E-07 1.10694E-08
 -1      1622 1.16618E-08-2.90009E-08 2.30570E-09
 -1      1623 3.26937E-09-2.06603E-08 1.02848E-09
 -1      1624-2.49576E-08-4.17277E-08-3.99231E-09
 -1      1625-3.79475E-08-3.91371E-07-1.47699E-08
 -1      1626-3.55751E-08-4.00688E-07-1.39741E-08
 -1      1627-2.96244E-08-3.93278E-07-1.16781E-08
 -1      1628-2.83860E-08-4.02575E-07-1.12105E-08
 -1      1629-4.65533E-08-3.77913E-07-1.76459E-08
 -1      1630-3.25788E-08-5.00526E-08-5.16470E-09
 -1      1631 4.63287E-08-3.89938E-07 1.85405E-08
 -1      1632 5.45950E-08-3.82965E-07 2.10585E-08
 -1      1633 3.60402E-08-3.91587E-07 1.49981E-08
 -1      1634 2.71456E-08-3.93329E-07 1.16808E-08
 -1      1635 3.34039E-08-4.01070E-07 1.40607E-08
 -1      1636 2.51535E-09-2.43507E-08 8.41285E-10
 -1      1637-6.83848E-08-4.20124E-07-2.57754E-08
 -1      1638-6.53278E-08-4.12510E-07-2.44131E-08
 -1      1639-7.31459E-08-4.16243E-07-2.70192E-08
 -1      1640-1.29607E-08-3.37075E-08-2.31850E-09
 -1      1641-1.91319E-09-2.06993E-08-6.21689E-10
 -1      1642-3.01852E-09-2.04626E-08-9.08613E-10
 -1      1643-7.71837E-09-3.10114E-08-1.63444E-09
 -1      1644-1.89140E-08-3.34621E-08-3.11067E-09
 -1      1645-1.57204E-08-2.85357E-08-2.61347E-09
 -1      1646-5.26703E-08-3.71017E-07-1.94771E-08
 -1      1647-2.14784E-08-4.03766E-07-8.41714E-09
 -1      1648 7.18344E-09-2.08625E-08 1.71803E-09
 -1      1649 1.69286E-08-3.32634E-08 3.04420E-09
 -1      1650 2.17237E-08-2.83805E-08 3.54817E-09
 -1      1651-1.08766E-08-2.70029E-08-2.07052E-09
 -1      1652 6.86521E-08-3.56110E-07 2.39852E-08
 -1      1653 6.70439E-08-3.96095E-07 2.51377E-08
 -1      1654 7.19450E-08-4.03865E-07 2.69504E-08
 -1      1655 6.93242E-08-4.09858E-07 2.64778E-08
 -1      1656-1.56898E-08-3.95701E-07-6.04218E-09
 -1      1657-6.27101E-08-4.02738E-07-2.31782E-08
 -1      1658-6.81141E-08-3.95820E-07-2.44746E-08
 -1      1659-7.47605E-08-4.24679E-07-2.80451E-08
 -1      1660 5.68280E-08-3.93636E-07 2.19889E-08
 -1      1661 6.16913E-08-4.03584E-07 2.38372E-08
 -1      1662 7.73032E-08-4.12125E-07 2.90071E-08
 -1      1663-8.10022E-08-4.19549E-07-2.95951E-08
 -1      1664-7.01005E-08-4.08852E-07-2.56543E-08
 -1      1665 8.07907E-08-4.20856E-07 3.06652E-08
 -1      1666-2.31771E-08-3.96082E-07-9.09923E-09
 -1      1667 1.99993E-08-3.95866E-07 8.83409E-09
 -1      1668-2.54035E-08-3.43049E-08-3.83325E-09
 -1      1669-2.30938E-08-3.73896E-08-3.60400E-09
 -1      1670-3.75950E-08-7.34993E-09-1.25161E-09
 -1      1671-4.11387E-08-1.14454E-08-1.42802E-09
 -1      1672-4.00063E-08-1.01916E-08-1.07899E-09
 -1      1673-4.25539E-08-1.49967E-08-1.36316E-09
 -1      1674-3.46092E-08-4.97169E-09-1.16735E-10
 -1      1675-2.68997E-08-3.06058E-10 2.51090E-10
 -1      1676-3.17444E-08-2.79036E-09-4.11927E-10
 -1      1677-1.60596E-08 5.32095E-10-7.99151E-10
 -1      1678-3.67105E-08-7.58217E-09-4.73615E-11
 -1      1679-3.99831E-08-1.17107E-08-4.14967E-10
 -1      1680-1.68624E-08 1.84225E-09-1.97087E-10
 -1      1681-4.19211E-08-1.51979E-08-7.87713E-10
 -1      1682-4.22248E-08-1.50657E-08-1.06477E-09
 -1      1683-3.23595E-08-2.87208E-09-1.15230E-09
 -1      1684-2.43609E-08 3.17700E-10-3.63141E-10
 -1      1685-4.05627E-08-1.13724E-08-9.05088E-10
 -1      1686-3.72837E-08-7.08540E-09-6.07451E-10
 -1      1687-1.69977E-08 1.64636E-09 8.46965E-10
 -1      1688-1.61248E-08 1.10550E-09 1.89665E-10
 -1      1689-2.73314E-08-2.93121E-10-7.57951E-10
 -1      1690-3.50031E-08-5.02427E-09-8.53388E-10
 -1      1691-2.52369E-08-5.37476E-11-1.50051E-09
 -1      1692-4.28014E-08-1.50141E-08-1.64993E-09
 -1      1693-3.16514E-08-2.97516E-09 3.06118E-10
 -1      1694-2.47221E-08 2.05211E-10 7.84527E-10
 -1      1695-3.94198E-08-1.03785E-08-5.53586E-10
 -1      1696-4.56318E-08-2.90379E-07-1.24652E-08
 -1      1697-4.69335E-08-2.75434E-07-1.24873E-08
 -1      1698 4.57993E-08-3.23403E-08 1.63427E-09
 -1      1699 3.56871E-08-1.59109E-07 1.15557E-08
 -1      1700-1.91517E-08-3.56356E-07-6.42921E-09
 -1      1701-2.35843E-08-3.52437E-07-7.87925E-09
 -1      1702-4.71692E-08-2.58530E-07-1.23039E-08
 -1      1703 6.62012E-08-4.57490E-07 2.82177E-08
 -1      1704 9.72597E-08-1.49063E-07 1.29796E-08
 -1      1705 1.00630E-07-1.66028E-07 1.45020E-08
 -1      1706 1.09080E-07-2.55131E-07 2.24014E-08
 -1      1707 1.09258E-07-2.38206E-07 2.09764E-08
 -1      1708-9.39431E-08-1.33576E-07-1.07632E-08
 -1      1709-1.03999E-08-5.29348E-09 2.74231E-09
 -1      1710-4.90300E-09-3.23065E-09 2.79401E-09
 -1      1711 3.18076E-08-1.13208E-08-3.93810E-10
 -1      1712 2.67342E-08-8.40394E-09-1.06237E-09
 -1      1713 8.99203E-10-2.34982E-09-6.79278E-10
 -1      1714 6.58363E-10-2.43503E-09-5.18810E-10
 -1      1715-1.11322E-09-5.24186E-08 2.83464E-09
 -1      1716-9.22730E-10-5.07753E-08 1.78326E-09
 -1      1717-3.14698E-08-1.42011E-07-1.06443E-08
 -1      1718-3.58751E-08-1.60143E-07-1.10098E-08
 -1      1719 9.37377E-08-1.33182E-07 1.16020E-08
 -1      1720 8.98100E-08-1.18423E-07 1.02773E-08
 -1      1721 3.93758E-08-2.19500E-08 6.57366E-10
 -1      1722 3.80887E-08-1.85273E-08 4.68304E-10
 -1      1723 1.06416E-07-3.56853E-07 3.18575E-08
 -1      1724 4.26243E-08-3.02007E-07 1.29570E-08
 -1      1725 4.47641E-08-2.88578E-07 1.30980E-08
 -1      1726 9.95807E-10-5.08031E-08-1.62725E-09
 -1      1727-2.62977E-08-1.25444E-07-1.02516E-08
 -1      1728-9.24329E-10-2.34547E-09 7.16068E-10
 -1      1729-9.38534E-09-3.61192E-07-2.97203E-09
 -1      1730-4.16484E-09-3.62163E-07-1.04082E-09
 -1      1731-6.11324E-08-4.55760E-07-2.54957E-08
 -1      1732-5.53938E-08-4.56371E-07-2.33777E-08
 -1      1733 6.06563E-08-4.58766E-07 2.62171E-08
 -1      1734-5.93733E-08-5.09833E-08-3.15519E-09
 -1      1735-5.55659E-08-4.53961E-08-2.54921E-09
 -1      1736-3.04344E-10-2.58191E-09 2.55861E-10
 -1      1737 4.47345E-09-2.83813E-09-2.35161E-09
 -1      1738 3.42428E-09-2.59239E-09-1.91774E-09
 -1      1739 2.20947E-09-6.33371E-08 5.80087E-09
 -1      1740 9.37201E-09-4.59600E-09-2.66776E-09
 -1      1741 3.07761E-08-4.62273E-07 1.22191E-08
 -1      1742-4.48622E-09-6.97857E-08-6.58439E-09
 -1      1743-2.00606E-09-6.35938E-08-5.68083E-09
 -1      1744-3.16138E-08-4.58197E-07-1.29442E-08
 -1      1745 1.97888E-08-5.58301E-09-1.79083E-09
 -1      1746 1.08993E-07-2.71210E-07 2.38079E-08
 -1      1747 1.08652E-07-3.13396E-07 2.77974E-08
 -1      1748 1.09021E-07-3.00281E-07 2.65524E-08
 -1      1749 1.06740E-07-3.46973E-07 3.08700E-08
 -1      1750-4.50747E-08-2.20280E-07-1.19253E-08
 -1      1751-4.64297E-08-2.39966E-07-1.20661E-08
 -1      1752-9.75406E-08-1.49408E-07-1.21265E-08
 -1      1753-1.01112E-07-1.66374E-07-1.35864E-08
 -1      1754 4.88629E-08-4.59526E-07 2.14172E-08
 -1      1755 4.27843E-08-4.60071E-07 1.86517E-08
 -1      1756 1.09051E-07-2.86213E-07 2.51871E-08
 -1      1757 5.82220E-11-2.65567E-09-5.31508E-11
 -1      1758-6.75611E-11-2.64003E-09 6.39901E-11
 -1      1759-1.77464E-10-2.62017E-09 1.48436E-10
 -1      1760-4.89623E-08-3.61161E-08-1.57419E-09
 -1      1761-5.21298E-08-4.04866E-08-2.01782E-09
 -1      1762-6.35114E-08-5.74111E-08-3.82368E-09
 -1      1763 7.18140E-08-4.55534E-07 3.01073E-08
 -1      1764 1.08581E-07-2.20230E-07 1.93970E-08
 -1      1765 1.02772E-08-4.64110E-07 2.67309E-09
 -1      1766 3.36775E-10-4.64201E-07 3.11685E-09
 -1      1767-1.02145E-07-4.18503E-07-3.57238E-08
 -1      1768 7.20763E-08-7.31373E-08 6.00736E-09
 -1      1769-8.19754E-08-4.47164E-07-3.19911E-08
 -1      1770-9.01109E-08-1.18719E-07-9.48303E-09
 -1      1771-1.06440E-07-3.47765E-07-2.96888E-08
 -1      1772-1.06913E-07-3.37472E-07-2.86805E-08
 -1      1773-1.09137E-07-2.38742E-07-1.98359E-08
 -1      1774-1.09267E-07-2.55935E-07-2.13178E-08
 -1      1775-4.10274E-08-3.15187E-07-1.20178E-08
 -1      1776-1.08962E-07-3.01439E-07-2.54127E-08
 -1      1777-1.09258E-07-2.87330E-07-2.41019E-08
 -1      1778-3.75563E-08-1.81920E-08-1.38055E-10
 -1      1779-3.54438E-08-1.44424E-08 1.62093E-10
 -1      1780 5.51932E-08-4.55088E-08 3.13060E-09
 -1      1781 1.18676E-09-3.62099E-07 9.01400E-10
 -1      1782-9.76794E-08-4.29970E-07-3.54495E-08
 -1      1783-9.43173E-08-4.34985E-07-3.48646E-08
 -1      1784-2.77488E-08-3.47376E-07-9.16090E-09
 -1      1785-2.76967E-08-8.33860E-09 9.79548E-10
 -1      1786-3.32299E-08-1.05301E-08 4.15095E-10
 -1      1787 1.62263E-08-9.73288E-08 9.26749E-09
 -1      1788 1.17346E-08-8.64010E-08 8.48942E-09
 -1      1789 1.65575E-10-2.64785E-09-1.20292E-10
 -1      1790 3.09302E-10-2.58354E-09-2.56486E-10
 -1      1791-2.58380E-08-4.59529E-07-9.78102E-09
 -1      1792-1.60859E-08-9.77129E-08-8.90957E-09
 -1      1793 8.06518E-09-7.71351E-08 7.61639E-09
 -1      1794-1.07408E-07-2.02543E-07-1.67941E-08
 -1      1795-3.97644E-08-1.79893E-07-1.14771E-08
 -1      1796 4.33158E-08-2.86966E-08 1.25061E-09
 -1      1797-4.61285E-08-3.21656E-08-1.16461E-09
 -1      1798-4.35841E-08-2.85385E-08-8.41425E-10
 -1      1799 5.91188E-08-5.10989E-08 3.72916E-09
 -1      1800 3.58127E-08-1.47510E-08 5.47574E-11
 -1      1801 6.76908E-08-6.48346E-08 5.17029E-09
 -1      1802-6.78554E-08-6.47408E-08-4.51137E-09
 -1      1803-7.22588E-08-7.30476E-08-5.31584E-09
 -1      1804 8.64932E-10-5.51361E-08-3.77005E-09
 -1      1805-1.03638E-07-4.12558E-07-3.55988E-08
 -1      1806 8.68090E-08-4.46203E-07 3.44882E-08
 -1      1807 1.05316E-07-3.99505E-07 3.59816E-08
 -1      1808 1.05447E-07-4.06784E-07 3.67308E-08
 -1      1809-6.65305E-08-4.54578E-07-2.73653E-08
 -1      1810-7.19638E-08-4.52677E-07-2.91038E-08
 -1      1811-7.70279E-08-4.50268E-07-3.06110E-08
 -1      1812-6.62550E-10-2.46162E-09 4.83127E-10
 -1      1813-8.13076E-08-9.30697E-08-7.12176E-09
 -1      1814-8.58214E-08-1.05125E-07-8.26263E-09
 -1      1815-2.02369E-08-4.61173E-07-6.27949E-09
 -1      1816-1.44177E-08-4.62622E-07-2.65245E-09
 -1      1817-3.14624E-08-3.41270E-07-1.01868E-08
 -1      1818-1.61611E-09-2.20708E-09 1.08352E-09
 -1      1819 1.68068E-08-3.56059E-07 6.51258E-09
 -1      1820-1.16842E-09-2.26040E-09 7.99642E-10
 -1      1821-2.71071E-09-2.38293E-09 1.74255E-09
 -1      1822-3.93430E-08-2.16951E-08-3.29976E-10
 -1      1823-3.54896E-09-2.69356E-09 2.14004E-09
 -1      1824-2.90831E-08-1.30617E-08 7.88207E-10
 -1      1825-4.13514E-08-2.50863E-08-5.71829E-10
 -1      1826 4.71670E-09-6.94536E-08 6.77065E-09
 -1      1827 2.07771E-09-2.30244E-09-1.41878E-09
 -1      1828 2.74322E-09-2.38958E-09-1.77221E-09
 -1      1829 2.49244E-08-4.63696E-07 8.59796E-09
 -1      1830 8.21962E-08-4.49860E-07 3.32345E-08
 -1      1831 7.70450E-08-4.53042E-07 3.17346E-08
 -1      1832-2.05577E-10-5.88086E-08-4.78953E-09
 -1      1833-2.05551E-09-2.24875E-09 1.43022E-09
 -1      1834 3.38471E-08-3.32878E-07 1.14060E-08
 -1      1835 3.00848E-08-3.40530E-07 1.04940E-08
 -1      1836-3.75297E-08-4.57218E-07-1.58378E-08
 -1      1837 3.72063E-08-3.24096E-07 1.21545E-08
 -1      1838-4.42759E-10-2.53359E-09 3.16835E-10
 -1      1839-1.43913E-08-3.59286E-07-4.79182E-09
 -1      1840-1.04693E-07-1.84081E-07-1.51571E-08
 -1      1841 4.85927E-08-3.62904E-08 2.07855E-09
 -1      1842 5.17336E-08-4.06320E-08 2.55257E-09
 -1      1843-1.00296E-07-4.24582E-07-3.57500E-08
 -1      1844 4.62838E-08-2.73622E-07 1.31673E-08
 -1      1845 1.05258E-07-3.83677E-07 3.43712E-08
 -1      1846 1.05178E-07-3.91763E-07 3.51583E-08
 -1      1847-1.05246E-07-3.75198E-07-3.23271E-08
 -1      1848-1.05058E-07-3.83440E-07-3.31080E-08
 -1      1849-1.05970E-07-3.57408E-07-3.06362E-08
 -1      1850 1.05953E-07-3.66265E-07 3.27418E-08
 -1      1851 1.16640E-09-5.24334E-08-2.72803E-09
 -1      1852 8.54936E-08-1.05000E-07 9.00034E-09
 -1      1853 1.03900E-07-1.83746E-07 1.61178E-08
 -1      1854 1.07962E-07-3.25510E-07 2.88912E-08
 -1      1855 1.07338E-07-3.36613E-07 2.99326E-08
 -1      1856 2.10960E-08-1.09998E-07 9.92377E-09
 -1      1857-3.51223E-08-3.33824E-07-1.09672E-08
 -1      1858 3.66981E-08-4.61009E-07 1.55849E-08
 -1      1859-1.08804E-07-2.20921E-07-1.83570E-08
 -1      1860-4.28869E-08-2.00105E-07-1.16424E-08
 -1      1861-1.05034E-07-3.98826E-07-3.46698E-08
 -1      1862-3.19804E-10-4.99565E-08 6.53393E-10
 -1      1863 4.60668E-10-2.51484E-09-3.77753E-10
 -1      1864 1.17958E-08-3.59092E-07 4.79086E-09
 -1      1865-2.02642E-08-6.39384E-09 1.73954E-09
 -1      1866-1.09308E-07-2.72185E-07-2.27363E-08
 -1      1867 6.32789E-08-5.75199E-08 4.42610E-09
 -1      1868 7.65586E-08-8.24774E-08 6.95240E-09
 -1      1869 8.10577E-08-9.30681E-08 7.90718E-09
 -1      1870 4.25103E-08-1.98776E-07 1.23343E-08
 -1      1871 1.04349E-07-4.13727E-07 3.70735E-08
 -1      1872 6.53088E-09-3.61068E-07 2.84634E-09
 -1      1873 2.59311E-08-3.46793E-07 9.42023E-09
 -1      1874-8.36965E-09-4.64242E-07 1.16772E-09
 -1      1875 1.06772E-07-2.01949E-07 1.77395E-08
 -1      1876-2.10919E-08-1.10545E-07-9.45996E-09
 -1      1877-7.66694E-08-8.24717E-08-6.20174E-09
 -1      1878 1.05566E-07-3.75199E-07 3.35897E-08
 -1      1879-1.07617E-07-3.26424E-07-2.76715E-08
 -1      1880 4.29266E-10-4.99477E-08-6.00820E-10
 -1      1881-4.35682E-08-4.56625E-07-1.85355E-08
 -1      1882-4.95869E-08-4.56283E-07-2.10799E-08
 -1      1883 1.59034E-09-2.26470E-09-1.06027E-09
 -1      1884 2.15380E-08-3.51944E-07 8.06079E-09
 -1      1885-7.36832E-10-5.50703E-08 3.92810E-09
 -1      1886 3.48679E-10-5.86670E-08 4.94114E-09
 -1      1887-7.88710E-09-7.74632E-08-7.35662E-09
 -1      1888-1.17374E-08-8.68198E-08-8.27750E-09
 -1      1889 4.67319E-08-2.56830E-07 1.30325E-08
 -1      1890 4.61796E-08-2.38313E-07 1.28452E-08
 -1      1891-4.34292E-08-3.03607E-07-1.23987E-08
 -1      1892-1.05555E-07-3.66567E-07-3.14903E-08
 -1      1893 3.15045E-08-1.41004E-07 1.11465E-08
 -1      1894 2.64742E-08-1.24630E-07 1.06177E-08
 -1      1895 1.22136E-09-2.26333E-09-8.56314E-10
 -1      1896 1.87922E-08-4.64884E-07 4.69152E-09
 -1      1897 4.11260E-08-2.52768E-08 9.24062E-10
 -1      1898 4.47856E-08-2.18792E-07 1.26640E-08
 -1      1899 1.01222E-07-4.26358E-07 3.73139E-08
 -1      1900 9.85577E-08-4.32015E-07 3.70103E-08
 -1      1901 9.12363E-08-4.41898E-07 3.55582E-08
 -1      1902 1.02994E-07-4.19962E-07 3.72607E-08
 -1      1903 9.50594E-08-4.37262E-07 3.63813E-08
 -1      1904-1.04993E-07-3.91314E-07-3.39014E-08
 -1      1905-9.06428E-08-4.39446E-07-3.41226E-08
 -1      1906-3.81986E-08-3.25328E-07-1.16404E-08
 -1      1907-1.08440E-07-3.14540E-07-2.66293E-08
 -1      1908-8.64308E-08-4.43626E-07-3.31410E-08
 -1      1909 4.00869E-08-3.13797E-07 1.26130E-08
 -1      1910-1.04971E-07-4.05893E-07-3.53410E-08
 -1      1911 3.92977E-08-1.78576E-07 1.19034E-08
 -1      1912 5.47849E-08-4.59477E-07 2.39183E-08
 -1      1913 9.30539E-08-4.26149E-07 3.47786E-08
 -1      1914 1.03713E-08-3.66884E-07 4.51777E-09
 -1      1915-9.53891E-08-2.28909E-07-1.76453E-08
 -1      1916-9.56425E-08-2.47019E-07-1.89090E-08
 -1      1917 1.47894E-08-8.45859E-09-2.31639E-09
 -1      1918 7.11362E-08-4.46697E-07 2.91687E-08
 -1      1919-6.72479E-08-4.47367E-07-2.70323E-08
 -1      1920-9.66557E-08-3.79967E-07-3.05547E-08
 -1      1921-9.68215E-08-3.87852E-07-3.13529E-08
 -1      1922-8.92096E-08-1.74343E-07-1.36799E-08
 -1      1923-9.30847E-08-1.92451E-07-1.50976E-08
 -1      1924 6.53627E-08-7.61060E-08 6.45535E-09
 -1      1925 6.88913E-08-8.60442E-08 7.39468E-09
 -1      1926-7.96997E-08-1.24218E-07-9.87735E-09
 -1      1927-3.97401E-08-1.28880E-07-1.01035E-08
 -1      1928-4.59090E-08-1.47079E-07-1.09199E-08
 -1      1929-5.76484E-08-4.49255E-07-2.37070E-08
 -1      1930-3.55887E-08-2.30633E-08-2.04762E-10
 -1      1931-3.74550E-08-2.62095E-08-5.51208E-10
 -1      1932 5.84594E-08-2.69698E-07 1.53349E-08
 -1      1933 5.61520E-08-2.86123E-07 1.55849E-08
 -1      1934-3.31071E-08-3.51277E-07-1.13259E-08
 -1      1935-2.85270E-08-3.56892E-07-9.94958E-09
 -1      1936 4.99617E-09-4.53619E-07 3.13449E-09
 -1      1937 1.36835E-08-4.54064E-07 4.88445E-09
 -1      1938 9.64885E-08-3.88113E-07 3.24047E-08
 -1      1939 9.65938E-08-3.80057E-07 3.16784E-08
 -1      1940-9.71242E-08-3.95249E-07-3.21038E-08
 -1      1941 1.41903E-08-7.55445E-08 7.26201E-09
 -1      1942 1.96886E-08-8.53230E-08 8.12863E-09
 -1      1943-9.73180E-08-3.08838E-07-2.40239E-08
 -1      1944-9.69982E-08-2.94997E-07-2.27266E-08
 -1      1945 9.57425E-08-2.79383E-07 2.23787E-08
 -1      1946-7.03114E-10-5.57116E-09 3.54100E-10
 -1      1947-9.67526E-08-3.62903E-07-2.89653E-08
 -1      1948-9.66127E-08-3.71715E-07-2.97589E-08
 -1      1949-1.40419E-08-7.58347E-08-7.06952E-09
 -1      1950 4.47101E-09-3.68370E-07 2.25834E-09
 -1      1951 9.68107E-09-6.72712E-08 6.30893E-09
 -1      1952 7.97263E-08-4.41554E-07 3.17317E-08
 -1      1953-5.83760E-08-2.32147E-07-1.35351E-08
 -1      1954-5.88803E-08-2.52518E-07-1.40625E-08
 -1      1955-2.22915E-08-1.13954E-08 1.47848E-09
 -1      1956 2.77262E-08-4.53459E-07 1.06283E-08
 -1      1957 3.38569E-08-4.52320E-07 1.39213E-08
 -1      1958-2.90738E-08-4.50323E-07-1.13021E-08
 -1      1959-2.32330E-08-4.51655E-07-8.16982E-09
 -1      1960 7.05355E-10-5.55575E-09-3.81118E-10
 -1      1961-4.57778E-08-3.27099E-07-1.39823E-08
 -1      1962-4.15815E-08-3.36556E-07-1.32841E-08
 -1      1963 5.88093E-08-2.50607E-07 1.48208E-08
 -1      1964-2.36706E-08-3.61314E-07-8.40394E-09
 -1      1965 5.70033E-08-2.09047E-07 1.36220E-08
 -1      1966 6.00675E-09-6.15580E-09-2.10040E-09
 -1      1967 4.64434E-09-5.78012E-09-1.67008E-09
 -1      1968-9.75317E-08-4.02154E-07-3.28674E-08
 -1      1969-9.81164E-08-4.08252E-07-3.35939E-08
 -1      1970-7.12393E-08-4.44233E-07-2.81746E-08
 -1      1971 9.85169E-08-4.09229E-07 3.49113E-08
 -1      1972 5.03664E-08-4.69523E-08 3.42606E-09
 -1      1973 4.68591E-08-4.18640E-08 2.79952E-09
 -1      1974-5.42774E-08-5.25220E-08-3.47987E-09
 -1      1975-5.80352E-08-5.92512E-08-4.18555E-09
 -1      1976-8.39898E-08-4.36830E-07-3.17789E-08
 -1      1977 5.40541E-08-5.29209E-08 4.09534E-09
 -1      1978 5.79203E-08-5.96631E-08 4.77053E-09
 -1      1979-9.70062E-08-3.21415E-07-2.50472E-08
 -1      1980-6.22686E-08-4.47205E-07-2.52303E-08
 -1      1981-4.68614E-08-4.48040E-07-1.93903E-08
 -1      1982-4.08929E-08-4.48443E-07-1.68711E-08
 -1      1983 3.99087E-08-4.51275E-07 1.69056E-08
 -1      1984 4.60132E-08-4.50642E-07 1.96213E-08
 -1      1985 9.74932E-08-4.02863E-07 3.40484E-08
 -1      1986-1.45851E-09-5.39908E-09 7.03615E-10
 -1      1987-4.72636E-08-4.15865E-08-2.29517E-09
 -1      1988 2.13093E-08-4.54095E-07 7.47541E-09
 -1      1989 3.31942E-08-1.74300E-08-3.99485E-12
 -1      1990-5.06465E-08-4.66490E-08-2.84083E-09
 -1      1991-1.98101E-09-5.30162E-09 9.09564E-10
 -1      1992-2.69393E-09-5.27800E-09 1.10731E-09
 -1      1993-6.93471E-10-5.27936E-08-3.58288E-09
 -1      1994 4.91574E-10-5.00676E-08-2.77771E-09
 -1      1995 9.61351E-08-4.21267E-07 3.52921E-08
 -1      1996-9.66932E-08-3.53536E-07-2.80459E-08
 -1      1997-5.26680E-08-4.47999E-07-2.16982E-08
 -1      1998-9.66256E-08-3.43593E-07-2.70654E-08
 -1      1999 9.70034E-08-3.42518E-07 2.81839E-08
 -1      2000 9.71045E-08-3.31871E-07 2.71663E-08
 -1      2001-2.56607E-08-9.77510E-08-8.71099E-09
 -1      2002-1.30689E-08-3.66974E-07-4.51918E-09
 -1      2003-1.85153E-08-3.64614E-07-6.55235E-09
 -1      2004 3.17621E-08-3.50831E-07 1.17238E-08
 -1      2005 3.63260E-08-3.43797E-07 1.28678E-08
 -1      2006 5.80235E-10-4.73115E-08-9.28388E-10
 -1      2007 4.80036E-11-4.69448E-08 3.52513E-11
 -1      2008-1.47483E-09-3.68871E-07-2.96069E-11
 -1      2009 1.05563E-09-5.45236E-09-5.53320E-10
 -1      2010 1.45207E-09-5.32212E-09-7.11928E-10
 -1      2011-3.95714E-08-2.95801E-08-9.22110E-10
 -1      2012-8.22164E-08-1.39594E-07-1.10953E-08
 -1      2013 3.27189E-08-1.11445E-07 9.84762E-09
 -1      2014 8.51302E-08-1.56375E-07 1.32142E-08
 -1      2015 9.18555E-08-1.92992E-07 1.60268E-08
 -1      2016 9.49431E-08-2.11069E-07 1.74368E-08
 -1      2017 4.49048E-08-3.25533E-07 1.45613E-08
 -1      2018 4.06158E-08-3.35316E-07 1.37432E-08
 -1      2019 4.87236E-08-3.14212E-07 1.49471E-08
 -1      2020 7.63877E-08-1.09850E-07 9.49823E-09
 -1      2021 7.25337E-08-9.71083E-08 8.42262E-09
 -1      2022 5.23892E-08-3.01282E-07 1.53080E-08
 -1      2023-1.96063E-10-5.67835E-09 1.27333E-10
 -1      2024 1.14674E-11-5.71486E-09-1.81203E-11
 -1      2025 1.61303E-08-3.64398E-07 6.64453E-09
 -1      2026-8.53196E-08-1.56422E-07-1.23533E-08
 -1      2027 5.36646E-08-1.87445E-07 1.29372E-08
 -1      2028 3.57631E-09-5.51350E-09-1.41065E-09
 -1      2029-7.61988E-08-4.43149E-07-2.97396E-08
 -1      2030-9.52366E-08-2.11005E-07-1.64076E-08
 -1      2031 2.68536E-08-3.56487E-07 1.02963E-08
 -1      2032 2.16356E-08-3.61029E-07 8.57349E-09
 -1      2033-3.74760E-08-3.44608E-07-1.24158E-08
 -1      2034-3.70711E-09-4.53969E-07 9.85265E-10
 -1      2035 6.69403E-08-4.49920E-07 2.79127E-08
 -1      2036 9.61829E-08-2.29291E-07 1.88258E-08
 -1      2037 9.67787E-08-3.95730E-07 3.31767E-08
 -1      2038 4.40208E-08-3.74045E-08 2.24546E-09
 -1      2039 8.03086E-10-4.83749E-08-1.88184E-09
 -1      2040-6.87202E-08-8.55601E-08-6.73058E-09
 -1      2041 8.86412E-08-1.74361E-07 1.45690E-08
 -1      2042 9.71036E-08-3.52539E-07 2.91923E-08
 -1      2043 9.71356E-08-3.62233E-07 3.01024E-08
 -1      2044 9.53812E-08-2.63587E-07 2.11085E-08
 -1      2045 2.03185E-09-5.27131E-09-8.93103E-10
 -1      2046 2.66475E-09-5.30044E-09-1.10608E-09
 -1      2047-6.79475E-10-4.82108E-08 1.93635E-09
 -1      2048-5.88915E-08-2.71404E-07-1.45989E-08
 -1      2049-1.04134E-09-5.50220E-09 5.01014E-10
 -1      2050-4.36453E-10-5.61032E-09 2.67861E-10
 -1      2051-6.15423E-08-6.70026E-08-4.94498E-09
 -1      2052 3.72185E-08-2.64237E-08 8.95798E-10
 -1      2053 2.48861E-08-1.32425E-08-1.02648E-09
 -1      2054-3.54099E-09-5.41917E-09 1.39865E-09
 -1      2055-7.34603E-09-3.68389E-07-2.32140E-09
 -1      2056 7.59069E-09-6.71500E-09-2.34018E-09
 -1      2057 4.57679E-08-1.46232E-07 1.14939E-08
 -1      2058 4.00168E-08-1.27876E-07 1.06329E-08
 -1      2059 9.77092E-08-3.07695E-07 2.51172E-08
 -1      2060 8.23107E-08-1.39710E-07 1.19385E-08
 -1      2061 7.95790E-08-1.24277E-07 1.07225E-08
 -1      2062 4.99789E-08-1.66329E-07 1.22294E-08
 -1      2063-5.34455E-08-3.03167E-07-1.46837E-08
 -1      2064-4.93751E-08-3.16107E-07-1.44052E-08
 -1      2065-4.18221E-08-3.31698E-08-1.32385E-09
 -1      2066-6.50186E-08-7.57422E-08-5.77814E-09
 -1      2067 2.57438E-08-9.71336E-08 9.09513E-09
 -1      2068 1.05711E-08-7.77356E-09-2.39616E-09
 -1      2069-3.09350E-08-1.66669E-08 4.78744E-10
 -1      2070-2.48755E-08-1.46905E-08 1.01405E-09
 -1      2071-4.44068E-08-3.70974E-08-1.77391E-09
 -1      2072 9.75776E-08-3.20428E-07 2.62724E-08
 -1      2073-5.72460E-08-2.10807E-07-1.30074E-08
 -1      2074 2.98220E-09-5.61481E-08 4.66746E-09
 -1      2075 8.73013E-10-5.25185E-08 3.73315E-09
 -1      2076-9.04388E-08-4.29005E-07-3.31461E-08
 -1      2077-9.56718E-08-2.64318E-07-2.00896E-08
 -1      2078-3.49579E-08-4.49237E-07-1.41574E-08
 -1      2079 9.56913E-08-2.46684E-07 1.99562E-08
 -1      2080 3.93401E-08-2.98232E-08 1.30098E-09
 -1      2081 9.68057E-08-2.93984E-07 2.38083E-08
 -1      2082-5.47160E-08-1.89320E-07-1.22772E-08
 -1      2083-5.04901E-08-1.67588E-07-1.16632E-08
 -1      2084-1.73418E-08-4.52892E-07-5.00090E-09
 -1      2085-5.60518E-09-6.12741E-08-5.31932E-09
 -1      2086 5.19392E-08-4.50433E-07 2.21650E-08
 -1      2087-3.30600E-08-1.98229E-08 1.44052E-10
 -1      2088-3.55132E-10-4.99459E-08 2.90492E-09
 -1      2089 3.38075E-08-2.02076E-08 2.02316E-10
 -1      2090 1.92110E-10-5.68417E-09-1.08267E-10
 -1      2091-7.27069E-08-9.67865E-08-7.66847E-09
 -1      2092-9.62911E-08-2.80222E-07-2.13892E-08
 -1      2093-3.23160E-08-1.12138E-07-9.45847E-09
 -1      2094-7.67113E-08-1.09804E-07-8.79602E-09
 -1      2095-1.17725E-08-8.55051E-09 2.22677E-09
 -1      2096-9.19558E-08-4.24132E-07-3.31912E-08
 -1      2097 4.26023E-10-5.62658E-09-2.33500E-10
 -1      2098 8.70810E-08-4.34547E-07 3.35949E-08
 -1      2099-4.64325E-10-4.72582E-08 9.81204E-10
 -1      2100-1.60560E-08-9.44463E-09 2.19144E-09
 -1      2101-9.66766E-08-3.32957E-07-2.60350E-08
 -1      2102-6.15990E-09-6.28421E-09 2.05273E-09
 -1      2103-8.06761E-09-7.12618E-09 2.25090E-09
 -1      2104-9.48936E-09-6.77168E-08-6.14034E-09
 -1      2105-2.80707E-09-5.64896E-08-4.41293E-09
 -1      2106 4.15635E-08-3.34897E-08 1.76735E-09
 -1      2107 9.68717E-08-3.71383E-07 3.09259E-08
 -1      2108 9.14416E-08-4.31249E-07 3.47037E-08
 -1      2109-4.64663E-09-5.74859E-09 1.68762E-09
 -1      2110-1.12226E-08-4.53766E-07-1.61363E-09
 -1      2111 6.16551E-08-6.74430E-08 5.64444E-09
 -1      2112-7.94181E-08-4.39086E-07-3.04913E-08
 -1      2113 3.53340E-08-2.32480E-08 4.86884E-10
 -1      2114 5.86802E-08-2.30101E-07 1.43868E-08
 -1      2115-5.70480E-08-2.88360E-07-1.49102E-08
 -1      2116-9.50962E-08-4.19597E-07-3.37487E-08
 -1      2117 2.04714E-08-1.01481E-08-1.59680E-09
 -1      2118 6.17642E-08-4.49625E-07 2.60019E-08
 -1      2119-1.95971E-08-8.57451E-08-7.77545E-09
 -1      2120 7.63140E-08-4.45692E-07 3.08738E-08
 -1      2121 3.03769E-08-1.49603E-08-4.11837E-10
 -1      2122-8.63046E-08-4.32173E-07-3.21229E-08
 -1      2123-9.41655E-08-4.13484E-07-3.29216E-08
 -1      2124 5.91355E-09-6.09521E-08 5.52375E-09
 -1      2125 8.45510E-08-4.39286E-07 3.31519E-08
 -1      2126 9.49750E-08-4.14833E-07 3.43842E-08
 -1      2127 5.70590E-08-4.51801E-07 2.42923E-08
 -1      2128 6.38213E-08-1.75426E-07 1.32422E-08
 -1      2129 7.75319E-08-1.84406E-07 1.45239E-08
 -1      2130 7.39698E-08-1.64817E-07 1.32122E-08
 -1      2131 5.49756E-08-1.33901E-07 1.10914E-08
 -1      2132 5.40143E-08-3.26499E-07 1.70406E-08
 -1      2133 4.86716E-08-3.37182E-07 1.62116E-08
 -1      2134-8.79962E-08-3.68452E-07-2.73250E-08
 -1      2135-8.80771E-08-3.76884E-07-2.80763E-08
 -1      2136-7.74132E-10-8.98034E-09 2.70380E-10
 -1      2137-4.07356E-10-9.09676E-09 1.86508E-10
 -1      2138 8.71672E-09-4.44011E-07 4.01876E-09
 -1      2139 1.65731E-08-4.44197E-07 6.49324E-09
 -1      2140-2.14816E-08-7.46985E-08-6.67974E-09
 -1      2141-2.87007E-08-8.53695E-08-7.50464E-09
 -1      2142-6.73136E-08-1.14574E-07-9.18097E-09
 -1      2143 8.66655E-08-3.38003E-07 2.54403E-08
 -1      2144 3.32862E-08-3.61326E-07 1.26924E-08
 -1      2145 3.84943E-08-3.54752E-07 1.40881E-08
 -1      2146 2.55601E-09-8.82062E-09-6.71033E-10
 -1      2147 3.46890E-09-8.80999E-09-8.74180E-10
 -1      2148 7.71538E-10-9.02702E-09-2.61441E-10
 -1      2149 1.20928E-09-8.97258E-09-3.89798E-10
 -1      2150-6.46114E-09-5.37005E-08-4.11972E-09
 -1      2151-3.44643E-09-4.96502E-08-3.42693E-09
 -1      2152 8.74135E-08-3.48356E-07 2.65475E-08
 -1      2153 3.03757E-08-4.43081E-07 1.23607E-08
 -1      2154-6.43521E-08-1.00765E-07-8.17724E-09
 -1      2155-8.93695E-08-3.99576E-07-3.03417E-08
 -1      2156-9.06232E-08-4.06534E-07-3.12826E-08
 -1      2157 7.11832E-08-2.20182E-07 1.54477E-08
 -1      2158 6.74237E-08-1.97100E-07 1.42616E-08
 -1      2159-8.21163E-08-2.17401E-07-1.56037E-08
 -1      2160-6.94904E-08-2.00338E-07-1.37109E-08
 -1      2161-8.32090E-08-2.01038E-07-1.48744E-08
 -1      2162-8.26246E-08-2.36530E-07-1.66033E-08
 -1      2163 1.28140E-08-1.11371E-08-1.72145E-09
 -1      2164-3.62039E-08-9.86425E-08-8.49015E-09
 -1      2165-4.42473E-08-1.15118E-07-9.39049E-09
 -1      2166-1.24284E-09-8.97354E-09 3.96112E-10
 -1      2167 7.82275E-10-4.43789E-07 1.55212E-09
 -1      2168 4.67355E-09-9.11112E-09-1.05133E-09
 -1      2169 5.50217E-08-7.01938E-08 6.04108E-09
 -1      2170 5.20097E-08-6.20987E-08 5.23245E-09
 -1      2171 6.74571E-09-5.32047E-08 4.28614E-09
 -1      2172 1.07807E-08-5.85411E-08 5.14730E-09
 -1      2173 8.37088E-08-2.88052E-07 2.09879E-08
 -1      2174 8.23537E-08-2.72450E-07 1.96827E-08
 -1      2175 4.28765E-10-9.13602E-09-1.28858E-10
 -1      2176 1.44337E-10-9.18815E-09-4.52586E-11
 -1      2177 8.27084E-08-2.54654E-07 1.86511E-08
 -1      2178 8.30040E-08-2.36308E-07 1.76821E-08
 -1      2179-1.15247E-10-9.16696E-09 5.21871E-11
 -1      2180-5.45486E-08-3.28765E-07-1.63808E-08
 -1      2181-3.89662E-08-3.81375E-08-2.00386E-09
 -1      2182 1.51449E-08-3.73160E-07 6.50343E-09
 -1      2183 2.15264E-08-3.70389E-07 8.84089E-09
 -1      2184-2.35664E-08-3.70478E-07-8.61326E-09
 -1      2185-2.91737E-08-3.66639E-07-1.05468E-08
 -1      2186-1.01508E-08-1.05917E-08 1.63824E-09
 -1      2187-8.13428E-09-1.03402E-08 1.39653E-09
 -1      2188 3.68539E-09-4.93929E-08 3.56196E-09
 -1      2189-8.83135E-08-3.84894E-07-2.88328E-08
 -1      2190 2.92954E-08-2.08213E-08 2.81793E-11
 -1      2191 3.09686E-08-2.39950E-08 4.77019E-10
 -1      2192-8.71502E-08-3.49737E-07-2.55016E-08
 -1      2193-8.78073E-08-3.59416E-07-2.65129E-08
 -1      2194 4.94984E-08-4.40835E-07 2.06834E-08
 -1      2195 4.29978E-08-4.41166E-07 1.80344E-08
 -1      2196 8.07076E-08-2.03844E-07 1.57555E-08
 -1      2197 6.18939E-09-9.59215E-09-1.19540E-09
 -1      2198 8.01484E-09-1.01313E-08-1.37476E-09
 -1      2199-1.26570E-09-4.68347E-08-2.62271E-09
 -1      2200-7.43681E-08-1.65025E-07-1.24548E-08
 -1      2201-7.83567E-08-1.84346E-07-1.36583E-08
 -1      2202-6.46368E-08-1.76893E-07-1.25911E-08
 -1      2203 1.43192E-09-4.65736E-08 2.73708E-09
 -1      2204-8.61623E-08-3.28456E-07-2.34873E-08
 -1      2205-8.63247E-08-3.39513E-07-2.44175E-08
 -1      2206 2.20187E-10-4.31677E-08-3.72489E-10
 -1      2207-1.38146E-08-4.43569E-07-3.78085E-09
 -1      2208-2.01071E-08-4.42890E-07-6.79821E-09
 -1      2209-6.86691E-09-4.43777E-07-9.73872E-10
 -1      2210 4.35354E-08-3.46659E-07 1.52708E-08
 -1      2211 8.80339E-08-3.58230E-07 2.75563E-08
 -1      2212-1.04473E-08-5.89348E-08-4.95906E-09
 -1      2213-2.60894E-08-4.41810E-07-9.80354E-09
 -1      2214 1.15852E-10-4.48362E-08 2.01028E-09
 -1      2215 7.04591E-08-2.63091E-07 1.71698E-08
 -1      2216 6.96212E-08-2.82773E-07 1.80030E-08
 -1      2217 3.64142E-08-3.44947E-08 1.91447E-09
 -1      2218 3.83990E-08-3.85182E-08 2.44550E-09
 -1      2219 2.88013E-08-8.51893E-08 7.90042E-09
 -1      2220 2.17287E-08-7.44606E-08 7.04839E-09
 -1      2221-7.07518E-08-2.64436E-07-1.62852E-08
 -1      2222-8.46890E-08-2.88511E-07-2.00986E-08
 -1      2223-7.01842E-08-2.83865E-07-1.71495E-08
 -1      2224-8.28538E-08-2.73326E-07-1.88239E-08
 -1      2225 7.07442E-08-2.42599E-07 1.63495E-08
 -1      2226-2.35076E-10-4.36523E-08 1.21072E-09
 -1      2227-5.89388E-08-3.16523E-07-1.67153E-08
 -1      2228-8.87322E-08-3.92416E-07-2.95700E-08
 -1      2229-5.47714E-08-1.33633E-07-1.03823E-08
 -1      2230-6.00035E-08-1.55074E-07-1.15233E-08
 -1      2231-7.06797E-08-2.44500E-07-1.54503E-08
 -1      2232-8.28337E-08-2.55432E-07-1.77464E-08
 -1      2233 3.58574E-08-9.81179E-08 8.82590E-09
 -1      2234 4.55209E-08-1.13827E-07 9.92371E-09
 -1      2235 1.56051E-08-6.55535E-08 6.09821E-09
 -1      2236-1.81598E-09-8.93620E-09 5.34154E-10
 -1      2237 6.71246E-08-1.15124E-07 1.00003E-08
 -1      2238 2.37181E-08-4.43870E-07 9.35046E-09
 -1      2239 8.77241E-08-3.92745E-07 3.03702E-08
 -1      2240 8.88046E-08-4.00198E-07 3.12984E-08
 -1      2241-6.01030E-08-8.89022E-08-7.15668E-09
 -1      2242-4.20936E-08-4.27793E-08-2.49686E-09
 -1      2243 4.87971E-08-5.50134E-08 4.38115E-09
 -1      2244 5.97496E-08-1.54487E-07 1.22342E-08
 -1      2245 7.02088E-08-1.45977E-07 1.20373E-08
 -1      2246 8.56149E-09-3.75078E-07 3.97126E-09
 -1      2247-7.00945E-08-2.23397E-07-1.45982E-08
 -1      2248-3.11871E-08-2.37661E-08-1.85412E-10
 -1      2249-3.28535E-08-2.69505E-08-6.10387E-10
 -1      2250-6.50085E-08-3.02077E-07-1.71383E-08
 -1      2251-4.54732E-08-4.81084E-08-3.12153E-09
 -1      2252 8.47739E-08-2.20219E-07 1.69788E-08
 -1      2253-2.53808E-08-1.76112E-08 6.44531E-10
 -1      2254-3.95034E-08-3.55296E-07-1.35819E-08
 -1      2255-3.44178E-08-3.61641E-07-1.22333E-08
 -1      2256-6.78803E-08-1.29261E-07-1.02243E-08
 -1      2257-3.21476E-08-4.40707E-07-1.26518E-08
 -1      2258-3.81899E-08-4.39859E-07-1.52883E-08
 -1      2259-4.43978E-08-3.47829E-07-1.47390E-08
 -1      2260 9.08189E-08-4.07520E-07 3.25019E-08
 -1      2261-3.45779E-08-3.03639E-08-1.03136E-09
 -1      2262-3.65142E-08-3.40483E-08-1.50003E-09
 -1      2263-2.98609E-08-2.09651E-08 1.50233E-10
 -1      2264-5.04596E-08-4.39523E-07-2.03303E-08
 -1      2265-4.42349E-08-4.39525E-07-1.78167E-08
 -1      2266 3.66354E-08-4.42043E-07 1.52415E-08
 -1      2267 2.76299E-08-3.66446E-07 1.09121E-08
 -1      2268-4.94296E-08-3.38965E-07-1.56527E-08
 -1      2269-2.57629E-09-8.92354E-09 6.73585E-10
 -1      2270-1.52922E-08-6.58474E-08-5.74632E-09
 -1      2271 4.14660E-08-4.31467E-08 2.99866E-09
 -1      2272-8.65005E-08-3.02946E-07-2.14868E-08
 -1      2273-4.57392E-09-8.90538E-09 1.10812E-09
 -1      2274-6.06644E-09-9.52701E-09 1.31934E-09
 -1      2275 3.47487E-08-3.07684E-08 1.41537E-09
 -1      2276 3.28679E-08-2.72679E-08 9.37615E-10
 -1      2277-1.36543E-08-1.19478E-08 1.61379E-09
 -1      2278 6.37797E-08-1.01491E-07 8.88572E-09
 -1      2279 6.04188E-08-8.96057E-08 7.87407E-09
 -1      2280-1.34747E-10-4.30922E-08 4.43355E-10
 -1      2281 1.78274E-09-8.85398E-09-5.16990E-10
 -1      2282-5.18253E-08-6.13432E-08-4.50522E-09
 -1      2283-4.88685E-08-5.43337E-08-3.85134E-09
 -1      2284 1.85402E-09-3.76127E-07 1.29929E-09
 -1      2285-4.71860E-09-3.76188E-07-1.29172E-09
 -1      2286 8.75184E-08-3.84930E-07 2.97072E-08
 -1      2287-8.63825E-08-3.16219E-07-2.25247E-08
 -1      2288 1.00894E-08-1.05135E-08-1.59698E-09
 -1      2289 6.32425E-08-2.99370E-07 1.76017E-08
 -1      2290-7.01302E-08-1.45945E-07-1.12843E-08
 -1      2291-5.44395E-08-6.93964E-08-5.34922E-09
 -1      2292 8.79355E-08-3.76585E-07 2.91055E-08
 -1      2293 6.86734E-08-1.30103E-07 1.09518E-08
 -1      2294 3.67769E-10-4.37888E-08-1.16641E-09
 -1      2295-1.67934E-13-4.49662E-08-1.91793E-09
 -1      2296-5.69449E-08-7.83648E-08-6.19959E-09
 -1      2297-1.75380E-08-3.73217E-07-6.35397E-09
 -1      2298-1.12009E-08-3.75210E-07-3.88884E-09
 -1      2299 5.76443E-08-7.93575E-08 6.91956E-09
 -1      2300 8.73789E-08-3.15292E-07 2.37652E-08
 -1      2301 4.52494E-08-4.87124E-08 3.67586E-09
 -1      2302 5.86077E-08-3.14300E-07 1.73943E-08
 -1      2303 8.66188E-08-3.02040E-07 2.25398E-08
 -1      2304 8.66075E-08-3.27041E-07 2.45488E-08
 -1      2305 8.82713E-08-3.67686E-07 2.84240E-08
 -1      2306-3.50066E-09-8.87163E-09 8.70790E-10
 -1      2307-6.75854E-09-1.27972E-08 8.31694E-10
 -1      2308-9.62076E-09-1.49474E-08 6.57075E-10
 -1      2309 1.70813E-08-1.18739E-08-1.63345E-09
 -1      2310-2.51965E-08-2.05559E-08 2.98162E-10
 -1      2311-1.63615E-08-4.33884E-07-5.45142E-09
 -1      2312 7.71852E-08-3.44388E-07 2.38235E-08
 -1      2313-4.65995E-08-3.59034E-07-1.59307E-08
 -1      2314-7.95722E-08-3.73751E-07-2.55998E-08
 -1      2315 1.14678E-08-5.05545E-08 4.03197E-09
 -1      2316 1.63852E-08-5.65530E-08 4.88180E-09
 -1      2317-7.58030E-08-3.35454E-07-2.17636E-08
 -1      2318-7.70587E-08-3.46441E-07-2.29275E-08
 -1      2319 1.36351E-08-3.82002E-07 6.02501E-09
 -1      2320 6.12570E-09-3.83559E-07 3.07458E-09
 -1      2321 1.18015E-08-4.34530E-07 5.24328E-09
 -1      2322 4.28594E-08-5.73642E-08 4.77986E-09
 -1      2323 5.78537E-08-1.19944E-07 1.02873E-08
 -1      2324-4.74117E-08-4.30802E-07-1.87328E-08
 -1      2325-5.37053E-08-4.31263E-07-2.10955E-08
 -1      2326 4.04069E-09-4.29378E-08 2.56591E-09
 -1      2327 1.66726E-09-4.08867E-08 1.94287E-09
 -1      2328 3.93546E-08-4.31829E-07 1.62885E-08
 -1      2329 2.84704E-08-2.80063E-08 1.01857E-09
 -1      2330 9.49995E-09-1.43782E-08-7.36085E-10
 -1      2331 1.18344E-08-1.46113E-08-8.83510E-10
 -1      2332 7.84571E-08-3.10180E-07 2.14965E-08
 -1      2333 7.63450E-08-3.21922E-07 2.18598E-08
 -1      2334-5.43897E-09-1.30130E-08 6.29728E-10
 -1      2335-1.94088E-09-1.28638E-08 3.05923E-10
 -1      2336-2.86222E-09-1.28971E-08 4.02886E-10
 -1      2337-6.51203E-08-3.30134E-07-1.89303E-08
 -1      2338-6.78959E-08-3.16893E-07-1.87198E-08
 -1      2339-4.30281E-08-5.61665E-08-4.13681E-09
 -1      2340 2.79759E-08-3.76479E-07 1.13096E-08
 -1      2341 4.59992E-08-4.30837E-07 1.89456E-08
 -1      2342-2.94880E-08-3.76650E-07-1.08926E-08
 -1      2343-3.54819E-08-3.72159E-07-1.29056E-08
 -1      2344-5.17767E-08-9.27112E-08-7.74607E-09
 -1      2345-2.65563E-08-2.40018E-08-2.21305E-10
 -1      2346 2.26300E-08-6.46250E-08 5.87604E-09
 -1      2347 5.51061E-08-1.06765E-07 9.32864E-09
 -1      2348 4.51650E-08-9.90053E-08 8.84897E-09
 -1      2349 2.78701E-08-1.74446E-08-4.01108E-10
 -1      2350 2.60664E-08-4.33986E-07 1.07213E-08
 -1      2351 3.26908E-08-4.32966E-07 1.35417E-08
 -1      2352-1.59160E-09-4.11494E-08-1.88836E-09
 -1      2353-2.77493E-09-4.33623E-07-2.12302E-11
 -1      2354 4.38768E-09-4.34063E-07 2.61047E-09
 -1      2355-1.34691E-09-3.84487E-07 7.32462E-11
 -1      2356-8.56472E-09-3.83964E-07-2.84111E-09
 -1      2357 1.44273E-11-1.32142E-08 1.43929E-11
 -1      2358-3.03591E-10-1.30800E-08 6.02271E-11
 -1      2359 2.09272E-08-3.79850E-07 8.80127E-09
 -1      2360-3.52167E-08-4.31020E-07-1.37973E-08
 -1      2361 5.75631E-08-3.38383E-07 1.86770E-08
 -1      2362 5.14377E-08-3.48743E-07 1.76384E-08
 -1      2363 2.82479E-09-1.27378E-08-3.76777E-10
 -1      2364 1.92048E-09-1.28166E-08-2.85170E-10
 -1      2365 7.86872E-08-3.54465E-07 2.49625E-08
 -1      2366 7.97329E-08-3.73102E-07 2.66304E-08
 -1      2367-7.61940E-08-3.10052E-07-1.99436E-08
 -1      2368-7.59847E-08-3.23579E-07-2.09200E-08
 -1      2369-2.76973E-08-2.74708E-08-6.89838E-10
 -1      2370 6.85601E-08-3.12766E-07 1.95513E-08
 -1      2371 1.46073E-08-1.46625E-08-9.79437E-10
 -1      2372-1.87060E-08-1.33488E-08 1.46967E-09
 -1      2373-2.89100E-08-4.32091E-07-1.11027E-08
 -1      2374 7.59306E-08-3.33357E-07 2.26771E-08
 -1      2375-3.94272E-09-4.32585E-08-2.43689E-09
 -1      2376 4.76564E-08-7.30153E-08 6.40497E-09
 -1      2377 6.49980E-08-3.27310E-07 1.97500E-08
 -1      2378-7.95229E-08-3.65257E-07-2.49556E-08
 -1      2379 3.66692E-08-4.49964E-08 3.25536E-09
 -1      2380-1.92898E-08-1.66539E-08 9.00802E-10
 -1      2381-4.11350E-08-3.66235E-07-1.45699E-08
 -1      2382-4.05948E-08-5.01213E-08-3.47045E-09
 -1      2383-3.73157E-08-4.44503E-08-2.81574E-09
 -1      2384-5.80256E-08-3.41014E-07-1.80896E-08
 -1      2385-2.26901E-08-4.33205E-07-8.31057E-09
 -1      2386-8.01332E-08-3.89776E-07-2.69841E-08
 -1      2387-7.99083E-08-3.81937E-07-2.63468E-08
 -1      2388-4.50124E-08-6.33063E-08-4.92512E-09
 -1      2389 8.20280E-08-4.05225E-07 2.97023E-08
 -1      2390-7.04812E-09-4.64350E-08-3.03118E-09
 -1      2391-1.22663E-09-1.27751E-08 2.17452E-10
 -1      2392-7.04300E-10-1.28415E-08 1.51416E-10
 -1      2393 7.93923E-08-3.97742E-07 2.83957E-08
 -1      2394-1.10265E-08-5.09969E-08-3.81670E-09
 -1      2395-5.59450E-08-1.16900E-07-9.39623E-09
 -1      2396-4.07315E-09-1.29917E-08 5.42029E-10
 -1      2397-1.59357E-08-5.69414E-08-4.64367E-09
 -1      2398-1.18023E-08-1.44886E-08 9.69307E-10
 -1      2399 3.88720E-11-3.86856E-08 5.97722E-10
 -1      2400 1.98148E-11-3.84529E-08 3.26957E-11
 -1      2401-3.26687E-10-3.98770E-08-1.26672E-09
 -1      2402 2.49674E-08-2.13173E-08 4.97953E-12
 -1      2403 2.65943E-08-2.45845E-08 5.38970E-10
 -1      2404-2.88012E-08-3.11273E-08-1.18931E-09
 -1      2405 4.03353E-08-5.09614E-08 3.99731E-09
 -1      2406 3.33709E-10-1.30763E-08-6.96585E-11
 -1      2407 1.91695E-08-4.34566E-07 7.93084E-09
 -1      2408-9.70789E-09-4.33834E-07-2.65320E-09
 -1      2409 5.65951E-08-4.41758E-07 2.35071E-08
 -1      2410 3.97766E-09-1.27919E-08-5.22974E-10
 -1      2411-1.41736E-08-1.42946E-08 1.16978E-09
 -1      2412-8.20357E-08-4.04151E-07-2.86032E-08
 -1      2413-8.06074E-08-3.97065E-07-2.76599E-08
 -1      2414-1.59232E-08-3.81950E-07-5.79322E-09
 -1      2415-2.28725E-08-3.79821E-07-8.48925E-09
 -1      2416 7.98044E-08-3.63980E-07 2.59936E-08
 -1      2417-3.06972E-08-3.51283E-08-1.67228E-09
 -1      2418-3.36310E-08-3.96174E-08-2.31152E-09
 -1      2419-5.70416E-08-1.05111E-07-8.60806E-09
 -1      2420-4.64860E-08-1.01234E-07-8.42395E-09
 -1      2421 9.99738E-11-3.90151E-08-6.32236E-10
 -1      2422 2.20888E-08-1.52373E-08-9.02568E-10
 -1      2423 3.01838E-08-3.53789E-08 2.08128E-09
 -1      2424 3.24258E-08-3.97676E-08 2.64677E-09
 -1      2425-3.93766E-08-8.57677E-08-7.28176E-09
 -1      2426-2.96006E-08-7.41157E-08-6.36043E-09
 -1      2427 7.44273E-08-2.98624E-07 1.98375E-08
 -1      2428 7.83835E-08-3.89953E-07 2.75610E-08
 -1      2429 7.88764E-08-3.81779E-07 2.70805E-08
 -1      2430-4.62061E-08-7.13301E-08-5.74539E-09
 -1      2431 7.19918E-09-4.61406E-08 3.22951E-09
 -1      2432-4.80831E-08-8.14581E-08-6.78112E-09
 -1      2433-2.20808E-08-6.46208E-08-5.47828E-09
 -1      2434-4.14322E-08-4.30379E-07-1.63174E-08
 -1      2435 1.23360E-09-1.28068E-08-1.86860E-10
 -1      2436 4.87218E-08-8.23143E-08 7.35397E-09
 -1      2437 5.16261E-08-9.33838E-08 8.38251E-09
 -1      2438 7.22568E-09-1.36119E-08-7.06494E-10
 -1      2439 3.93056E-08-8.56475E-08 7.75439E-09
 -1      2440 3.00616E-08-7.40849E-08 6.80045E-09
 -1      2441-7.59604E-08-2.97386E-07-1.90590E-08
 -1      2442 5.38811E-09-1.29468E-08-6.08786E-10
 -1      2443 4.05995E-08-3.65938E-07 1.52467E-08
 -1      2444-7.87434E-08-3.56016E-07-2.40503E-08
 -1      2445 7.20253E-10-1.28553E-08-1.24918E-10
 -1      2446-5.72981E-08-4.40224E-07-2.29335E-08
 -1      2447 4.56408E-08-6.45496E-08 5.56065E-09
 -1      2448 2.96651E-08-3.16264E-08 1.54589E-09
 -1      2449 3.46223E-08-3.71951E-07 1.35200E-08
 -1      2450 5.26828E-08-4.31024E-07 2.14937E-08
 -1      2451 3.98397E-10-3.96928E-08 1.28677E-09
 -1      2452-5.21314E-08-3.50614E-07-1.70345E-08
 -1      2453 2.35118E-08-1.82140E-08-4.84839E-10
 -1      2454 4.60219E-08-3.58163E-07 1.65898E-08
 -1      2455-1.36152E-08-1.87823E-08 2.85258E-10
 -1      2456-1.62283E-08-1.76466E-08 6.35791E-10
 -1      2457-1.77439E-08-2.11562E-08 1.02066E-10
 -1      2458-7.26343E-08-4.01633E-07-2.56797E-08
 -1      2459 5.95553E-09-2.13801E-08 3.05453E-10
 -1      2460 4.22221E-09-1.69805E-08-1.11583E-10
 -1      2461 4.23271E-09-2.15734E-08 2.78132E-10
 -1      2462-6.54972E-08-4.06706E-07-2.38067E-08
 -1      2463-7.54325E-08-4.08917E-07-2.70020E-08
 -1      2464-7.01207E-08-4.14208E-07-2.57098E-08
 -1      2465-2.87180E-09-1.72007E-08 1.21162E-10
 -1      2466-1.79869E-09-1.69801E-08 8.10397E-11
 -1      2467-6.03832E-08-3.53031E-07-1.93574E-08
 -1      2468-6.72540E-08-3.43361E-07-2.04239E-08
 -1      2469-6.47684E-08-4.39263E-07-2.55528E-08
 -1      2470-1.18836E-08-3.98769E-07-4.14742E-09
 -1      2471-6.81680E-09-4.04765E-07-2.05528E-09
 -1      2472-5.06665E-09-3.93899E-07-1.40114E-09
 -1      2473 1.68549E-08-4.79082E-08 3.69741E-09
 -1      2474-4.83201E-08-3.70215E-07-1.69364E-08
 -1      2475-5.43865E-08-3.62006E-07-1.82838E-08
 -1      2476-5.59481E-08-3.72799E-07-1.92601E-08
 -1      2477-7.15630E-08-3.94272E-07-2.48841E-08
 -1      2478-7.20154E-08-3.86699E-07-2.45578E-08
 -1      2479-5.97963E-08-4.31316E-07-2.32990E-08
 -1      2480-6.59004E-08-4.31522E-07-2.54201E-08
 -1      2481-7.19352E-08-3.78571E-07-2.39947E-08
 -1      2482-7.10677E-08-3.70175E-07-2.31665E-08
 -1      2483 6.59317E-08-4.32957E-07 2.63593E-08
 -1      2484 7.22259E-08-4.38101E-07 2.89087E-08
 -1      2485 7.09880E-08-4.28749E-07 2.78432E-08
 -1      2486 8.57578E-08-4.12790E-07 3.14142E-08
 -1      2487 8.05009E-10-4.23656E-07 1.14626E-09
 -1      2488 7.22545E-08-4.03351E-07 2.66727E-08
 -1      2489-6.54763E-08-3.82921E-07-2.24711E-08
 -1      2490-2.91709E-08-6.36225E-08-5.24471E-09
 -1      2491-2.21212E-08-5.54749E-08-4.35222E-09
 -1      2492-2.90256E-08-5.46868E-08-4.20202E-09
 -1      2493-1.54398E-08-4.16866E-07-5.46364E-09
 -1      2494-9.55270E-09-4.14453E-07-3.09121E-09
 -1      2495-1.53229E-08-4.07175E-07-5.50515E-09
 -1      2496 1.42961E-09-4.03048E-07 1.27506E-09
 -1      2497-2.49773E-09-4.13353E-07-2.48006E-10
 -1      2498-8.46646E-08-4.11241E-07-2.99414E-08
 -1      2499-6.09118E-09-1.75498E-08 2.16099E-10
 -1      2500-8.15238E-09-1.72919E-08 3.23396E-10
 -1      2501 6.44156E-08-4.41161E-07 2.63802E-08
 -1      2502 7.64072E-08-4.24331E-07 2.93461E-08
 -1      2503 6.85552E-08-4.19661E-07 2.64748E-08
 -1      2504-4.49892E-08-4.20833E-07-1.74382E-08
 -1      2505-3.84530E-08-4.21227E-07-1.48961E-08
 -1      2506 1.09408E-09-1.68440E-08-5.65289E-12
 -1      2507 5.91617E-10-1.70675E-08 6.15217E-12
 -1      2508 3.04478E-08-6.37740E-08 5.66324E-09
 -1      2509 2.13187E-08-4.25085E-07 8.99604E-09
 -1      2510 2.80626E-08-4.24284E-07 1.17339E-08
 -1      2511 2.30919E-08-4.15869E-07 9.80514E-09
 -1      2512-2.92227E-08-3.86762E-07-1.09626E-08
 -1      2513-2.15679E-08-3.89104E-07-8.04464E-09
 -1      2514-1.14299E-08-2.05269E-08 2.07632E-11
 -1      2515-8.76904E-09-2.31462E-08-3.12594E-10
 -1      2516 8.87769E-08-4.19978E-07 3.29240E-08
 -1      2517 8.45099E-08-4.26717E-07 3.21300E-08
 -1      2518 1.97603E-08-3.89450E-07 8.46153E-09
 -1      2519 1.72960E-08-3.99012E-07 7.55170E-09
 -1      2520 2.71343E-08-3.96895E-07 1.13072E-08
 -1      2521-3.78702E-08-7.31260E-08-6.04968E-09
 -1      2522 1.79365E-08-1.48957E-08-1.01479E-09
 -1      2523 1.59989E-08-1.85384E-08-3.00577E-10
 -1      2524 1.30610E-08-1.91018E-08-1.36787E-10
 -1      2525 5.93800E-08-4.32096E-07 2.40229E-08
 -1      2526 7.59077E-09-1.73390E-08-2.21579E-10
 -1      2527-4.25399E-08-3.77340E-07-1.53789E-08
 -1      2528-3.62654E-08-3.82820E-07-1.34264E-08
 -1      2529-1.25018E-08-4.24712E-07-4.08612E-09
 -1      2530-5.96241E-09-4.23652E-07-1.45884E-09
 -1      2531-8.74347E-08-4.18084E-07-3.13005E-08
 -1      2532 8.94742E-10-2.57124E-08 3.18293E-10
 -1      2533 2.54072E-10-2.72033E-08 1.87128E-10
 -1      2534 5.43358E-10-3.03407E-08 4.59542E-10
 -1      2535-2.19621E-08-4.77283E-08-3.37459E-09
 -1      2536-2.78445E-08-4.71504E-08-3.30058E-09
 -1      2537 7.71578E-08-4.10829E-07 2.86433E-08
 -1      2538 8.11949E-08-4.18683E-07 3.04591E-08
 -1      2539 6.70916E-08-3.40681E-07 2.11930E-08
 -1      2540 1.96858E-10-1.76659E-08 1.09697E-11
 -1      2541 1.02036E-08-1.90331E-08-5.80814E-11
 -1      2542 1.34223E-08-2.45761E-08 6.29464E-10
 -1      2543 2.23893E-08-2.52994E-08 6.63694E-10
 -1      2544 1.70944E-08-2.26820E-08 3.22137E-10
 -1      2545 1.89594E-08-2.71000E-08 9.42771E-10
 -1      2546-7.90842E-08-4.16423E-07-2.86511E-08
 -1      2547 6.89988E-08-3.51579E-07 2.23680E-08
 -1      2548-1.14232E-08-4.35723E-08-2.83523E-09
 -1      2549-7.25593E-09-3.96561E-08-2.16499E-09
 -1      2550-1.15580E-08-3.65843E-08-1.91914E-09
 -1      2551-4.22116E-09-1.72676E-08 1.61424E-10
 -1      2552-1.75933E-09-3.55833E-08-1.19181E-09
 -1      2553-4.04663E-09-3.71610E-08-1.62983E-09
 -1      2554-8.20648E-10-2.07839E-08-8.31527E-11
 -1      2555-8.20136E-10-2.58168E-08-2.31703E-10
 -1      2556-3.55234E-10-2.24417E-08-5.25773E-11
 -1      2557 2.10185E-09-2.61323E-08 5.23624E-10
 -1      2558 3.49691E-09-3.07181E-08 1.08643E-09
 -1      2559 3.71365E-09-2.55595E-08 5.86250E-10
 -1      2560 3.65802E-08-5.97462E-08 5.12072E-09
 -1      2561 3.93726E-08-6.68818E-08 5.87507E-09
 -1      2562-5.31417E-10-3.05587E-08-4.03646E-10
 -1      2563-1.25078E-10-2.81680E-08-6.27627E-11
 -1      2564-4.42164E-08-3.88785E-07-1.62681E-08
 -1      2565-3.17838E-08-4.22472E-07-1.22372E-08
 -1      2566-1.36250E-08-3.90608E-07-4.88678E-09
 -1      2567-5.34540E-08-3.92893E-07-1.93917E-08
 -1      2568-4.57942E-08-4.00663E-07-1.71103E-08
 -1      2569-3.72982E-08-5.77449E-08-4.41690E-09
 -1      2570-3.68071E-08-6.37405E-08-5.11217E-09
 -1      2571-3.37412E-08-4.68699E-08-3.15790E-09
 -1      2572 7.23534E-08-3.69545E-07 2.44583E-08
 -1      2573 7.12194E-08-3.60791E-07 2.35735E-08
 -1      2574 3.54238E-08-3.82419E-07 1.40565E-08
 -1      2575-4.21609E-08-4.11148E-07-1.61037E-08
 -1      2576-5.06954E-08-4.12428E-07-1.92089E-08
 -1      2577 1.15521E-08-3.90677E-07 5.26067E-09
 -1      2578 4.86672E-08-3.69953E-07 1.78842E-08
 -1      2579 6.15535E-08-3.81161E-07 2.22090E-08
 -1      2580 5.70527E-08-3.71346E-07 2.04212E-08
 -1      2581 5.20264E-08-3.82445E-07 1.94498E-08
 -1      2582 9.90762E-11-3.31638E-08 2.33757E-10
 -1      2583-5.63152E-08-4.21787E-07-2.15698E-08
 -1      2584 4.18055E-08-4.21360E-07 1.71277E-08
 -1      2585 2.34462E-08-3.18396E-08 1.60606E-09
 -1      2586 5.38668E-08-3.60210E-07 1.89373E-08
 -1      2587 6.19983E-08-3.60110E-07 2.11276E-08
 -1      2588 2.78019E-08-3.86570E-07 1.14365E-08
 -1      2589-1.04205E-09-1.67605E-08 4.26959E-11
 -1      2590-1.41383E-09-2.11978E-08-1.34226E-10
 -1      2591 5.69565E-10-3.48137E-08 7.77636E-10
 -1      2592 1.72057E-09-3.53975E-08 1.23620E-09
 -1      2593 3.47375E-08-5.28983E-08 4.28063E-09
 -1      2594 1.94640E-08-1.82051E-08-4.33894E-10
 -1      2595-1.43345E-10-1.77130E-08 2.41015E-11
 -1      2596 4.00832E-09-3.66661E-08 1.71825E-09
 -1      2597 7.18980E-09-3.92945E-08 2.26040E-09
 -1      2598 3.33331E-08-4.75451E-08 3.70583E-09
 -1      2599 2.76971E-08-4.76482E-08 3.77012E-09
 -1      2600-7.18284E-08-3.62133E-07-2.28443E-08
 -1      2601 4.45582E-09-4.13997E-07 2.50992E-09
 -1      2602 3.87062E-08-7.42990E-08 6.61934E-09
 -1      2603-2.11559E-08-2.06785E-08 2.69517E-10
 -1      2604 2.86887E-09-1.70247E-08-5.39048E-11
 -1      2605 1.82967E-09-1.70166E-08-2.02131E-11
 -1      2606 2.63448E-09-2.13923E-08 2.44609E-10
 -1      2607-2.18327E-08-2.43854E-08-3.33625E-10
 -1      2608 3.09890E-09-3.92364E-07 1.88961E-09
 -1      2609 1.12336E-08-4.32733E-08 2.97126E-09
 -1      2610 1.40457E-09-3.05867E-08 7.97109E-10
 -1      2611-5.05911E-08-4.22960E-07-1.95826E-08
 -1      2612-1.90411E-08-4.24676E-07-6.84322E-09
 -1      2613-2.52605E-08-4.23563E-07-9.51878E-09
 -1      2614-5.43133E-10-3.49094E-08-7.40294E-10
 -1      2615 2.26179E-08-5.59166E-08 4.73197E-09
 -1      2616-5.48350E-10-1.71261E-08 9.57849E-12
 -1      2617-2.93404E-08-4.21532E-08-2.63637E-09
 -1      2618-2.23315E-08-4.11394E-08-2.57337E-09
 -1      2619-2.51470E-08-3.71702E-08-2.00005E-09
 -1      2620-2.28382E-08-3.23949E-08-1.37011E-09
 -1      2621 1.09592E-08-3.62265E-08 2.05840E-09
 -1      2622 1.61785E-08-3.54616E-08 2.06084E-09
 -1      2623 1.10017E-08-2.95087E-08 1.22786E-09
 -1      2624 2.29496E-08-4.92149E-08 3.89612E-09
 -1      2625-3.64784E-09-3.14658E-08-1.03171E-09
 -1      2626-2.80895E-08-3.96878E-07-1.05965E-08
 -1      2627-1.92620E-08-3.97899E-07-7.13863E-09
 -1      2628 2.43382E-08-2.87322E-08 1.16139E-09
 -1      2629-6.90798E-08-3.54183E-07-2.16129E-08
 -1      2630-6.28804E-08-3.98414E-07-2.25566E-08
 -1      2631-3.47172E-08-4.13008E-07-1.33184E-08
 -1      2632 3.48918E-08-4.22985E-07 1.44355E-08
 -1      2633 4.89492E-08-4.19954E-07 1.97257E-08
 -1      2634 1.45810E-08-4.25699E-07 6.41166E-09
 -1      2635 7.49768E-09-4.24945E-07 3.73017E-09
 -1      2636-3.67414E-08-3.93346E-07-1.37542E-08
 -1      2637-6.30139E-08-3.64357E-07-2.07143E-08
 -1      2638 1.51148E-09-2.14812E-08 1.85674E-10
 -1      2639 9.00685E-10-2.07446E-08 1.00373E-10
 -1      2640-2.76961E-08-4.14379E-07-1.05241E-08
 -1      2641 3.57685E-08-3.92761E-07 1.43791E-08
 -1      2642-2.19130E-08-2.80062E-08-8.46440E-10
 -1      2643 2.08473E-08-2.17011E-08 1.19436E-10
 -1      2644-1.52359E-09-3.01755E-08-6.71094E-10
 -1      2645 6.84373E-09-3.27585E-08 1.52126E-09
 -1      2646 5.91866E-09-1.73801E-08-1.05339E-10
 -1      2647-5.56674E-08-4.03992E-07-2.05775E-08
 -1      2648 4.27287E-08-3.77218E-07 1.63156E-08
 -1      2649-8.33034E-08-4.24430E-07-3.05594E-08
 -1      2650-1.62740E-08-4.88675E-08-3.58865E-09
 -1      2651-1.65293E-08-4.15425E-08-2.59909E-09
 -1      2652 3.65431E-08-4.02690E-07 1.48346E-08
 -1      2653-4.10016E-09-2.20865E-08-2.63435E-10
 -1      2654-5.84552E-09-2.16043E-08-2.15347E-10
 -1      2655-6.20725E-09-2.70956E-08-7.37935E-10
 -1      2656 5.98116E-08-3.50013E-07 1.99765E-08
 -1      2657 6.32508E-08-4.24256E-07 2.49626E-08
 -1      2658-6.29184E-08-4.23817E-07-2.39461E-08
 -1      2659-6.31139E-08-3.90306E-07-2.22168E-08
 -1      2660 4.38458E-08-4.10534E-07 1.76335E-08
 -1      2661 3.66301E-08-4.13122E-07 1.50227E-08
 -1      2662-1.64088E-08-2.40442E-08-3.46204E-10
 -1      2663-8.40608E-11-3.40423E-08-2.31006E-10
 -1      2664 3.83976E-11-2.27600E-08 3.68466E-11
 -1      2665 2.33245E-08-3.64960E-08 2.22626E-09
 -1      2666-3.47282E-08-5.18524E-08-3.76734E-09
 -1      2667-1.73146E-08-3.49303E-08-1.75987E-09
 -1      2668 4.39763E-08-3.88424E-07 1.70996E-08
 -1      2669 6.94877E-08-3.95298E-07 2.53457E-08
 -1      2670 6.95073E-08-3.86541E-07 2.48022E-08
 -1      2671 6.10748E-08-4.13631E-07 2.36903E-08
 -1      2672 6.14654E-08-4.02292E-07 2.32846E-08
 -1      2673 5.26123E-08-4.08366E-07 2.06369E-08
 -1      2674 7.11259E-08-3.78169E-07 2.47069E-08
 -1      2675 8.78548E-09-2.30171E-08 4.47698E-10
 -1      2676 2.10755E-08-4.20278E-08 2.92484E-09
 -1      2677 1.51573E-08-4.08241E-08 2.74125E-09
 -1      2678 6.82940E-08-4.10403E-07 2.58352E-08
 -1      2679 2.96562E-08-4.14886E-07 1.23497E-08
 -1      2680 2.82184E-08-4.23650E-08 3.00202E-09
 -1      2681 2.89628E-08-5.48775E-08 4.56166E-09
 -1      2682 4.54940E-10-2.21092E-08 1.22537E-10
 -1      2683 1.79648E-08-4.08481E-07 7.82871E-09
 -1      2684 2.41547E-08-4.06149E-07 1.02206E-08
 -1      2685-6.03364E-08-4.13896E-07-2.25343E-08
 -1      2686 1.63068E-08-4.16437E-07 7.14421E-09
 -1      2687 3.08153E-08-4.06386E-07 1.27365E-08
 -1      2688-1.67309E-08-2.92697E-08-9.90881E-10
 -1      2689 1.70781E-08-3.06134E-08 1.44062E-09
 -1      2690 8.72779E-09-3.98579E-07 4.16812E-09
 -1      2691-5.78423E-08-3.82997E-07-2.03002E-08
 -1      2692-5.00800E-08-3.81465E-07-1.79139E-08
 -1      2693-2.10853E-08-4.14910E-07-7.81227E-09
 -1      2694-3.66015E-08-4.03020E-07-1.38960E-08
 -1      2695 1.05189E-08-4.17300E-07 4.87829E-09
 -1      2696 1.04892E-08-4.07320E-07 4.88669E-09
 -1      2697-7.13467E-09-3.32750E-08-1.41622E-09
 -1      2698-3.19731E-09-2.64983E-08-5.77044E-10
 -1      2699-6.37525E-08-3.74965E-07-2.15701E-08
 -1      2700 6.50252E-08-3.73854E-07 2.27800E-08
 -1      2701 6.51007E-08-3.66995E-07 2.23808E-08
 -1      2702 4.44686E-08-3.99665E-07 1.75642E-08
 -1      2703-2.47177E-09-2.14901E-08-1.88349E-10
 -1      2704 6.04421E-08-3.90886E-07 2.23982E-08
 -1      2705 6.34866E-09-2.67804E-08 8.06994E-10
 -1      2706 5.60364E-08-4.20993E-07 2.23059E-08
 -1      2707-7.21167E-08-4.36026E-07-2.78422E-08
 -1      2708 5.24631E-08-3.95516E-07 2.00955E-08
 -1      2709-1.77525E-09-2.52207E-08-3.63133E-10
 -1      2710-2.33005E-08-4.05778E-07-8.74201E-09
 -1      2711-3.00759E-08-4.06220E-07-1.14573E-08
 -1      2712-1.09816E-08-2.98958E-08-1.12772E-09
 -1      2713-7.05245E-08-4.27486E-07-2.67035E-08
 -1      2714-6.75183E-08-4.20001E-07-2.52264E-08
 -1      2715 7.41337E-08-4.16691E-07 2.80878E-08
 -1      2716-7.50489E-08-4.22210E-07-2.77959E-08
 -1      2717-7.82125E-08-4.30737E-07-2.94463E-08
 -1      2718 7.88046E-08-4.32938E-07 3.07670E-08
 -1      2719-1.26909E-08-2.53847E-08-6.16802E-10
 -1      2720-5.93023E-08-4.60649E-07-2.52517E-08
 -1      2721-6.06895E-08-4.54125E-07-2.52808E-08
 -1      2722-6.01720E-08-4.56263E-07-2.52623E-08
 -1      2723-9.37171E-08-4.39508E-07-3.50418E-08
 -1      2724-9.85698E-08-4.34853E-07-3.61178E-08
 -1      2725-5.97000E-08-4.58490E-07-2.52435E-08
 -1      2726-1.06927E-07-4.25937E-07-3.78426E-08
 -1      2727-1.09730E-07-4.19266E-07-3.80120E-08
 -1      2728-1.09124E-07-4.20397E-07-3.79378E-08
 -1      2729-1.12486E-07-4.07243E-07-3.76010E-08
 -1      2730-1.00865E-07-4.37041E-07-3.70795E-08
 -1      2731-1.04584E-07-4.31246E-07-3.76563E-08
 -1      2732-1.03455E-07-4.32136E-07-3.73922E-08
 -1      2733-8.09253E-08-4.54592E-07-3.22807E-08
 -1      2734-7.50774E-08-4.57391E-07-3.05509E-08
 -1      2735-8.65188E-08-4.51142E-07-3.38224E-08
 -1      2736-8.42254E-08-4.51041E-07-3.30599E-08
 -1      2737-1.11757E-07-4.12571E-07-3.79208E-08
 -1      2738-1.13702E-07-4.05519E-07-3.76835E-08
 -1      2739-7.09510E-08-4.51630E-07-2.86572E-08
 -1      2740-8.96965E-08-4.47249E-07-3.44951E-08
 -1      2741-9.47706E-08-4.42822E-07-3.57038E-08
 -1      2742-9.27991E-08-4.43213E-07-3.51117E-08
 -1      2743-1.13569E-07-4.04115E-07-3.75415E-08
 -1      2744-9.93812E-08-4.37771E-07-3.66786E-08
 -1      2745-1.02045E-07-4.33107E-07-3.70483E-08
 -1      2746-1.12083E-07-4.11573E-07-3.78651E-08
 -1      2747-1.14290E-07-4.01357E-07-3.74147E-08
 -1      2748-9.17577E-08-4.47047E-07-3.51384E-08
 -1      2749-6.36889E-08-4.60979E-07-2.68803E-08
 -1      2750-6.56419E-08-4.58528E-07-2.73739E-08
 -1      2751-1.11579E-07-4.12885E-07-3.79210E-08
 -1      2752-7.84233E-08-4.54167E-07-3.14075E-08
 -1      2753-8.18263E-08-4.50766E-07-3.22469E-08
 -1      2754-1.07636E-07-4.25084E-07-3.79787E-08
 -1      2755-1.09910E-07-4.18931E-07-3.80435E-08
 -1      2756-6.91592E-08-4.59447E-07-2.86731E-08
 -1      2757-6.65548E-08-4.54413E-07-2.73753E-08
 -1      2758-6.44797E-08-4.56761E-07-2.68269E-08
 -1      2759-6.55398E-08-4.52597E-07-2.68628E-08
 -1      2760-7.22643E-08-4.56638E-07-2.95391E-08
 -1      2761-7.58667E-08-4.53529E-07-3.05021E-08
 -1      2762-1.02904E-07-4.29636E-07-3.69469E-08
 -1      2763-1.00380E-07-4.34060E-07-3.66183E-08
 -1      2764-1.04472E-07-4.28464E-07-3.73287E-08
 -1      2765-9.65743E-08-4.42332E-07-3.62233E-08
 -1      2766-7.69218E-08-4.49654E-07-3.04954E-08
 -1      2767-1.12981E-07-4.06007E-07-3.75990E-08
 -1      2768-8.74959E-08-4.47316E-07-3.37895E-08
 -1      2769-9.57577E-08-4.39065E-07-3.56546E-08
 -1      2770-8.84419E-08-4.43549E-07-3.37267E-08
 -1      2771-1.12819E-07-4.08726E-07-3.78021E-08
 -1      2772-1.06654E-07-4.23918E-07-3.75229E-08
 -1      2773-9.76644E-08-4.38473E-07-3.62029E-08
 -1      2774-9.06745E-08-4.43468E-07-3.44509E-08
 -1      2775-1.09733E-07-4.17819E-07-3.78276E-08
 -1      2776-8.28101E-08-4.46936E-07-3.22091E-08
 -1      2777-8.51822E-08-4.47226E-07-3.30194E-08
 -1      2778-1.11349E-07-4.13274E-07-3.79038E-08
 -1      2779-1.05870E-07-4.27125E-07-3.76355E-08
 -1      2780-1.07952E-07-4.22332E-07-3.77730E-08
 -1      2781-1.10771E-07-4.15675E-07-3.79292E-08
 -1      2782-7.93452E-08-4.50323E-07-3.13774E-08
 -1      2783-6.98243E-08-4.55555E-07-2.86095E-08
 -1      2784-7.31911E-08-4.52739E-07-2.95210E-08
 -1      2785 0.00000E+00 0.00000E+00 0.00000E+00
 -1      2786 0.00000E+00 0.00000E+00 0.00000E+00
 -1      2787 0.00000E+00 0.00000E+00 0.00000E+00
 -1      2788 0.00000E+00 0.00000E+00 0.00000E+00
 -1      2789 0.00000E+00 0.00000E+00 0.00000E+00
 -1      2790 0.00000E+00 0.00000E+00 0.00000E+00
 -1      2791 0.00000E+00 0.00000E+00 0.00000E+00
 -1      2792 0.00000E+00 0.00000E+00 0.00000E+00
 -1      2793 0.00000E+00 0.00000E+00 0.00000E+00
 -1      2794 0.00000E+00 0.00000E+00 0.00000E+00
 -1      2795 0.00000E+00 0.00000E+00 0.00000E+00
 -1      2796 0.00000E+00 0.00000E+00 0.00000E+00
 -1      2797 0.00000E+00 0.00000E+00 0.00000E+00
 -1      2798 0.00000E+00 0.00000E+00 0.00000E+00
 -1      2799 0.00000E+00 0.00000E+00 0.00000E+00
 -1      2800 0.00000E+00 0.00000E+00 0.00000E+00
 -1      2801 0.00000E+00 0.00000E+00 0.00000E+00
 -1      2802 0.00000E+00 0.00000E+00 0.00000E+00
 -1      2803 0.00000E+00 0.00000E+00 0.00000E+00
 -1      2804 0.00000E+00 0.00000E+00 0.00000E+00
 -1      2805 0.00000E+00 0.00000E+00 0.00000E+00
 -1      2806 0.00000E+00 0.00000E+00 0.00000E+00
 -1      2807 0.00000E+00 0.00000E+00 0.00000E+00
 -1      2808 0.00000E+00 0.00000E+00 0.00000E+00
 -1      2809 0.00000E+00 0.00000E+00 0.00000E+00
 -1      2810 0.00000E+00 0.00000E+00 0.00000E+00
 -1      2811 0.00000E+00 0.00000E+00 0.00000E+00
 -1      2812 0.00000E+00 0.00000E+00 0.00000E+00
 -1      2813 0.00000E+00 0.00000E+00 0.00000E+00
 -1      2814 0.00000E+00 0.00000E+00 0.00000E+00
 -1      2815 0.00000E+00 0.00000E+00 0.00000E+00
 -1      2816 0.00000E+00 0.00000E+00 0.00000E+00
 -1      2817 0.00000E+00 0.00000E+00 0.00000E+00
 -1      2818 0.00000E+00 0.00000E+00 0.00000E+00
 -1      2819 0.00000E+00 0.00000E+00 0.00000E+00
 -1      2820 0.00000E+00 0.00000E+00 0.00000E+00
 -1      2821 0.00000E+00 0.00000E+00 0.00000E+00
 -1      2822 0.00000E+00 0.00000E+00 0.00000E+00
 -1      2823 0.00000E+00 0.00000E+00 0.00000E+00
 -1      2824 0.00000E+00 0.00000E+00 0.00000E+00
 -1      2825 0.00000E+00 0.00000E+00 0.00000E+00
 -1      2826 0.00000E+00 0.00000E+00 0.00000E+00
 -1      2827 0.00000E+00 0.00000E+00 0.00000E+00
 -1      2828 0.00000E+00 0.00000E+00 0.00000E+00
 -1      2829 0.00000E+00 0.00000E+00 0.00000E+00
 -1      2830 0.00000E+00 0.00000E+00 0.00000E+00
 -1      2831 0.00000E+00 0.00000E+00 0.00000E+00
 -1      2832 0.00000E+00 0.00000E+00 0.00000E+00
 -1      2833 0.00000E+00 0.00000E+00 0.00000E+00
 -1      2834 0.00000E+00 0.00000E+00 0.00000E+00
 -1      2835 0.00000E+00 0.00000E+00 0.00000E+00
 -1      2836 0.00000E+00 0.00000E+00 0.00000E+00
 -1      2837 0.00000E+00 0.00000E+00 0.00000E+00
 -1      2838 0.00000E+00 0.00000E+00 0.00000E+00
 -1      2839 0.00000E+00 0.00000E+00 0.00000E+00
 -1      2840 0.00000E+00 0.00000E+00 0.00000E+00
 -1      2841 0.00000E+00 0.00000E+00 0.00000E+00
 -1      2842 0.00000E+00 0.00000E+00 0.00000E+00
 -1      2843 0.00000E+00 0.00000E+00 0.00000E+00
 -1      2844 0.00000E+00 0.00000E+00 0.00000E+00
 -1      2845 0.00000E+00 0.00000E+00 0.00000E+00
 -1      2846 0.00000E+00 0.00000E+00 0.00000E+00
 -1      2847 0.00000E+00 0.00000E+00 0.00000E+00
 -1      2848 0.00000E+00 0.00000E+00 0.00000E+00
 -1      2849 0.00000E+00 0.00000E+00 0.00000E+00
 -1      2850 0.00000E+00 0.00000E+00 0.00000E+00
 -1      2851 0.00000E+00 0.00000E+00 0.00000E+00
 -1      2852 0.00000E+00 0.00000E+00 0.00000E+00
 -1      2853 0.00000E+00 0.00000E+00 0.00000E+00
 -1      2854 0.00000E+00 0.00000E+00 0.00000E+00
 -1      2855 0.00000E+00 0.00000E+00 0.00000E+00
 -1      2856 0.00000E+00 0.00000E+00 0.00000E+00
 -1      2857 0.00000E+00 0.00000E+00 0.00000E+00
 -1      2858 0.00000E+00 0.00000E+00 0.00000E+00
 -1      2859 0.00000E+00 0.00000E+00 0.00000E+00
 -1      2860 0.00000E+00 0.00000E+00 0.00000E+00
 -1      2861 0.00000E+00 0.00000E+00 0.00000E+00
 -1      2862 0.00000E+00 0.00000E+00 0.00000E+00
 -1      2863 0.00000E+00 0.00000E+00 0.00000E+00
 -1      2864 0.00000E+00 0.00000E+00 0.00000E+00
 -1      2865 0.00000E+00 0.00000E+00 0.00000E+00
 -1      2866 0.00000E+00 0.00000E+00 0.00000E+00
 -1      2867 0.00000E+00 0.00000E+00 0.00000E+00
 -1      2868 0.00000E+00 0.00000E+00 0.00000E+00
 -1      2869 0.00000E+00 0.00000E+00 0.00000E+00
 -1      2870 0.00000E+00 0.00000E+00 0.00000E+00
 -1      2871 0.00000E+00 0.00000E+00 0.00000E+00
 -1      2872 0.00000E+00 0.00000E+00 0.00000E+00
 -1      2873 0.00000E+00 0.00000E+00 0.00000E+00
 -1      2874 0.00000E+00 0.00000E+00 0.00000E+00
 -1      2875 0.00000E+00 0.00000E+00 0.00000E+00
 -1      2876 0.00000E+00 0.00000E+00 0.00000E+00
 -1      2877 0.00000E+00 0.00000E+00 0.00000E+00
 -1      2878 0.00000E+00 0.00000E+00 0.00000E+00
 -1      2879 0.00000E+00 0.00000E+00 0.00000E+00
 -1      2880 0.00000E+00 0.00000E+00 0.00000E+00
 -1      2881 6.54038E-08-4.91951E-08 7.07162E-09
 -1      2882 6.83715E-08-5.13315E-08 8.94484E-09
 -1      2883 7.01749E-08-5.50120E-08 8.26607E-09
 -1      2884 1.27333E-07-2.64244E-07 2.52445E-08
 -1      2885 1.27776E-07-2.48702E-07 2.41572E-08
 -1      2886 1.24093E-07-2.19229E-07 2.10294E-08
 -1      2887 1.22449E-07-2.01246E-07 1.93865E-08
 -1      2888 1.24396E-07-2.09608E-07 2.06417E-08
 -1      2889 1.17399E-07-1.57717E-07 1.77301E-08
 -1      2890 1.19826E-07-1.62904E-07 1.92373E-08
 -1      2891 1.20772E-07-1.72449E-07 1.89641E-08
 -1      2892 1.12926E-07-1.49534E-07 1.45883E-08
 -1      2893 1.18507E-07-3.33674E-07 3.18099E-08
 -1      2894 1.17423E-07-3.44354E-07 3.28767E-08
 -1      2895 5.98618E-08-4.09253E-08 7.14785E-09
 -1      2896 6.40521E-08-4.59507E-08 8.01322E-09
 -1      2897 1.22130E-07-3.12784E-07 2.95236E-08
 -1      2898 1.22753E-07-3.02011E-07 2.86340E-08
 -1      2899 1.23684E-07-3.00194E-07 2.83103E-08
 -1      2900 1.16463E-07-3.54309E-07 3.38604E-08
 -1      2901 6.18513E-08-4.66877E-08 4.34122E-09
 -1      2902 1.08233E-07-1.33603E-07 1.31919E-08
 -1      2903 1.03313E-07-1.19798E-07 1.18645E-08
 -1      2904 6.94446E-08-5.54809E-08 6.85571E-09
 -1      2905 1.16739E-07-3.74309E-07 3.61192E-08
 -1      2906 1.16570E-07-3.81560E-07 3.69610E-08
 -1      2907 1.15923E-07-3.82921E-07 3.70111E-08
 -1      2908 4.57089E-08-2.57046E-08 1.63490E-09
 -1      2909 4.43932E-08-2.27988E-08 1.58342E-09
 -1      2910 4.64215E-08-2.62338E-08 2.26679E-09
 -1      2911 6.64472E-08-5.26545E-08 5.03654E-09
 -1      2912 6.46663E-08-4.94398E-08 5.75131E-09
 -1      2913 1.17010E-07-1.66119E-07 1.62050E-08
 -1      2914 1.20227E-07-1.83497E-07 1.78049E-08
 -1      2915 1.24822E-07-2.35688E-07 2.25939E-08
 -1      2916 5.40204E-08-3.68774E-08 3.08990E-09
 -1      2917 5.77973E-08-4.15648E-08 3.75013E-09
 -1      2918 1.26310E-07-2.79219E-07 2.64051E-08
 -1      2919 1.26614E-07-2.59556E-07 2.49083E-08
 -1      2920 1.25999E-07-2.73324E-07 2.60140E-08
 -1      2921 1.23697E-07-3.05254E-07 2.86045E-08
 -1      2922 1.22399E-07-3.16541E-07 2.97240E-08
 -1      2923 4.46470E-08-2.25232E-08 2.07529E-09
 -1      2924 8.36248E-08-7.27072E-08 1.20711E-08
 -1      2925 9.78324E-08-1.06417E-07 1.05930E-08
 -1      2926 1.01444E-07-1.12518E-07 1.24814E-08
 -1      2927 5.26255E-08-3.23898E-08 5.33256E-09
 -1      2928 5.60956E-08-3.65236E-08 6.22564E-09
 -1      2929 1.26956E-07-2.14582E-07 2.20576E-08
 -1      2930 1.27759E-07-2.32302E-07 2.31391E-08
 -1      2931 1.05826E-07-1.17052E-07 1.61370E-08
 -1      2932 8.68751E-08-8.41603E-08 8.36714E-09
 -1      2933 1.15977E-07-3.88824E-07 3.77099E-08
 -1      2934 4.92739E-08-3.02001E-08 2.94645E-09
 -1      2935 4.79072E-08-2.89941E-08 2.04790E-09
 -1      2936 5.40545E-08-3.51601E-08 4.88287E-09
 -1      2937 9.25693E-08-9.50408E-08 9.45878E-09
 -1      2938 1.23093E-07-1.80082E-07 2.02084E-08
 -1      2939 1.23202E-07-1.88072E-07 1.98454E-08
 -1      2940 1.19876E-07-1.73617E-07 1.79852E-08
 -1      2941 1.23531E-07-2.83317E-07 2.69587E-08
 -1      2942 1.22276E-07-2.97716E-07 2.83534E-08
 -1      2943 7.63124E-08-6.66202E-08 6.60340E-09
 -1      2944 7.11215E-08-5.90339E-08 5.77359E-09
 -1      2945 1.21021E-07-3.10376E-07 2.95584E-08
 -1      2946 9.62249E-08-1.00036E-07 1.16875E-08
 -1      2947 1.15602E-07-1.55129E-07 1.63239E-08
 -1      2948 5.78076E-08-3.96639E-08 5.71323E-09
 -1      2949 1.00409E-07-1.04425E-07 1.50690E-08
 -1      2950 1.12562E-07-1.40366E-07 1.62810E-08
 -1      2951 9.69688E-08-9.90604E-08 1.32629E-08
 -1      2952 1.02345E-07-1.11706E-07 1.39885E-08
 -1      2953 4.96946E-08-2.86409E-08 4.56636E-09
 -1      2954 1.25341E-07-1.97353E-07 2.11074E-08
 -1      2955 1.14615E-07-3.92149E-07 3.77895E-08
 -1      2956 1.24876E-07-2.52723E-07 2.41461E-08
 -1      2957 1.19928E-07-3.37923E-07 3.19612E-08
 -1      2958 1.18565E-07-3.44701E-07 3.27938E-08
 -1      2959 1.19842E-07-3.33466E-07 3.15761E-08
 -1      2960 1.25119E-07-2.74138E-07 2.61305E-08
 -1      2961 1.24744E-07-2.87469E-07 2.72132E-08
 -1      2962 1.23795E-07-2.89019E-07 2.74429E-08
 -1      2963 1.25779E-07-2.57357E-07 2.46873E-08
 -1      2964 1.26865E-07-2.41986E-07 2.35479E-08
 -1      2965 4.62118E-08-2.50454E-08 2.68975E-09
 -1      2966 4.79969E-08-2.78504E-08 3.11744E-09
 -1      2967 5.07373E-08-3.27509E-08 2.51651E-09
 -1      2968 1.15025E-07-3.72459E-07 3.56752E-08
 -1      2969 1.21113E-07-3.23287E-07 3.05222E-08
 -1      2970 1.21194E-07-3.27695E-07 3.08111E-08
 -1      2971 5.04753E-08-3.07357E-08 4.05536E-09
 -1      2972 1.15729E-07-3.63334E-07 3.47609E-08
 -1      2973 1.16966E-07-3.56125E-07 3.40367E-08
 -1      2974 1.17392E-07-3.65381E-07 3.50979E-08
 -1      2975 1.15286E-07-3.91006E-07 3.78113E-08
 -1      2976 1.13946E-07-3.95961E-07 3.80380E-08
 -1      2977 1.18178E-07-3.56537E-07 3.40864E-08
 -1      2978 6.04971E-08-4.39327E-08 5.30815E-09
 -1      2979 7.48711E-08-6.18622E-08 8.86178E-09
 -1      2980 7.96880E-08-7.01524E-08 8.65942E-09
 -1      2981 7.42426E-08-6.24745E-08 7.39300E-09
 -1      2982 1.19680E-07-3.22759E-07 3.07682E-08
 -1      2983 1.11201E-07-1.31684E-07 1.71724E-08
 -1      2984 1.15758E-07-1.46908E-07 1.81686E-08
 -1      2985 1.16079E-07-3.66237E-07 3.51040E-08
 -1      2986 5.60440E-08-3.85238E-08 4.40335E-09
 -1      2987 1.17072E-07-3.61443E-07 3.46243E-08
 -1      2988 1.16389E-07-3.70092E-07 3.55658E-08
 -1      2989 1.15445E-07-3.75107E-07 3.60251E-08
 -1      2990 8.15632E-08-7.48985E-08 7.53954E-09
 -1      2991 8.55260E-08-8.00059E-08 9.57720E-09
 -1      2992 9.05749E-08-8.94171E-08 1.02582E-08
 -1      2993 1.19006E-07-3.47239E-07 3.30175E-08
 -1      2994 6.15331E-08-4.39665E-08 6.61619E-09
 -1      2995 9.10210E-08-8.80819E-08 1.18408E-08
 -1      2996 8.50417E-08-7.71534E-08 1.08346E-08
 -1      2997 5.23236E-08-3.39986E-08 3.65981E-09
 -1      2998 4.74826E-08-2.52228E-08 3.94091E-09
 -1      2999 4.56592E-08-2.25172E-08 3.11582E-09
 -1      3000 1.24473E-07-2.68433E-07 2.56089E-08
 -1      3001 4.51039E-08-2.24660E-08 2.57301E-09
 -1      3002 8.93337E-08-8.19790E-08 1.30063E-08
 -1      3003 1.22844E-07-1.93091E-07 1.94142E-08
 -1      3004 1.25388E-07-2.07392E-07 2.10399E-08
 -1      3005 1.25799E-07-2.25939E-07 2.20941E-08
 -1      3006 1.26708E-07-2.24569E-07 2.23667E-08
 -1      3007 1.14914E-07-3.83578E-07 3.68981E-08
 -1      3008 1.15796E-07-3.78100E-07 3.64258E-08
 -1      3009 7.82076E-08-6.45663E-08 1.09271E-08
 -1      3010 1.06911E-07-1.25899E-07 1.40144E-08
 -1      3011 1.07865E-07-1.25177E-07 1.54585E-08
 -1      3012 7.32883E-08-5.77516E-08 9.94047E-09
 -1      3013 4.73791E-08-2.62032E-08 3.49608E-09
 -1      3014 9.47559E-08-9.23101E-08 1.40369E-08
 -1      3015 1.25082E-07-2.92327E-07 2.74575E-08
 -1      3016 1.20065E-07-3.25951E-07 3.09511E-08
 -1      3017 1.17909E-07-3.53174E-07 3.36965E-08
 -1      3018 1.14095E-07-3.89347E-07 3.73813E-08
 -1      3019 1.14482E-07-3.81124E-07 3.65671E-08
 -1      3020 1.18672E-07-3.37973E-07 3.21487E-08
 -1      3021 1.21184E-07-3.14896E-07 2.98833E-08
 -1      3022 1.25812E-07-2.42583E-07 2.34051E-08
 -1      3023 1.17585E-07-3.47611E-07 3.31593E-08
 -1      3024 1.15276E-07-3.85585E-07 3.72017E-08
 -1      3025 8.01314E-08-6.90542E-08 1.01895E-08
 -1      3026 1.11305E-07-1.40499E-07 1.48952E-08
 -1      3027-3.10208E-08-4.62791E-07-1.33240E-08
 -1      3028-2.50845E-08-4.64066E-07-1.01526E-08
 -1      3029 1.76336E-08-4.73725E-07 4.32102E-09
 -1      3030 4.73242E-08-4.59350E-07 2.13069E-08
 -1      3031-4.94913E-08-4.54365E-07-2.12007E-08
 -1      3032-4.91303E-08-4.56650E-07-2.11801E-08
 -1      3033 4.36187E-08-4.57132E-07 1.98589E-08
 -1      3034-1.97492E-08-4.57321E-07-9.46506E-09
 -1      3035-1.36622E-08-4.59174E-07-7.36147E-09
 -1      3036 3.24332E-09-5.12362E-07 2.29999E-09
 -1      3037 1.06963E-08-4.80546E-07-1.52864E-09
 -1      3038 1.52973E-08-4.76814E-07 4.88184E-09
 -1      3039-1.62952E-08-4.61937E-07-7.16467E-09
 -1      3040-2.30193E-08-4.59246E-07-1.01928E-08
 -1      3041-2.14673E-08-4.62450E-07-8.74787E-09
 -1      3042 4.22013E-08-4.66018E-07 1.89429E-08
 -1      3043 4.74947E-08-4.64507E-07 2.13621E-08
 -1      3044 4.21583E-08-4.63663E-07 1.90055E-08
 -1      3045-4.37537E-08-4.55604E-07-1.90327E-08
 -1      3046-3.87528E-08-4.57399E-07-1.70042E-08
 -1      3047-3.82579E-08-4.54582E-07-1.68155E-08
 -1      3048-7.43449E-09-4.73073E-07 1.79280E-09
 -1      3049 2.99970E-08-4.67601E-07 1.25776E-08
 -1      3050 2.41283E-08-4.69717E-07 8.85294E-09
 -1      3051-1.07851E-08-4.68699E-07-2.90575E-09
 -1      3052-2.24909E-09-4.84521E-07 3.08144E-09
 -1      3053-2.76807E-09-4.71821E-07-3.80795E-09
 -1      3054 1.70526E-08-4.61526E-07 1.01734E-08
 -1      3055 2.00416E-08-4.66106E-07 1.03601E-08
 -1      3056 1.31244E-08-4.69831E-07 9.40551E-09
 -1      3057 3.64074E-08-4.66005E-07 1.60811E-08
 -1      3058 2.39467E-08-4.60017E-07 1.24502E-08
 -1      3059-4.44435E-08-4.53545E-07-1.92382E-08
 -1      3060-3.20770E-08-4.54802E-07-1.43300E-08
 -1      3061-1.92074E-08-4.66164E-07-6.59294E-09
 -1      3062-4.88458E-08-4.61273E-07-2.12619E-08
 -1      3063-4.33628E-08-4.61775E-07-1.89965E-08
 -1      3064 3.99754E-08-4.59647E-07 1.83556E-08
 -1      3065 8.34623E-10-4.62534E-07-2.17826E-10
 -1      3066-6.23305E-09-4.61172E-07-5.04101E-09
 -1      3067-2.58337E-08-4.55616E-07-1.17957E-08
 -1      3068-9.82382E-09-4.64807E-07-5.20033E-09
 -1      3069 3.06496E-08-4.58528E-07 1.48300E-08
 -1      3070 3.69813E-08-4.57673E-07 1.72905E-08
 -1      3071-4.07361E-08-4.59666E-07-1.78455E-08
 -1      3072-3.45530E-08-4.59930E-07-1.50916E-08
 -1      3073-3.71602E-08-4.62236E-07-1.62192E-08
 -1      3074 9.63323E-09-4.62205E-07 6.04252E-09
 -1      3075-1.36643E-08-4.69450E-07-2.39526E-09
 -1      3076 2.11513E-08-4.70800E-07 8.12164E-09
 -1      3077 2.68526E-08-4.65906E-07 1.18386E-08
 -1      3078 4.79384E-08-4.61953E-07 2.15627E-08
 -1      3079 1.53510E-09-4.76785E-07 5.30412E-09
 -1      3080 4.93286E-08-4.57127E-07 2.20440E-08
 -1      3081 3.29184E-08-4.61212E-07 1.53613E-08
 -1      3082 2.69534E-08-4.62217E-07 1.28775E-08
 -1      3083-4.40007E-08-4.57713E-07-1.91627E-08
 -1      3084-4.77323E-08-4.59151E-07-2.07366E-08
 -1      3085-3.33645E-08-4.57361E-07-1.47502E-08
 -1      3086-2.84092E-08-4.57514E-07-1.26541E-08
 -1      3087 3.74837E-08-4.62745E-07 1.70541E-08
 -1      3088-2.80593E-08-4.60383E-07-1.21715E-08
 -1      3089 4.65882E-09-4.71404E-07 2.77860E-09
 -1      3090 4.29524E-08-4.61355E-07 1.94901E-08
 -1      3091-1.60626E-08-4.65244E-07-5.51791E-09
 -1      3092 3.25916E-08-4.64697E-07 1.44364E-08
 -1      3093 1.13351E-07-4.08309E-07 3.91762E-08
 -1      3094 1.15217E-07-4.02106E-07 3.90266E-08
 -1      3095 1.14597E-07-4.04048E-07 3.90730E-08
 -1      3096 9.90450E-08-4.36823E-07 3.75878E-08
 -1      3097 9.40447E-08-4.41641E-07 3.64326E-08
 -1      3098 1.13968E-07-4.06148E-07 3.91264E-08
 -1      3099 7.05672E-08-4.54153E-07 2.96104E-08
 -1      3100 7.66026E-08-4.52225E-07 3.15506E-08
 -1      3101 7.22816E-08-4.55640E-07 3.03265E-08
 -1      3102 5.87068E-08-4.63853E-07 2.59475E-08
 -1      3103 8.97552E-08-4.49905E-07 3.57914E-08
 -1      3104 8.40175E-08-4.53851E-07 3.42199E-08
 -1      3105 8.73787E-08-4.49994E-07 3.50104E-08
 -1      3106 1.05177E-07-4.33367E-07 3.91939E-08
 -1      3107 1.08309E-07-4.27021E-07 3.95506E-08
 -1      3108 1.01374E-07-4.39318E-07 3.85751E-08
 -1      3109 1.03916E-07-4.34404E-07 3.89002E-08
 -1      3110 7.13742E-08-4.59726E-07 3.03166E-08
 -1      3111 6.71481E-08-4.59002E-07 2.87585E-08
 -1      3112 7.46844E-08-4.56658E-07 3.12464E-08
 -1      3113 6.50424E-08-4.55176E-07 2.77264E-08
 -1      3114 1.12937E-07-4.12803E-07 3.94964E-08
 -1      3115 9.97536E-08-4.40128E-07 3.81429E-08
 -1      3116 9.50257E-08-4.45304E-07 3.70941E-08
 -1      3117 9.79673E-08-4.40812E-07 3.76319E-08
 -1      3118 6.03556E-08-4.59120E-07 2.62897E-08
 -1      3119 8.27089E-08-4.49395E-07 3.33793E-08
 -1      3120 6.00953E-08-4.56869E-07 2.60687E-08
 -1      3121 8.49994E-08-4.49832E-07 3.41934E-08
 -1      3122 7.88081E-08-4.53112E-07 3.23805E-08
 -1      3123 1.12200E-07-4.14575E-07 3.94859E-08
 -1      3124 1.12440E-07-4.14156E-07 3.95138E-08
 -1      3125 8.07761E-08-4.57499E-07 3.34156E-08
 -1      3126 9.69578E-08-4.44762E-07 3.76730E-08
 -1      3127 6.49522E-08-4.61791E-07 2.81595E-08
 -1      3128 1.07432E-07-4.28196E-07 3.93956E-08
 -1      3129 1.06288E-07-4.29402E-07 3.91610E-08
 -1      3130 7.47412E-08-4.60396E-07 3.15409E-08
 -1      3131 6.87298E-08-4.62602E-07 2.95886E-08
 -1      3132 1.10708E-07-4.20482E-07 3.96353E-08
 -1      3133 1.13605E-07-4.10166E-07 3.94340E-08
 -1      3134 1.13433E-07-4.10301E-07 3.94027E-08
 -1      3135 1.14605E-07-4.06510E-07 3.93139E-08
 -1      3136 1.10495E-07-4.19302E-07 3.94366E-08
 -1      3137 1.11383E-07-4.17638E-07 3.95443E-08
 -1      3138 1.07322E-07-4.25574E-07 3.90944E-08
 -1      3139 1.09476E-07-4.22998E-07 3.95080E-08
 -1      3140 8.85696E-08-4.45850E-07 3.50265E-08
 -1      3141 8.65613E-08-4.53899E-07 3.50855E-08
 -1      3142 9.20008E-08-4.49639E-07 3.65049E-08
 -1      3143 5.98828E-08-4.61338E-07 2.62609E-08
 -1      3144 1.02439E-07-4.35351E-07 3.85350E-08
 -1      3145 9.60511E-08-4.41328E-07 3.70618E-08
 -1      3146 1.03490E-07-4.31438E-07 3.84759E-08
 -1      3147 6.59733E-08-4.56973E-07 2.81929E-08
 -1      3148 1.00803E-07-4.36173E-07 3.80938E-08
 -1      3149 9.07653E-08-4.45894E-07 3.57589E-08
 -1      3150 1.10287E-07-4.21498E-07 3.96061E-08
 -1      3151 1.04970E-07-4.30483E-07 3.88544E-08
 -1      3152 6.31400E-08-4.64249E-07 2.76647E-08
 -1      3153 9.29398E-08-4.45703E-07 3.64555E-08
 -1      3154 7.78737E-08-4.57148E-07 3.23845E-08
 -1      3155 1.08507E-07-4.24315E-07 3.93388E-08
 -1      3156 8.13192E-08-4.53656E-07 3.32858E-08
 -1      3157 1.11906E-07-4.16325E-07 3.95726E-08
 -1      3158 3.35706E-08-2.23366E-07 1.33130E-08
 -1      3159 3.46661E-08-2.22067E-07 1.42228E-08
 -1      3160 3.18379E-08-2.04628E-07 1.32164E-08
 -1      3161 1.93982E-08-1.45270E-07 1.04875E-08
 -1      3162 2.26678E-08-1.61889E-07 1.10189E-08
 -1      3163 6.49907E-09-8.16602E-08 3.07770E-09
 -1      3164 9.48163E-09-9.11226E-08 3.97371E-09
 -1      3165 1.29716E-08-1.15929E-07 9.31668E-09
 -1      3166-1.21811E-10-4.99819E-08 6.12265E-10
 -1      3167 1.58954E-09-6.80192E-08 5.28720E-09
 -1      3168 3.06760E-09-7.48742E-08 6.23126E-09
 -1      3169 3.23990E-09-7.08699E-08 4.19857E-09
 -1      3170 2.77287E-08-3.31957E-07 9.78313E-09
 -1      3171-4.24577E-10-5.18170E-08 1.83418E-09
 -1      3172-4.41767E-10-5.39647E-08 2.67025E-09
 -1      3173 3.81122E-09-3.52158E-07 1.93904E-09
 -1      3174 1.86845E-08-1.28611E-07 7.61294E-09
 -1      3175 3.15046E-08-1.94609E-07 1.34056E-08
 -1      3176 1.19121E-08-3.44369E-07 5.67555E-09
 -1      3177 6.87247E-09-3.46675E-07 3.52701E-09
 -1      3178 1.13197E-08-3.51404E-07 4.38301E-09
 -1      3179 6.53071E-09-3.53493E-07 2.72496E-09
 -1      3180 9.34507E-09-3.50770E-07 3.94400E-09
 -1      3181 2.83736E-08-1.87770E-07 1.19649E-08
 -1      3182 2.85855E-08-1.97728E-07 1.17588E-08
 -1      3183 3.12252E-08-2.06066E-07 1.24385E-08
 -1      3184 3.86286E-08-2.62072E-07 1.68327E-08
 -1      3185 3.60116E-08-2.39432E-07 1.47365E-08
 -1      3186 3.50625E-08-2.40920E-07 1.34664E-08
 -1      3187-1.74588E-10-5.74613E-08 3.48695E-09
 -1      3188 5.31912E-10-6.18903E-08 4.46241E-09
 -1      3189 5.80332E-10-5.89863E-08 2.74926E-09
 -1      3190 3.33714E-08-3.16531E-07 1.34653E-08
 -1      3191 3.52093E-08-3.09950E-07 1.53202E-08
 -1      3192 3.56234E-08-3.05783E-07 1.46084E-08
 -1      3193 3.63323E-08-2.29912E-07 1.55982E-08
 -1      3194 3.76938E-08-2.45924E-07 1.64707E-08
 -1      3195 3.84166E-08-2.88491E-07 1.68175E-08
 -1      3196 3.87375E-08-2.75880E-07 1.70237E-08
 -1      3197 3.78917E-08-2.85342E-07 1.53992E-08
 -1      3198 2.57817E-08-1.80127E-07 1.14012E-08
 -1      3199 7.44326E-09-9.26638E-08 7.69457E-09
 -1      3200 1.00258E-08-1.03356E-07 8.55550E-09
 -1      3201 9.57040E-09-9.75983E-08 6.69950E-09
 -1      3202 3.24548E-08-3.18439E-07 1.42642E-08
 -1      3203 3.05364E-08-3.24261E-07 1.26647E-08
 -1      3204 7.90250E-09-8.80547E-08 4.86934E-09
 -1      3205 4.56774E-09-7.36572E-08 2.16039E-09
 -1      3206 2.50819E-08-1.70155E-07 1.12224E-08
 -1      3207 2.60296E-08-1.69516E-07 1.12855E-08
 -1      3208 2.18259E-08-1.52970E-07 1.03629E-08
 -1      3209 2.41157E-08-3.38483E-07 8.74034E-09
 -1      3210 2.03183E-08-3.43747E-07 7.43069E-09
 -1      3211 1.32650E-08-1.09555E-07 6.95793E-09
 -1      3212 1.04113E-08-9.75820E-08 5.50010E-09
 -1      3213 3.86004E-09-3.49772E-07 2.11051E-09
 -1      3214 1.67592E-08-3.41210E-07 7.72432E-09
 -1      3215 9.53971E-09-3.47350E-07 4.44957E-09
 -1      3216 1.26478E-08-3.47406E-07 5.39236E-09
 -1      3217 7.81785E-09-3.49800E-07 3.55270E-09
 -1      3218-2.52414E-10-5.04785E-08 9.27425E-10
 -1      3219 3.47885E-08-3.09775E-07 1.30406E-08
 -1      3220 2.21900E-08-1.43393E-07 9.10378E-09
 -1      3221 1.99861E-08-1.38839E-07 9.08007E-09
 -1      3222-2.87740E-10-5.17669E-08 1.56671E-09
 -1      3223 3.62804E-08-2.80756E-07 1.22852E-08
 -1      3224 3.62057E-08-2.93698E-07 1.23794E-08
 -1      3225 2.93776E-08-1.86558E-07 1.24304E-08
 -1      3226 5.52595E-10-5.62146E-08 6.63476E-10
 -1      3227 8.70352E-11-5.27864E-08 3.30385E-10
 -1      3228 1.54622E-08-1.14632E-07 6.37766E-09
 -1      3229 3.49507E-08-2.50717E-07 1.23749E-08
 -1      3230 3.60858E-08-2.65944E-07 1.24375E-08
 -1      3231-7.97296E-11-5.04512E-08 9.69521E-11
 -1      3232-9.82097E-11-5.12248E-08 6.06995E-10
 -1      3233-8.76516E-11-4.96614E-08 4.08216E-10
 -1      3234-1.01824E-10-4.94510E-08 1.30680E-10
 -1      3235 1.60000E-08-1.29842E-07 1.00114E-08
 -1      3236 1.43272E-08-3.47937E-07 5.72864E-09
 -1      3237 1.82031E-08-1.35331E-07 9.48184E-09
 -1      3238 1.67764E-08-1.23647E-07 8.02040E-09
 -1      3239 1.80977E-08-3.43470E-07 7.47614E-09
 -1      3240 2.27471E-08-3.39170E-07 8.92963E-09
 -1      3241 1.84611E-08-3.44604E-07 7.21868E-09
 -1      3242 3.70506E-08-2.99837E-07 1.62939E-08
 -1      3243 3.49884E-08-3.05394E-07 1.20147E-08
 -1      3244 3.15590E-08-2.16375E-07 1.19964E-08
 -1      3245 1.58928E-08-3.48257E-07 5.94408E-09
 -1      3246 3.04633E-10-5.48482E-08 1.37744E-09
 -1      3247 3.04315E-08-3.24683E-07 1.06634E-08
 -1      3248 3.30985E-08-3.15656E-07 1.13629E-08
 -1      3249 2.77930E-09-6.66156E-08 1.55404E-09
 -1      3250 3.74476E-08-2.55180E-07 1.54993E-08
 -1      3251 2.54583E-08-1.59967E-07 1.05745E-08
 -1      3252 1.24007E-08-1.02471E-07 5.01715E-09
 -1      3253 1.62700E-09-6.41680E-08 2.61908E-09
 -1      3254 1.20056E-09-6.45274E-08 3.78612E-09
 -1      3255 1.48517E-08-1.20456E-07 8.55581E-09
 -1      3256 1.21755E-08-1.08988E-07 8.06158E-09
 -1      3257 1.46114E-08-3.44495E-07 6.47106E-09
 -1      3258 4.85433E-09-8.34270E-08 7.19915E-09
 -1      3259 1.47872E-09-6.07392E-08 9.69211E-10
 -1      3260 2.49500E-09-3.48022E-07 1.67382E-09
 -1      3261 3.01066E-08-3.26342E-07 1.15339E-08
 -1      3262 2.34309E-09-3.54270E-07 1.26562E-09
 -1      3263 3.65771E-08-2.56381E-07 1.40627E-08
 -1      3264 3.62109E-08-2.97373E-07 1.38391E-08
 -1      3265 3.73734E-08-2.95404E-07 1.54321E-08
 -1      3266 2.14119E-08-3.37187E-07 9.67932E-09
 -1      3267 2.54200E-08-3.32299E-07 1.12403E-08
 -1      3268 2.92710E-08-3.26177E-07 1.28173E-08
 -1      3269 2.64886E-08-3.33890E-07 1.00990E-08
 -1      3270 2.85507E-08-1.76573E-07 1.19945E-08
 -1      3271 3.42138E-08-2.12090E-07 1.46292E-08
 -1      3272 3.32989E-08-2.33454E-07 1.22913E-08
 -1      3273 2.25829E-08-3.37478E-07 9.48967E-09
 -1      3274 2.69009E-08-3.31936E-07 1.10270E-08
 -1      3275 1.88535E-08-3.40969E-07 8.23817E-09
 -1      3276 6.65517E-09-8.64970E-08 5.96053E-09
 -1      3277 2.31521E-08-1.53226E-07 1.01791E-08
 -1      3278 3.50852E-09-7.03993E-08 2.91772E-09
 -1      3279 8.36984E-10-5.86261E-08 1.64880E-09
 -1      3280 3.24676E-08-3.19056E-07 1.21022E-08
 -1      3281 3.78795E-08-2.70651E-07 1.52925E-08
 -1      3282 5.31371E-09-7.83434E-08 4.03650E-09
 -1      3283 3.73674E-08-2.84069E-07 1.39336E-08
 -1      3284 3.70196E-08-2.71728E-07 1.36931E-08
 -1      3285 4.39893E-09-7.83034E-08 5.50689E-09
 -1      3286-9.08282E-11-5.08024E-08 8.92662E-10
 -1      3287-1.27375E-10-5.26711E-08 1.37579E-09
 -1      3288 4.75110E-11-5.47826E-08 2.24530E-09
 -1      3289 3.26928E-08-2.60004E-09 1.08008E-09
 -1      3290 2.57195E-08 4.69280E-10 1.36521E-09
 -1      3291 2.76463E-08-4.35413E-11 6.97296E-10
 -1      3292 1.73238E-08 2.06920E-09 3.76948E-10
 -1      3293 3.44736E-08-4.93708E-09 9.70617E-11
 -1      3294 3.92634E-08-1.03587E-08 7.03670E-10
 -1      3295 3.72866E-08-7.11498E-09 6.09867E-10
 -1      3296 4.29817E-08-1.49428E-08 1.84825E-09
 -1      3297 3.12985E-08-2.98990E-09-4.37327E-10
 -1      3298 2.43901E-08-2.15125E-10-1.14337E-09
 -1      3299 4.24770E-08-1.50237E-08 1.54933E-09
 -1      3300 1.64065E-08 9.71618E-10-1.07240E-09
 -1      3301 1.58928E-08 7.82118E-10-3.75512E-10
 -1      3302 3.77974E-08-7.17372E-09 1.19927E-09
 -1      3303 4.05039E-08-1.13962E-08 1.04195E-09
 -1      3304 2.45040E-08 3.17848E-10 2.60162E-10
 -1      3305 3.16932E-08-2.79233E-09 3.51574E-10
 -1      3306 4.17750E-08-1.52854E-08 9.59907E-10
 -1      3307 4.20528E-08-1.51448E-08 1.29235E-09
 -1      3308 4.00994E-08-1.00129E-08 1.11322E-09
 -1      3309 3.51243E-08-4.95119E-09 8.14744E-10
 -1      3310 4.14317E-08-1.13968E-08 1.53021E-09
 -1      3311 1.71434E-08 1.69762E-09 1.07553E-09
 -1      3312 3.64302E-08-7.46083E-09 1.38713E-10
 -1      3313 3.99507E-08-1.16793E-08 5.44130E-10
 -1      3314 2.69393E-08-3.48510E-10-3.67718E-10
 -1      3315-1.84915E-08-3.48405E-07-6.06089E-09
 -1      3316-2.26490E-08-3.44327E-07-7.43821E-09
 -1      3317-2.14621E-08-3.44152E-07-7.55989E-09
 -1      3318-2.32888E-08-3.38836E-07-9.34503E-09
 -1      3319-1.89754E-08-3.42575E-07-7.47361E-09
 -1      3320-2.59178E-08-1.81636E-07-1.09451E-08
 -1      3321-2.54973E-09-6.67169E-08-1.28754E-09
 -1      3322-1.31966E-09-6.07527E-08-7.25174E-10
 -1      3323-1.16447E-08-3.48155E-07-4.16917E-09
 -1      3324-9.52220E-09-3.47128E-07-3.42322E-09
 -1      3325-6.36305E-09-3.49884E-07-1.99973E-09
 -1      3326-2.85102E-08-1.77000E-07-1.14374E-08
 -1      3327-5.29440E-09-3.48195E-07-1.62073E-09
 -1      3328-2.72487E-08-3.33767E-07-1.09655E-08
 -1      3329-2.46512E-08-3.38769E-07-9.28708E-09
 -1      3330-3.84948E-10-5.63522E-08-5.16242E-10
 -1      3331-6.65594E-10-5.88976E-08-1.80533E-09
 -1      3332-1.85770E-10-5.46190E-08-1.04297E-09
 -1      3333-1.41402E-08-3.51638E-07-4.53721E-09
 -1      3334-1.00759E-08-1.04307E-07-8.21390E-09
 -1      3335-7.43959E-09-9.33803E-08-7.45831E-09
 -1      3336-9.51195E-09-9.84986E-08-6.39053E-09
 -1      3337-4.80091E-09-8.40826E-08-7.01879E-09
 -1      3338-2.61704E-08-3.39140E-07-8.58805E-09
 -1      3339-6.38563E-09-8.21291E-08-2.71799E-09
 -1      3340 1.86897E-10-4.97454E-08-2.63705E-10
 -1      3341-2.03086E-08-3.43402E-07-7.61826E-09
 -1      3342-1.95661E-08-1.46968E-07-1.01156E-08
 -1      3343-1.64438E-08-1.31465E-07-9.55085E-09
 -1      3344-1.89748E-08-1.39858E-07-9.27703E-09
 -1      3345-2.91683E-08-1.99953E-07-1.11761E-08
 -1      3346-3.15537E-08-2.18107E-07-1.13934E-08
 -1      3347-7.73645E-09-8.85360E-08-4.54840E-09
 -1      3348-1.02607E-08-9.79666E-08-5.12869E-09
 -1      3349-3.43956E-08-2.23600E-07-1.34225E-08
 -1      3350-3.62748E-08-2.30476E-07-1.50190E-08
 -1      3351-3.65517E-08-2.40518E-07-1.43661E-08
 -1      3352-3.43461E-08-3.16658E-07-1.10740E-08
 -1      3353-3.56716E-08-3.06926E-07-1.13229E-08
 -1      3354-3.59466E-08-3.09756E-07-1.28076E-08
 -1      3355-2.88782E-08-1.91486E-07-1.14924E-08
 -1      3356-3.19840E-08-2.03566E-07-1.26534E-08
 -1      3357-3.15004E-08-2.10053E-07-1.21153E-08
 -1      3358-3.67825E-08-2.95417E-07-1.16291E-08
 -1      3359-3.77356E-08-2.88716E-07-1.33012E-08
 -1      3360-3.71102E-08-2.99808E-07-1.26997E-08
 -1      3361-1.29863E-08-1.17317E-07-8.95155E-09
 -1      3362-1.20312E-08-1.10347E-07-7.55621E-09
 -1      3363-1.52031E-09-6.84219E-08-5.08717E-09
 -1      3364-2.98352E-09-7.54174E-08-6.14189E-09
 -1      3365 5.81420E-11-5.27812E-08-1.95267E-10
 -1      3366 3.34978E-10-5.04573E-08-8.42033E-10
 -1      3367 2.17368E-10-5.00915E-08-5.29423E-10
 -1      3368 1.97373E-10-5.04207E-08-2.58046E-11
 -1      3369 5.31318E-11-5.14838E-08-5.74931E-10
 -1      3370-9.74134E-09-3.53966E-07-2.98072E-09
 -1      3371-1.30017E-08-1.09632E-07-6.62496E-09
 -1      3372-1.51697E-08-1.14491E-07-5.79302E-09
 -1      3373-1.61507E-08-1.21727E-07-7.09833E-09
 -1      3374 5.18500E-10-5.40907E-08-2.44703E-09
 -1      3375 2.94179E-10-5.76219E-08-3.46594E-09
 -1      3376 1.52048E-10-4.93863E-08 4.08921E-11
 -1      3377-3.81793E-08-3.01129E-07-1.58411E-08
 -1      3378-3.62769E-08-3.11451E-07-1.49845E-08
 -1      3379-3.66141E-08-3.07876E-07-1.43189E-08
 -1      3380-2.88466E-08-1.84868E-07-1.16708E-08
 -1      3381-2.60402E-08-1.68628E-07-1.06532E-08
 -1      3382-3.37292E-08-3.19892E-07-1.40350E-08
 -1      3383-3.76770E-08-2.97390E-07-1.44025E-08
 -1      3384-1.57750E-08-1.23571E-07-8.28303E-09
 -1      3385-6.05656E-09-3.54116E-07-1.71699E-09
 -1      3386-9.61439E-09-3.50455E-07-3.22616E-09
 -1      3387-3.64398E-08-2.68321E-07-1.18456E-08
 -1      3388-3.66418E-08-2.58778E-07-1.30838E-08
 -1      3389-3.76848E-08-2.73452E-07-1.35919E-08
 -1      3390-7.79609E-11-5.53294E-08-2.12156E-09
 -1      3391-1.36904E-09-6.49138E-08-3.33448E-09
 -1      3392-4.64533E-10-6.24700E-08-4.32598E-09
 -1      3393-2.86179E-10-5.96868E-08-2.94490E-09
 -1      3394-2.27905E-08-1.64214E-07-1.05723E-08
 -1      3395-2.18043E-08-1.43504E-07-8.52476E-09
 -1      3396-2.51817E-08-1.59406E-07-9.92170E-09
 -1      3397-2.25561E-08-1.52858E-07-9.67667E-09
 -1      3398-3.43802E-08-2.13207E-07-1.40385E-08
 -1      3399-3.68578E-08-2.82280E-07-1.17710E-08
 -1      3400-3.08133E-08-3.27512E-07-1.26510E-08
 -1      3401-2.88647E-08-3.32908E-07-1.08616E-08
 -1      3402-1.43671E-08-3.45251E-07-5.51397E-09
 -1      3403-5.99390E-09-3.52247E-07-1.79044E-09
 -1      3404-3.79925E-08-2.47646E-07-1.58729E-08
 -1      3405-2.53752E-08-1.71441E-07-1.07667E-08
 -1      3406-9.42206E-09-9.15384E-08-3.61409E-09
 -1      3407-3.90972E-08-2.62683E-07-1.63084E-08
 -1      3408-1.67709E-08-3.48137E-07-5.82012E-09
 -1      3409-1.10476E-08-3.51725E-07-3.61276E-09
 -1      3410-2.94897E-08-3.32719E-07-9.54223E-09
 -1      3411-3.76909E-08-2.56684E-07-1.45068E-08
 -1      3412-3.52510E-08-2.52161E-07-1.17606E-08
 -1      3413-3.38203E-08-2.35847E-07-1.15834E-08
 -1      3414-3.57223E-08-2.42346E-07-1.31157E-08
 -1      3415 4.13279E-10-5.20319E-08-1.49445E-09
 -1      3416-2.55303E-08-3.39274E-07-9.02528E-09
 -1      3417-2.84935E-08-3.34378E-07-9.94254E-09
 -1      3418-1.22586E-08-1.02700E-07-4.65480E-09
 -1      3419-1.83992E-08-1.28490E-07-7.04653E-09
 -1      3420-3.20271E-08-3.25455E-07-1.02899E-08
 -1      3421-3.17361E-08-3.27080E-07-1.12873E-08
 -1      3422-4.25749E-09-7.38086E-08-2.00683E-09
 -1      3423-3.14104E-08-1.94794E-07-1.27952E-08
 -1      3424-3.94033E-08-2.77158E-07-1.65757E-08
 -1      3425-3.91989E-08-2.90043E-07-1.61542E-08
 -1      3426-3.88592E-08-2.83836E-07-1.48422E-08
 -1      3427-6.57831E-09-8.71203E-08-5.73417E-09
 -1      3428-5.16303E-09-7.86747E-08-3.85770E-09
 -1      3429-4.38793E-09-7.92372E-08-5.37061E-09
 -1      3430 5.53418E-10-5.20993E-08-1.81247E-09
 -1      3431 1.55978E-10-5.09585E-08-8.03000E-10
 -1      3432-3.10775E-09-7.22289E-08-4.33924E-09
 -1      3433-3.12272E-09-6.97687E-08-2.84400E-09
 -1      3434-1.71356E-09-6.40928E-08-2.03890E-09
 -1      3435-1.88006E-08-1.35278E-07-8.30377E-09
 -1      3436-3.37188E-08-2.26472E-07-1.23748E-08
 -1      3437-3.86205E-08-2.71055E-07-1.51725E-08
 -1      3438-1.62312E-08-3.46143E-07-6.02683E-09
 -1      3439-1.33280E-08-3.49082E-07-4.69099E-09
 -1      3440-3.45531E-08-3.17699E-07-1.31386E-08
 -1      3441-3.38089E-08-3.19621E-07-1.18158E-08
 -1      3442-3.20373E-08-3.25425E-07-1.24696E-08
 -1      3443-2.19423E-08-1.55257E-07-1.00066E-08
 -1      3444 1.05908E-10-5.27625E-08-1.25877E-09
 -1      3445-2.01329E-08-1.02705E-07-7.93625E-09
 -1      3446 1.83130E-09-1.26339E-08 2.63145E-10
 -1      3447 3.79940E-08-2.28648E-08 1.61974E-09
 -1      3448 1.13516E-07-3.17847E-07 2.88031E-08
 -1      3449 3.04671E-09-5.49215E-09 2.48389E-10
 -1      3450-6.76291E-08-6.92363E-08-7.86231E-09
 -1      3451 1.05236E-07-3.04384E-07 2.62569E-08
 -1      3452-1.04973E-07-2.54586E-07-2.13381E-08
 -1      3453-4.82450E-08-5.97152E-08-6.21845E-09
 -1      3454 1.02691E-07-3.99437E-07 3.52365E-08
 -1      3455-1.02790E-07-3.68257E-07-3.08685E-08
 -1      3456-1.04626E-07-3.07340E-07-2.51520E-08
 -1      3457-2.05120E-08-4.53762E-08-3.35913E-09
 -1      3458-8.24933E-08-2.95980E-07-2.12414E-08
 -1      3459-5.64999E-08-2.84806E-07-1.70347E-08
 -1      3460-5.24296E-09-3.55337E-08-1.41330E-09
 -1      3461-9.33463E-09-7.76502E-08-3.45889E-09
 -1      3462 2.68619E-08-1.11676E-07 8.55642E-09
 -1      3463-4.45756E-08-3.23334E-08-2.53673E-09
 -1      3464-1.49232E-08-3.56392E-07-5.24821E-09
 -1      3465 1.86132E-08-3.51359E-07 8.52212E-09
 -1      3466-9.39855E-08-1.62777E-07-1.41468E-08
 -1      3467 8.67358E-08-4.33265E-07 3.34121E-08
 -1      3468-2.69352E-08-1.25410E-07-8.10267E-09
 -1      3469-7.87590E-10-2.73058E-08-2.94014E-10
 -1      3470-9.86158E-08-2.09800E-07-1.74641E-08
 -1      3471-4.73763E-08-2.93992E-08-3.63811E-09
 -1      3472-3.65539E-08-1.27246E-07-9.59248E-09
 -1      3473 8.25716E-08-8.56392E-08 1.06359E-08
 -1      3474-1.00820E-07-3.80879E-07-3.17348E-08
 -1      3475 9.34640E-10-1.98149E-08 2.38301E-10
 -1      3476-8.90283E-08-9.55301E-08-1.20913E-08
 -1      3477 1.12590E-07-3.28169E-07 2.97663E-08
 -1      3478 3.40716E-09-1.22055E-08 3.78804E-10
 -1      3479-6.92169E-08-7.66423E-08-8.50508E-09
 -1      3480 5.13971E-09-6.00761E-09 2.18836E-10
 -1      3481-4.24545E-08-2.33149E-08-1.53934E-09
 -1      3482-3.48095E-08-5.78902E-08-5.15744E-09
 -1      3483 5.47872E-08-4.09670E-08 4.22479E-09
 -1      3484-1.01566E-07-3.18149E-07-2.56728E-08
 -1      3485 1.11222E-07-1.94348E-07 1.85144E-08
 -1      3486-1.14535E-07-3.06368E-07-2.63031E-08
 -1      3487 5.56783E-08-2.67213E-07 1.82275E-08
 -1      3488-1.12453E-08-4.46216E-08-2.61576E-09
 -1      3489 9.45946E-08-4.26415E-07 3.53164E-08
 -1      3490-6.10488E-08-2.98891E-07-1.82099E-08
 -1      3491 1.14555E-07-2.38861E-07 2.19473E-08
 -1      3492-1.09462E-07-3.98328E-07-3.57655E-08
 -1      3493 1.08626E-07-3.95742E-07 3.65069E-08
 -1      3494 3.92853E-08-3.15593E-07 1.60786E-08
 -1      3495 2.73560E-08-1.25158E-07 9.19036E-09
 -1      3496 7.37998E-08-4.45156E-07 3.00516E-08
 -1      3497-1.99957E-09-3.55724E-08-9.19776E-10
 -1      3498 2.73405E-08-3.49995E-07 1.19432E-08
 -1      3499 3.94023E-11-2.67957E-08 3.61593E-11
 -1      3500 8.70856E-08-9.47694E-08 1.14486E-08
 -1      3501 5.96523E-08-4.53244E-08 6.89605E-09
 -1      3502 4.26181E-09-6.68009E-08 5.07158E-09
 -1      3503 1.05006E-07-1.44830E-07 1.65914E-08
 -1      3504 2.26940E-09-1.95668E-08 4.54510E-10
 -1      3505 4.14803E-08-2.85017E-08 2.24032E-09
 -1      3506 1.11077E-07-3.37661E-07 3.05545E-08
 -1      3507-3.11869E-08-1.22388E-08 2.41065E-10
 -1      3508 6.15346E-09-1.22081E-08 6.26787E-10
 -1      3509-7.46623E-08-8.53994E-08-9.41003E-09
 -1      3510-5.37711E-08-7.55294E-08-7.68178E-09
 -1      3511 4.70705E-08-2.95294E-07 1.53132E-08
 -1      3512-2.90292E-08-3.49538E-07-1.04307E-08
 -1      3513 8.97093E-09-7.34864E-09 5.00490E-10
 -1      3514-1.03396E-07-3.27822E-07-2.68606E-08
 -1      3515-5.21446E-08-2.52239E-07-1.69327E-08
 -1      3516-2.14715E-08-5.65268E-08-4.22282E-09
 -1      3517 1.13285E-07-2.06403E-07 2.03326E-08
 -1      3518-8.24040E-08-3.19867E-07-2.27282E-08
 -1      3519 1.12132E-07-3.45144E-07 3.14831E-08
 -1      3520-8.46995E-08-4.37333E-07-3.20583E-08
 -1      3521-7.53313E-08-4.46460E-07-2.97498E-08
 -1      3522-4.73145E-09-4.43673E-08-1.92197E-09
 -1      3523-5.00209E-08-3.99211E-08-3.48524E-09
 -1      3524-9.73823E-08-1.94114E-07-1.64330E-08
 -1      3525 8.67139E-08-4.44593E-07 3.43388E-08
 -1      3526-5.04269E-10-3.55319E-08-4.00887E-10
 -1      3527-1.01499E-07-2.40486E-07-1.95591E-08
 -1      3528-3.71774E-08-1.59729E-07-1.10069E-08
 -1      3529 9.18038E-08-1.05990E-07 1.24409E-08
 -1      3530-1.00823E-07-3.95988E-07-3.32105E-08
 -1      3531 9.16230E-10-2.73124E-08 3.82447E-10
 -1      3532 3.64130E-08-1.90202E-08 2.22044E-09
 -1      3533 1.10754E-07-3.44957E-07 3.12985E-08
 -1      3534 4.50728E-09-1.93513E-08 6.97997E-10
 -1      3535 6.82383E-08-6.86490E-08 9.65294E-09
 -1      3536-7.64079E-08-9.51408E-08-1.01883E-08
 -1      3537-5.52000E-08-4.44640E-08-6.17299E-09
 -1      3538 3.76474E-08-3.19290E-07 1.35645E-08
 -1      3539 9.95070E-09-1.33745E-08 6.52247E-10
 -1      3540-9.11073E-08-1.45251E-07-1.46324E-08
 -1      3541-4.63562E-08-2.95835E-08-2.22772E-09
 -1      3542-3.66601E-08-7.26725E-08-6.33185E-09
 -1      3543 6.21660E-08-5.07785E-08 5.48997E-09
 -1      3544-1.00990E-07-3.36402E-07-2.72801E-08
 -1      3545 1.78059E-08-1.04533E-08 4.66379E-10
 -1      3546 8.27516E-08-4.35392E-07 3.23337E-08
 -1      3547-3.20658E-08-3.35252E-07-1.28845E-08
 -1      3548 5.65724E-09-6.59499E-08 2.83211E-09
 -1      3549-1.02796E-08-5.53012E-08-3.29901E-09
 -1      3550-6.33132E-08-3.18603E-07-1.95492E-08
 -1      3551 1.15435E-07-2.69451E-07 2.45550E-08
 -1      3552 1.09022E-07-4.09533E-07 3.80389E-08
 -1      3553-4.40296E-08-3.06692E-07-1.52548E-08
 -1      3554 1.04683E-07-2.66116E-07 2.32480E-08
 -1      3555-1.18757E-09-4.41067E-08-1.25776E-09
 -1      3556-1.00368E-07-2.08946E-07-1.83739E-08
 -1      3557 1.02699E-07-3.76044E-07 3.28923E-08
 -1      3558-1.03583E-07-3.44020E-07-2.84931E-08
 -1      3559 5.62288E-11-3.55998E-08 4.64196E-11
 -1      3560 9.63648E-08-1.18599E-07 1.35008E-08
 -1      3561 1.22263E-08-3.55212E-07 5.18516E-09
 -1      3562 2.41026E-09-2.73161E-08 7.27516E-10
 -1      3563 4.73391E-08-3.64293E-08 3.27943E-09
 -1      3564 4.92561E-08-2.54453E-07 1.47836E-08
 -1      3565 1.10915E-07-3.52125E-07 3.21476E-08
 -1      3566 2.91439E-08-3.39332E-07 1.12145E-08
 -1      3567 8.38650E-09-1.94727E-08 9.45333E-10
 -1      3568-8.16999E-08-1.05557E-07-1.09502E-08
 -1      3569-9.35378E-08-4.30474E-07-3.42376E-08
 -1      3570 1.00683E-07-2.22976E-07 1.95427E-08
 -1      3571-5.79892E-08-9.24652E-08-8.86608E-09
 -1      3572 1.60330E-08-1.51223E-08 9.26814E-10
 -1      3573-4.12579E-08-1.97713E-08-2.07714E-09
 -1      3574-1.03062E-07-3.45260E-07-2.85409E-08
 -1      3575-7.63327E-08-7.04004E-08-9.49168E-09
 -1      3576-2.19298E-08-7.07586E-08-5.20777E-09
 -1      3577-8.36471E-08-3.38441E-07-2.43775E-08
 -1      3578 3.06353E-08-1.05471E-08 8.50089E-10
 -1      3579 3.96014E-08-1.57206E-07 1.15690E-08
 -1      3580-3.80216E-09-5.34140E-08-2.45484E-09
 -1      3581-4.80649E-08-3.19373E-07-1.64526E-08
 -1      3582 2.56982E-09-5.97730E-08 4.02837E-09
 -1      3583-5.60155E-08-5.01196E-08-4.58698E-09
 -1      3584 1.55230E-10-4.40719E-08-5.97385E-10
 -1      3585-1.01419E-07-2.71842E-07-2.17544E-08
 -1      3586 1.00641E-07-1.32064E-07 1.45641E-08
 -1      3587-1.00702E-07-4.09167E-07-3.44303E-08
 -1      3588 5.78160E-10-3.56810E-08 5.64766E-10
 -1      3589-1.17360E-07-2.68730E-07-2.34061E-08
 -1      3590-8.88957E-08-4.26407E-07-3.24907E-08
 -1      3591-4.74118E-08-2.40591E-07-1.36765E-08
 -1      3592 1.22324E-08-8.88149E-08 7.14651E-09
 -1      3593 2.17659E-08-3.53947E-07 8.99566E-09
 -1      3594-1.10587E-07-3.75537E-07-3.34701E-08
 -1      3595 1.11100E-07-3.61548E-07 3.32870E-08
 -1      3596 5.17551E-09-2.66828E-08 1.07463E-09
 -1      3597-4.01020E-09-5.37280E-08-1.58663E-09
 -1      3598-8.28758E-08-1.17536E-07-1.18265E-08
 -1      3599 1.40119E-08-2.06178E-08 1.35109E-09
 -1      3600-1.36573E-08-8.64993E-08-4.54324E-09
 -1      3601-5.20173E-08-3.70269E-08-3.15517E-09
 -1      3602-4.02147E-08-9.10837E-08-7.76289E-09
 -1      3603 7.08209E-08-6.42165E-08 7.17036E-09
 -1      3604-1.01064E-07-3.54265E-07-2.90666E-08
 -1      3605 5.00012E-08-3.28290E-08 4.70667E-09
 -1      3606 2.47785E-08-1.73264E-08 1.28339E-09
 -1      3607-4.16387E-08-1.40631E-07-1.03309E-08
 -1      3608 9.29754E-08-1.06222E-07 1.37082E-08
 -1      3609 3.47168E-08-1.54270E-08 1.26091E-09
 -1      3610-1.13993E-07-2.23881E-07-1.96673E-08
 -1      3611-1.04835E-08-6.77375E-08-4.16557E-09
 -1      3612-6.55266E-08-3.38235E-07-2.08388E-08
 -1      3613 1.14588E-07-2.95035E-07 2.67876E-08
 -1      3614-3.32236E-09-5.97746E-08-2.77990E-09
 -1      3615-4.44190E-10-5.14467E-08-1.59867E-09
 -1      3616 4.98731E-11-4.35018E-08 6.98784E-11
 -1      3617 1.04333E-07-1.46674E-07 1.56680E-08
 -1      3618 1.14342E-07-3.15399E-07 2.85452E-08
 -1      3619 2.09060E-09-3.56088E-08 1.04511E-09
 -1      3620 5.29872E-08-4.48932E-08 4.38435E-09
 -1      3621 5.57919E-08-2.83086E-07 1.66209E-08
 -1      3622 1.10070E-07-4.05569E-07 3.79330E-08
 -1      3623 1.09644E-07-3.70062E-07 3.39410E-08
 -1      3624-3.26704E-08-1.25301E-08-1.91031E-09
 -1      3625 1.00754E-08-2.72710E-08 1.55855E-09
 -1      3626-8.89088E-08-1.32521E-07-1.31371E-08
 -1      3627 4.69234E-08-2.81123E-07 1.74593E-08
 -1      3628 8.78631E-08-4.34577E-07 3.38947E-08
 -1      3629 1.02460E-07-2.55472E-07 2.18371E-08
 -1      3630-5.81841E-10-5.13719E-08-9.68137E-10
 -1      3631-6.36963E-08-1.16073E-07-1.05455E-08
 -1      3632 3.64595E-08-3.23546E-07 1.52313E-08
 -1      3633 2.09713E-08-2.21873E-08 2.00594E-09
 -1      3634-1.02496E-07-3.63051E-07-3.02776E-08
 -1      3635-2.10982E-08-8.85061E-08-6.36834E-09
 -1      3636-8.48655E-08-3.54561E-07-2.57780E-08
 -1      3637 3.49313E-08-1.87933E-08 1.60534E-09
 -1      3638-8.94655E-09-7.69281E-08-4.65992E-09
 -1      3639 9.40510E-08-4.38668E-07 3.61984E-08
 -1      3640 5.81325E-08-4.97577E-08 7.20397E-09
 -1      3641-4.94962E-08-3.37046E-07-1.72954E-08
 -1      3642-6.40577E-08-6.32444E-08-6.23977E-09
 -1      3643-4.56641E-08-3.20649E-08-3.97317E-09
 -1      3644 9.58439E-08-1.59985E-07 1.68042E-08
 -1      3645-3.61740E-08-3.27195E-07-1.33313E-08
 -1      3646-8.29658E-08-1.05463E-07-1.21702E-08
 -1      3647 3.96617E-10-5.01743E-08-8.30716E-10
 -1      3648-4.01704E-08-1.67327E-08-1.34636E-09
 -1      3649-1.03762E-07-2.97675E-07-2.41448E-08
 -1      3650 1.08081E-07-1.62479E-07 1.69254E-08
 -1      3651-1.00151E-07-4.25786E-07-3.58135E-08
 -1      3652 8.14565E-12-4.35565E-08 6.69489E-10
 -1      3653 4.32251E-08-3.05091E-07 1.47376E-08
 -1      3654-5.44076E-08-2.71894E-07-1.53041E-08
 -1      3655 1.09970E-07-3.76956E-07 3.48080E-08
 -1      3656 5.39026E-09-3.55315E-08 1.57071E-09
 -1      3657-3.39244E-08-1.59457E-08-2.33326E-09
 -1      3658 1.01922E-07-2.21202E-07 2.02660E-08
 -1      3659-8.76420E-08-1.45829E-07-1.37830E-08
 -1      3660 1.02363E-07-3.52724E-07 3.03964E-08
 -1      3661 1.77671E-08-2.80894E-08 2.13808E-09
 -1      3662-1.03718E-07-3.16025E-07-2.58073E-08
 -1      3663-8.13794E-08-4.42000E-07-3.13924E-08
 -1      3664 9.79445E-08-4.19817E-07 3.57290E-08
 -1      3665 3.65770E-10-4.97588E-08-3.26609E-10
 -1      3666-5.86246E-08-4.55082E-08-4.22551E-09
 -1      3667-4.10159E-08-1.14636E-07-9.04364E-09
 -1      3668-1.03043E-07-4.05086E-07-3.46903E-08
 -1      3669 7.74475E-08-7.70432E-08 8.58295E-09
 -1      3670-1.00542E-07-3.69968E-07-3.05607E-08
 -1      3671 2.92812E-08-2.35638E-08 2.07734E-09
 -1      3672-2.06751E-08-1.02190E-07-7.00023E-09
 -1      3673 3.80144E-08-2.19343E-08 2.11042E-09
 -1      3674-1.16017E-07-2.56120E-07-2.22600E-08
 -1      3675-6.83644E-08-3.54712E-07-2.23055E-08
 -1      3676 1.12864E-07-3.19663E-07 2.90283E-08
 -1      3677-3.81945E-08-3.38110E-07-1.41671E-08
 -1      3678 9.43567E-09-7.79616E-08 6.27263E-09
 -1      3679-4.11513E-08-2.00497E-08-1.59624E-09
 -1      3680 7.44826E-12-4.86937E-08 1.15386E-10
 -1      3681-6.38881E-08-5.03775E-08-7.10259E-09
 -1      3682 3.47968E-08-3.29124E-07 1.27565E-08
 -1      3683 1.10563E-07-1.79592E-07 1.80347E-08
 -1      3684-1.09085E-07-1.61628E-07-1.67316E-08
 -1      3685 4.02977E-08-1.13440E-07 9.26448E-09
 -1      3686 1.25747E-09-4.41263E-08 1.39905E-09
 -1      3687 5.97382E-08-5.56545E-08 5.63164E-09
 -1      3688 1.10084E-07-3.85394E-07 3.57911E-08
 -1      3689 2.70600E-08-1.13473E-07 9.35433E-09
 -1      3690 1.11558E-08-3.56652E-08 2.17763E-09
 -1      3691-9.44420E-08-1.59749E-07-1.48636E-08
 -1      3692 1.02432E-07-2.83612E-07 2.39946E-08
 -1      3693-6.58666E-08-1.44797E-07-1.20683E-08
 -1      3694 1.00073E-07-4.27988E-07 3.71137E-08
 -1      3695 2.49551E-08-2.90029E-08 2.52146E-09
 -1      3696-3.86892E-08-1.30200E-07-9.65299E-09
 -1      3697-1.02184E-07-3.77400E-07-3.16870E-08
 -1      3698-1.15494E-07-2.24068E-07-2.03648E-08
 -1      3699-8.56389E-08-3.70340E-07-2.71740E-08
 -1      3700-1.12030E-07-3.51850E-07-3.09063E-08
 -1      3701 3.90337E-08-2.51703E-08 2.53182E-09
 -1      3702 4.52717E-08-2.06393E-07 1.42289E-08
 -1      3703-5.36007E-08-3.53756E-07-1.87198E-08
 -1      3704-7.02477E-08-7.74183E-08-7.70501E-09
 -1      3705-4.24384E-08-2.32982E-08-1.99769E-09
 -1      3706 2.64605E-08-3.45539E-07 1.04538E-08
 -1      3707-1.02573E-07-3.19784E-07-2.59602E-08
 -1      3708 4.30979E-08-2.31033E-08 2.84814E-09
 -1      3709 1.11172E-07-1.93480E-07 1.89645E-08
 -1      3710 8.00684E-08-7.76509E-08 1.11649E-08
 -1      3711-3.67929E-10-4.99532E-08 9.33115E-10
 -1      3712-5.73324E-08-2.97820E-07-1.64646E-08
 -1      3713 1.09887E-07-3.94380E-07 3.67052E-08
 -1      3714 4.87537E-09-4.45897E-08 2.12217E-09
 -1      3715-9.44701E-08-1.77353E-07-1.57957E-08
 -1      3716-2.90907E-08-3.43836E-07-1.15964E-08
 -1      3717 1.93287E-08-3.60786E-08 2.86791E-09
 -1      3718 9.63963E-09-7.76102E-08 3.74338E-09
 -1      3719-6.67776E-08-5.71899E-08-5.64194E-09
 -1      3720-4.35972E-08-1.44386E-07-1.07140E-08
 -1      3721 8.63261E-08-9.53278E-08 1.03043E-08
 -1      3722-9.97582E-08-3.85311E-07-3.18968E-08
 -1      3723 3.45777E-08-3.06036E-08 3.16644E-09
 -1      3724 1.16433E-07-2.79870E-07 2.54683E-08
 -1      3725-2.97015E-10-4.94210E-08 4.43813E-10
 -1      3726 4.26339E-08-2.87359E-08 3.24486E-09
 -1      3727-1.14673E-07-2.84396E-07-2.45494E-08
 -1      3728 1.11145E-07-3.84229E-07 3.59188E-08
 -1      3729-7.14724E-08-3.69567E-07-2.38282E-08
 -1      3730 1.10982E-07-3.36701E-07 3.05198E-08
 -1      3731 7.32022E-08-2.06645E-07 1.64686E-08
 -1      3732-9.48249E-08-4.32453E-07-3.47924E-08
 -1      3733-3.99688E-08-3.53320E-07-1.49062E-08
 -1      3734-2.89075E-08-3.44872E-07-1.09424E-08
 -1      3735-4.43047E-08-2.59288E-08-2.48880E-09
 -1      3736-8.79187E-08-4.35753E-07-3.29547E-08
 -1      3737-2.08765E-08-1.01167E-07-5.94410E-09
 -1      3738 5.10578E-10-5.13317E-08 1.77597E-09
 -1      3739 6.66735E-08-6.99216E-08 7.46293E-09
 -1      3740 4.83447E-08-3.56351E-08 5.25984E-09
 -1      3741 1.09714E-07-4.00745E-07 3.73296E-08
 -1      3742-3.83636E-08-2.21307E-08-2.57244E-09
 -1      3743 8.59763E-08-1.17058E-07 1.37513E-08
 -1      3744 1.16045E-08-4.49894E-08 2.89986E-09
 -1      3745-9.91668E-08-1.94137E-07-1.70976E-08
 -1      3746-7.19568E-08-7.63256E-08-9.56691E-09
 -1      3747 8.70330E-08-4.47810E-07 3.47060E-08
 -1      3748 1.04491E-07-3.07294E-07 2.63371E-08
 -1      3749-7.02318E-08-1.77574E-07-1.41004E-08
 -1      3750 2.85798E-08-3.69626E-08 3.47221E-09
 -1      3751-3.98585E-08-1.58289E-07-1.10625E-08
 -1      3752-1.01742E-07-3.93587E-07-3.32091E-08
 -1      3753-8.64897E-08-3.85551E-07-2.85595E-08
 -1      3754 4.37744E-08-3.18194E-08 3.48728E-09
 -1      3755-4.67959E-08-3.14882E-07-1.70617E-08
 -1      3756 5.06232E-08-2.36283E-07 1.57027E-08
 -1      3757 6.88742E-10-5.13724E-08 1.15527E-09
 -1      3758-5.60437E-08-3.69477E-07-1.98637E-08
 -1      3759-7.76705E-08-9.53458E-08-9.35021E-09
 -1      3760 1.04194E-07-3.24826E-07 2.79343E-08
 -1      3761 9.71232E-08-2.06971E-07 1.86328E-08
 -1      3762-1.04911E-07-2.81914E-07-2.31761E-08
 -1      3763 1.01366E-07-4.11989E-07 3.60594E-08
 -1      3764-3.03585E-08-3.53457E-07-1.16507E-08
 -1      3765-4.64871E-08-2.90488E-08-2.78517E-09
 -1      3766 1.91995E-08-1.04597E-07 8.28749E-09
 -1      3767-1.02802E-07-3.83651E-07-3.24716E-08
 -1      3768-1.01165E-07-3.39137E-07-2.75719E-08
 -1      3769 8.32512E-08-4.39676E-07 3.28187E-08
 -1      3770-1.41360E-09-5.76165E-08-1.41524E-09
 -1      3771 3.04456E-08-3.34598E-07 1.30357E-08
 -1      3772 1.09009E-07-4.06860E-07 3.77633E-08
 -1      3773 3.87121E-09-5.35768E-08 2.67334E-09
 -1      3774 2.15002E-08-4.55401E-08 3.72660E-09
 -1      3775-7.48339E-08-7.12450E-08-7.15410E-09
 -1      3776-5.29693E-08-3.66102E-08-4.90848E-09
 -1      3777-4.37371E-08-1.76604E-07-1.21240E-08
 -1      3778 9.59116E-08-1.20093E-07 1.24411E-08
 -1      3779-1.00469E-07-4.00329E-07-3.35246E-08
 -1      3780 3.91806E-08-3.83562E-08 4.15096E-09
 -1      3781-9.81626E-08-1.19210E-07-1.39618E-08
 -1      3782 4.75484E-08-3.55006E-08 4.14576E-09
 -1      3783-1.13540E-07-3.08599E-07-2.66757E-08
 -1      3784 4.99432E-08-2.52444E-07 1.60457E-08
 -1      3785-7.22057E-08-3.85146E-07-2.48591E-08
 -1      3786 1.10521E-07-3.54308E-07 3.24076E-08
 -1      3787 7.72532E-08-2.37909E-07 1.82734E-08
 -1      3788 4.10874E-09-5.39071E-08 1.82394E-09
 -1      3789 1.01501E-07-2.21975E-07 1.98961E-08
 -1      3790-4.30357E-08-3.68568E-07-1.60350E-08
 -1      3791-4.91552E-08-3.25842E-08-3.31241E-09
 -1      3792-1.96672E-08-3.55911E-07-7.57334E-09
 -1      3793-1.12628E-07-3.25525E-07-2.80454E-08
 -1      3794 5.94348E-08-2.93402E-07 1.95049E-08
 -1      3795 3.28282E-08-1.07513E-08 3.76291E-10
 -1      3796-1.13294E-07-2.08913E-07-1.89228E-08
 -1      3797 7.29222E-08-8.58275E-08 8.79572E-09
 -1      3798-3.76019E-09-5.53276E-08-3.47840E-09
 -1      3799-4.56406E-08-3.17749E-07-1.46382E-08
 -1      3800 3.61734E-09-6.10010E-08 3.19397E-09
 -1      3801 1.10986E-08-5.55801E-08 3.66424E-09
 -1      3802 1.01747E-07-3.29793E-07 2.79934E-08
 -1      3803 3.18352E-08-4.61813E-08 4.50387E-09
 -1      3804-1.01870E-07-4.06823E-07-3.45326E-08
 -1      3805 6.76370E-08-5.59510E-08 8.55187E-09
 -1      3806-8.71825E-08-3.99738E-07-2.98667E-08
 -1      3807 1.11564E-07-1.76535E-07 1.86847E-08
 -1      3808 4.97312E-08-3.99104E-08 4.78065E-09
 -1      3809 5.68282E-08-2.68306E-07 1.73978E-08
 -1      3810-5.82156E-08-3.84233E-07-2.09328E-08
 -1      3811-8.13894E-08-1.17209E-07-1.09890E-08
 -1      3812 2.86552E-08-1.24946E-07 8.79665E-09
 -1      3813 9.93505E-08-2.35904E-07 2.05576E-08
 -1      3814-4.52126E-08-2.84338E-07-1.40875E-08
 -1      3815-3.13507E-08-3.67945E-07-1.21071E-08
 -1      3816-5.22797E-08-3.64832E-08-3.91279E-09
 -1      3817-1.02017E-07-3.55987E-07-2.94599E-08
 -1      3818-5.63670E-08-2.79755E-07-1.79220E-08
 -1      3819 1.16568E-07-2.35371E-07 2.23020E-08
 -1      3820-1.00825E-08-3.54982E-07-3.52773E-09
 -1      3821-1.13929E-07-2.22076E-07-1.98830E-08
 -1      3822-8.86270E-09-6.97954E-08-5.14424E-09
 -1      3823 1.11390E-07-3.59845E-07 3.30704E-08
 -1      3824 9.41888E-08-4.28600E-07 3.53723E-08
 -1      3825-7.51658E-08-4.49674E-07-2.99574E-08
 -1      3826-9.77524E-11-5.25092E-08-2.31619E-09
 -1      3827 2.18992E-08-5.66053E-08 4.59775E-09
 -1      3828-8.34799E-08-8.86248E-08-8.96353E-09
 -1      3829 1.04255E-07-1.47585E-07 1.47061E-08
 -1      3830-1.01149E-07-4.13125E-07-3.49257E-08
 -1      3831 4.40498E-08-4.75040E-08 5.42262E-09
 -1      3832 5.41640E-08-4.50528E-08 5.49491E-09
 -1      3833-1.11492E-07-3.30749E-07-2.86668E-08
 -1      3834 4.03649E-08-2.54297E-08 3.51029E-09
 -1      3835 5.66121E-08-2.83342E-07 1.79064E-08
 -1      3836-7.33812E-08-3.99573E-07-2.59998E-08
 -1      3837 1.09464E-07-3.71642E-07 3.41331E-08
 -1      3838-3.27255E-08-1.08945E-08-1.38233E-09
 -1      3839 8.03614E-08-2.68439E-07 2.01428E-08
 -1      3840 7.44192E-08-8.42728E-08 1.12166E-08
 -1      3841-6.18117E-08-5.50469E-08-7.60628E-09
 -1      3842 8.78475E-08-4.29670E-07 3.34979E-08
 -1      3843 1.03173E-07-2.53127E-07 2.20168E-08
 -1      3844-4.50929E-08-3.83427E-07-1.69119E-08
 -1      3845-9.84059E-08-1.77458E-07-1.67305E-08
 -1      3846 9.90111E-08-4.06206E-07 3.48009E-08
 -1      3847-5.60064E-08-4.11009E-08-4.71340E-09
 -1      3848-1.00085E-07-3.98799E-07-3.32712E-08
 -1      3849-2.09332E-08-3.67990E-07-8.14287E-09
 -1      3850 3.88117E-08-1.28430E-07 1.04617E-08
 -1      3851-2.08579E-08-9.02153E-08-7.47034E-09
 -1      3852 8.12279E-08-4.42999E-07 3.24160E-08
 -1      3853 3.58642E-08-1.95916E-08 1.17917E-09
 -1      3854-1.15826E-07-2.36132E-07-2.08878E-08
 -1      3855 9.37591E-08-4.35525E-07 3.58383E-08
 -1      3856-1.09315E-09-3.55942E-07 1.18657E-10
 -1      3857 8.11926E-08-1.07982E-07 1.09786E-08
 -1      3858 1.02765E-07-2.92115E-07 2.49783E-08
 -1      3859 1.05616E-08-6.67392E-08 4.43491E-09
 -1      3860-1.02488E-07-2.37659E-07-2.01216E-08
 -1      3861 1.02402E-07-3.91178E-07 3.43372E-08
 -1      3862 1.01167E-07-3.46355E-07 2.95064E-08
 -1      3863 6.33076E-10-5.05357E-08-1.17302E-09
 -1      3864-1.02949E-07-3.60267E-07-3.00412E-08
 -1      3865 3.45065E-08-5.78214E-08 5.61003E-09
 -1      3866-1.00302E-07-4.22836E-07-3.55793E-08
 -1      3867 4.40611E-08-3.03873E-07 1.61196E-08
 -1      3868-8.72344E-08-4.13443E-07-3.09554E-08
 -1      3869 5.50582E-08-4.90604E-08 6.00491E-09
 -1      3870 6.17304E-08-2.94847E-07 1.90975E-08
 -1      3871-9.42927E-09-6.87172E-08-3.23337E-09
 -1      3872-5.99880E-08-3.99081E-07-2.20466E-08
 -1      3873-9.11539E-08-1.47124E-07-1.32771E-08
 -1      3874-2.81491E-08-1.11203E-07-7.42792E-09
 -1      3875 1.01171E-07-2.68728E-07 2.28734E-08
 -1      3876-7.99695E-08-4.42536E-07-3.09675E-08
 -1      3877-3.28988E-08-3.83142E-07-1.26675E-08
 -1      3878-5.96796E-08-4.59359E-08-5.36572E-09
 -1      3879-4.49895E-08-2.61591E-08-3.11666E-09
 -1      3880-3.73207E-08-1.14457E-07-9.16732E-09
 -1      3881-1.01374E-07-3.71896E-07-3.09374E-08
 -1      3882-8.39406E-08-8.48769E-08-1.10096E-08
 -1      3883-1.10322E-08-3.67708E-07-4.06143E-09
 -1      3884-1.16824E-07-2.53498E-07-2.22227E-08
 -1      3885-2.50429E-08-3.50560E-07-9.98958E-09
 -1      3886 1.35137E-08-8.62134E-08 4.83314E-09
 -1      3887 8.38254E-09-3.55482E-07 3.98912E-09
 -1      3888-3.65833E-08-3.38806E-07-1.28453E-08
 -1      3889 9.47758E-09-7.79398E-08 5.00730E-09
 -1      3890-4.07205E-08-2.01963E-08-1.16039E-09
 -1      3891 2.10504E-08-7.02326E-08 5.57513E-09
 -1      3892 3.57117E-08-3.25200E-07 1.40297E-08
 -1      3893 1.09775E-07-1.78579E-07 1.72769E-08
 -1      3894-1.16778E-07-2.94228E-07-2.54423E-08
 -1      3895 5.10230E-08-2.53186E-07 1.73908E-08
 -1      3896 4.78362E-08-5.95777E-08 6.50304E-09
 -1      3897 4.60170E-08-3.15881E-07 1.67332E-08
 -1      3898-8.78459E-08-4.37296E-07-3.30493E-08
 -1      3899-1.09476E-07-3.91545E-07-3.50301E-08
 -1      3900 6.05362E-08-5.54646E-08 6.92549E-09
 -1      3901-1.10914E-07-3.46305E-07-3.03063E-08
 -1      3902-7.39002E-08-4.13420E-07-2.70100E-08
 -1      3903 1.09096E-07-3.88722E-07 3.59077E-08
 -1      3904 7.43574E-08-4.48032E-07 3.04791E-08
 -1      3905 8.25211E-08-2.93669E-07 2.21905E-08
 -1      3906 1.04220E-07-2.80866E-07 2.41922E-08
 -1      3907-4.69679E-08-3.97974E-07-1.78025E-08
 -1      3908 2.66410E-08-3.42762E-07 1.16464E-08
 -1      3909-6.34441E-08-5.12161E-08-6.05701E-09
 -1      3910 5.65586E-08-4.06930E-08 6.24723E-09
 -1      3911-2.22510E-08-3.82523E-07-8.61415E-09
 -1      3912 3.98537E-08-1.60051E-07 1.17102E-08
 -1      3913-4.38471E-08-1.78186E-07-1.25788E-08
 -1      3914 1.00785E-07-1.31122E-07 1.56025E-08
 -1      3915 3.95821E-08-2.56079E-08 1.92869E-09
 -1      3916-1.16301E-07-2.68556E-07-2.33061E-08
 -1      3917-1.16060E-09-3.67080E-07 1.36053E-10
 -1      3918 8.70067E-08-1.31584E-07 1.26947E-08
 -1      3919-1.59921E-08-3.52382E-07-6.25389E-09
 -1      3920-9.40162E-08-4.22227E-07-3.36554E-08
 -1      3921 1.77235E-08-3.55143E-07 7.79586E-09
 -1      3922 1.02200E-07-3.64985E-07 3.16478E-08
 -1      3923 2.68684E-08-3.43409E-07 1.11077E-08
 -1      3924 1.39807E-09-5.71559E-08 1.50097E-09
 -1      3925 3.64628E-08-7.20629E-08 6.72008E-09
 -1      3926 3.74747E-08-3.36645E-07 1.46149E-08
 -1      3927-4.94761E-08-2.35502E-07-1.60084E-08
 -1      3928-4.72274E-10-5.01923E-08 1.17954E-09
 -1      3929 1.12699E-07-3.36189E-07 3.05636E-08
 -1      3930-8.72255E-08-4.26493E-07-3.19967E-08
 -1      3931 6.26129E-08-6.20423E-08 7.72344E-09
 -1      3932 6.23045E-08-3.12315E-07 1.99327E-08
 -1      3933-7.44993E-08-4.38332E-07-2.88811E-08
 -1      3934-6.08099E-08-4.13908E-07-2.29612E-08
 -1      3935-9.47137E-08-1.78989E-07-1.51574E-08
 -1      3936 1.01641E-07-2.94292E-07 2.48024E-08
 -1      3937-3.44496E-08-3.97809E-07-1.33297E-08
 -1      3938-6.75879E-08-5.72364E-08-6.84201E-09
 -1      3939-3.93938E-08-1.43814E-07-1.04647E-08
 -1      3940-1.00245E-07-3.88374E-07-3.22986E-08
 -1      3941-1.21668E-08-3.81666E-07-4.51594E-09
 -1      3942-1.16097E-07-2.82472E-07-2.44504E-08
 -1      3943 3.51531E-08-1.53749E-08 1.82067E-09
 -1      3944 6.39028E-08-6.04495E-08 8.79475E-09
 -1      3945 8.06693E-09-3.67147E-07 3.99855E-09
 -1      3946-5.15551E-08-3.96943E-08-5.36995E-09
 -1      3947 1.00116E-07-1.91586E-07 1.85431E-08
 -1      3948-8.99511E-08-1.30302E-07-1.41789E-08
 -1      3949 2.16406E-08-8.92374E-08 6.80298E-09
 -1      3950-4.39729E-08-2.61355E-08-1.90580E-09
 -1      3951 2.85497E-08-3.53693E-07 1.19081E-08
 -1      3952-1.00389E-07-1.34054E-07-1.27282E-08
 -1      3953 5.38294E-08-7.38478E-08 8.05564E-09
 -1      3954 4.73230E-08-3.35708E-07 1.74038E-08
 -1      3955-8.73960E-08-4.34918E-07-3.27280E-08
 -1      3956 2.00601E-10-5.23319E-08 2.49117E-09
 -1      3957 6.70625E-08-6.85566E-08 8.35042E-09
 -1      3958-1.09379E-07-3.63611E-07-3.19631E-08
 -1      3959-7.41957E-08-4.26090E-07-2.79283E-08
 -1      3960 1.09327E-07-4.02214E-07 3.73816E-08
 -1      3961 1.04599E-07-2.50991E-07 2.22715E-08
 -1      3962 8.20451E-08-3.16033E-07 2.35509E-08
 -1      3963 1.02946E-07-3.68259E-07 3.21449E-08
 -1      3964 8.60956E-08-4.40800E-07 3.38084E-08
 -1      3965 1.03976E-07-3.06349E-07 2.62160E-08
 -1      3966-4.83864E-08-4.13764E-07-1.86931E-08
 -1      3967-1.03455E-07-3.35118E-07-2.75582E-08
 -1      3968 3.95466E-08-1.68026E-08 1.12590E-09
 -1      3969-7.18793E-08-6.43825E-08-7.74448E-09
 -1      3970-1.02768E-07-4.20693E-07-3.60974E-08
 -1      3971-1.11671E-09-5.89028E-08-3.50273E-09
 -1      3972-2.32916E-08-3.98113E-07-8.98341E-09
 -1      3973 4.38782E-08-3.24553E-08 2.67950E-09
 -1      3974-1.15475E-07-2.95672E-07-2.55545E-08
 -1      3975 4.66857E-08-2.37947E-07 1.40023E-08
 -1      3976-1.64834E-09-3.81718E-07-8.30354E-11
 -1      3977 9.35012E-08-1.61142E-07 1.49847E-08
 -1      3978 9.79333E-08-2.08935E-07 1.83198E-08
 -1      3979 1.85966E-08-3.67715E-07 8.27496E-09
 -1      3980 1.01852E-07-3.79868E-07 3.30710E-08
 -1      3981-2.87072E-08-3.56025E-07-1.05754E-08
 -1      3982 1.92032E-08-1.03472E-07 7.58225E-09
 -1      3983-4.02338E-08-1.63010E-08-1.71839E-09
 -1      3984 3.78619E-08-9.06900E-08 8.07387E-09
 -1      3985-7.22242E-08-6.29087E-08-8.82658E-09
 -1      3986 3.81555E-08-3.53413E-07 1.50856E-08
 -1      3987-1.13531E-07-1.95274E-07-1.85915E-08
 -1      3988 4.10738E-08-1.41947E-07 1.09218E-08
 -1      3989-8.75157E-08-4.41532E-07-3.33064E-08
 -1      3990 6.75925E-08-7.52109E-08 9.02648E-09
 -1      3991 6.57234E-08-3.35822E-07 2.16875E-08
 -1      3992 3.37561E-09-5.49739E-08 3.59361E-09
 -1      3993-6.11483E-08-4.27499E-07-2.37390E-08
 -1      3994-4.99282E-08-2.93299E-07-1.76494E-08
 -1      3995 1.00230E-07-3.16602E-07 2.65281E-08
 -1      3996-3.59179E-08-4.13377E-07-1.40862E-08
 -1      3997-7.56125E-08-7.14132E-08-8.27407E-09
 -1      3998-3.92972E-08-1.74925E-07-1.15024E-08
 -1      3999-1.01330E-07-4.01702E-07-3.38878E-08
 -1      4000-1.17493E-07-2.54043E-07-2.23770E-08
 -1      4001-1.33019E-08-3.97001E-07-4.91787E-09
 -1      4002-1.10080E-07-3.68032E-07-3.24579E-08
 -1      4003-1.14374E-07-3.08828E-07-2.66888E-08
 -1      4004-3.41354E-08-1.57823E-08-5.29907E-10
 -1      4005 9.21898E-09-3.81831E-07 4.45924E-09
 -1      4006-4.91347E-08-3.32654E-08-2.71689E-09
 -1      4007 2.95285E-08-3.68217E-07 1.23726E-08
 -1      4008 4.70739E-08-2.88768E-08 3.89633E-09
 -1      4009-1.94219E-08-3.56628E-07-7.18188E-09
 -1      4010 1.30353E-08-3.51111E-07 6.07684E-09
 -1      4011-1.07368E-07-1.63341E-07-1.50204E-08
 -1      4012-3.97272E-08-1.25853E-07-9.22597E-09
 -1      4013 8.75826E-08-9.41114E-08 1.25530E-08
 -1      4014 6.16753E-08-9.37386E-08 9.75688E-09
 -1      4015 3.11108E-08-1.27531E-08-6.16830E-11
 -1      4016-1.11170E-07-2.08102E-07-1.83171E-08
 -1      4017 5.32763E-08-3.54292E-07 1.94955E-08
 -1      4018 7.17807E-08-8.49917E-08 9.88473E-09
 -1      4019-1.09394E-07-3.79544E-07-3.37558E-08
 -1      4020-7.37633E-08-4.40441E-07-2.87981E-08
 -1      4021 8.30962E-08-3.35877E-07 2.51407E-08
 -1      4022 1.02911E-07-3.26238E-07 2.78907E-08
 -1      4023-4.85755E-08-4.27788E-07-1.92825E-08
 -1      4024 4.25778E-08-2.36851E-08 1.87358E-09
 -1      4025-7.89259E-08-7.84100E-08-9.21886E-09
 -1      4026-2.46363E-08-4.12695E-07-9.59107E-09
 -1      4027 1.15503E-07-3.04030E-07 2.75476E-08
 -1      4028 4.92375E-08-4.02336E-08 3.67804E-09
 -1      4029-1.13164E-07-3.19527E-07-2.75916E-08
 -1      4030 5.48098E-08-2.69960E-07 1.61460E-08
 -1      4031 1.10380E-07-3.98133E-07 3.72317E-08
 -1      4032-1.92877E-09-3.96750E-07-1.69060E-10
 -1      4033 9.69276E-08-1.93114E-07 1.72208E-08
 -1      4034 8.79138E-08-4.28115E-07 3.33976E-08
 -1      4035-9.19912E-08-4.30405E-07-3.37494E-08
 -1      4036 9.83732E-08-2.39268E-07 2.02579E-08
 -1      4037 1.99088E-08-3.82540E-07 8.76059E-09
 -1      4038 1.01555E-07-3.96539E-07 3.46164E-08
 -1      4039-4.62545E-08-2.84185E-07-1.54272E-08
 -1      4040 3.99699E-08-1.13015E-07 9.43028E-09
 -1      4041 4.20376E-08-3.69575E-07 1.65688E-08
 -1      4042-9.92931E-09-3.57615E-07-3.34598E-09
 -1      4043 2.24964E-08-3.49609E-07 9.94245E-09
 -1      4044 3.24510E-08-1.68926E-08 2.54978E-10
 -1      4045 9.34824E-08-4.31147E-07 3.53686E-08
 -1      4046 7.81566E-08-9.48470E-08 1.09153E-08
 -1      4047 6.77160E-08-3.53508E-07 2.29787E-08
 -1      4048 5.42759E-08-4.41597E-08 6.55335E-09
 -1      4049-7.43588E-08-4.48454E-07-2.95954E-08
 -1      4050-4.26736E-08-2.81343E-08-3.54657E-09
 -1      4051-2.55378E-08-1.24742E-07-9.22102E-09
 -1      4052 9.13017E-08-1.45238E-07 1.55210E-08
 -1      4053-6.11824E-08-4.40986E-07-2.45622E-08
 -1      4054-7.88978E-08-9.35520E-08-1.12118E-08
 -1      4055 9.96935E-08-3.37085E-07 2.83293E-08
 -1      4056-3.71305E-08-4.27983E-07-1.49157E-08
 -1      4057-8.25322E-08-8.55859E-08-9.74001E-09
 -1      4058 2.14924E-08-1.00021E-07 6.57186E-09
 -1      4059-9.90099E-08-4.17424E-07-3.47071E-08
 -1      4060-1.42477E-08-4.11928E-07-5.28247E-09
 -1      4061-1.12283E-07-3.29002E-07-2.84828E-08
 -1      4062-3.76251E-08-2.25442E-08-1.23692E-09
 -1      4063 1.00690E-07-2.05831E-07 1.93484E-08
 -1      4064 1.04365E-08-3.96891E-07 4.91655E-09
 -1      4065 1.03288E-07-3.43713E-07 2.96579E-08
 -1      4066-1.04561E-07-3.05383E-07-2.49769E-08
 -1      4067-4.85665E-08-2.95827E-07-1.61365E-08
 -1      4068-5.50132E-08-4.10249E-08-3.72985E-09
 -1      4069 3.11490E-08-3.83594E-07 1.30211E-08
 -1      4070-1.02858E-07-3.98478E-07-3.39863E-08
 -1      4071-1.10954E-07-1.93758E-07-1.73683E-08
 -1      4072 4.72164E-08-3.11563E-07 1.81598E-08
 -1      4073 3.82961E-08-1.26114E-07 1.00365E-08
 -1      4074 8.07541E-08-4.45238E-07 3.24113E-08
 -1      4075 6.23798E-08-1.16104E-07 1.11268E-08
 -1      4076 5.59395E-08-3.70556E-07 2.06221E-08
 -1      4077-1.15420E-07-2.40071E-07-2.09300E-08
 -1      4078 7.87173E-08-1.04647E-07 1.15618E-08
 -1      4079-1.08027E-07-3.96038E-07-3.51764E-08
 -1      4080 8.50189E-08-3.54126E-07 2.68170E-08
 -1      4081 1.01195E-08-6.85025E-08 5.33599E-09
 -1      4082 1.02517E-07-3.45117E-07 2.96570E-08
 -1      4083-4.99076E-08-4.42348E-07-2.05234E-08
 -1      4084 4.60178E-08-2.96324E-08 2.54412E-09
 -1      4085-8.72752E-08-9.49105E-08-1.06514E-08
 -1      4086-6.01557E-08-4.56122E-08-6.39225E-09
 -1      4087-2.58302E-08-4.26875E-07-1.02029E-08
 -1      4088-1.04813E-07-1.46721E-07-1.56949E-08
 -1      4089 5.57936E-08-4.97613E-08 5.26587E-09
 -1      4090-1.10472E-07-3.37326E-07-2.91016E-08
 -1      4091 5.72391E-08-2.95372E-07 1.73373E-08
 -1      4092-2.38653E-08-3.49308E-07-8.53550E-09
 -1      4093-2.08923E-09-4.11938E-07-2.04675E-10
 -1      4094-3.86709E-08-3.36275E-07-1.49911E-08
 -1      4095 1.01396E-07-2.68245E-07 2.26541E-08
 -1      4096 2.07824E-08-3.97842E-07 9.07005E-09
 -1      4097 1.01833E-07-4.10747E-07 3.60572E-08
 -1      4098-1.13589E-07-2.10012E-07-1.94063E-08
 -1      4099 4.28000E-08-1.40890E-07 1.10512E-08
 -1      4100 4.39223E-08-3.84388E-07 1.74095E-08
 -1      4101-1.11773E-07-3.43948E-07-2.99461E-08
 -1      4102 8.28476E-08-1.18187E-07 1.26518E-08
 -1      4103 6.92968E-08-3.69049E-07 2.41991E-08
 -1      4104 6.83358E-09-3.56061E-07 3.14096E-09
 -1      4105 9.99538E-08-3.52769E-07 2.99017E-08
 -1      4106 4.14443E-08-1.99534E-08 2.38433E-09
 -1      4107-3.84126E-08-4.42172E-07-1.59380E-08
 -1      4108-9.19431E-08-1.05603E-07-1.16891E-08
 -1      4109 7.55890E-08-6.92784E-08 1.01549E-08
 -1      4110 4.54796E-08-3.18328E-07 1.53594E-08
 -1      4111-1.44239E-08-4.27551E-07-5.31543E-09
 -1      4112-1.11717E-07-3.45121E-07-3.02034E-08
 -1      4113-4.14666E-08-2.85245E-08-1.81276E-09
 -1      4114 1.07245E-08-4.12770E-07 5.00092E-09
 -1      4115 1.01823E-08-6.78570E-08 3.55297E-09
 -1      4116 8.40503E-10-5.82810E-08 3.47127E-09
 -1      4117-6.26195E-08-5.10167E-08-4.88848E-09
 -1      4118 3.28510E-08-3.98778E-07 1.37027E-08
 -1      4119 3.96816E-08-1.58434E-07 1.16909E-08
 -1      4120 1.17944E-07-2.65912E-07 2.45327E-08
 -1      4121 6.57573E-08-1.42819E-07 1.27918E-08
 -1      4122 5.73516E-08-3.85166E-07 2.16233E-08
 -1      4123-1.15593E-07-2.71400E-07-2.34822E-08
 -1      4124 3.31126E-08-1.17190E-08 2.00227E-09
 -1      4125 1.10081E-07-3.76410E-07 3.47364E-08
 -1      4126 8.88789E-08-1.31044E-07 1.37835E-08
 -1      4127-1.07629E-07-4.08878E-07-3.63750E-08
 -1      4128-9.49986E-08-4.25314E-07-3.42334E-08
 -1      4129 8.52405E-08-3.70500E-07 2.81686E-08
 -1      4130 1.71998E-08-3.56399E-07 7.19028E-09
 -1      4131 1.02572E-07-3.62110E-07 3.14234E-08
 -1      4132-5.01065E-08-4.51305E-07-2.11652E-08
 -1      4133 5.17233E-08-3.67049E-08 3.65288E-09
 -1      4134-9.66512E-08-1.18478E-07-1.25369E-08
 -1      4135 3.56841E-08-3.37598E-07 1.35233E-08
 -1      4136-2.66902E-08-4.43241E-07-1.08526E-08
 -1      4137-8.82435E-08-4.30159E-07-3.25891E-08
 -1      4138-2.16711E-08-8.87192E-08-5.50974E-09
 -1      4139 1.13824E-07-2.22853E-07 2.06967E-08
 -1      4140 6.29544E-08-6.24066E-08 6.69054E-09
 -1      4141-1.10359E-07-3.53972E-07-3.09623E-08
 -1      4142 4.55009E-08-3.19717E-08 4.36459E-09
 -1      4143-2.08719E-09-4.27130E-07-1.91354E-10
 -1      4144-3.54342E-08-1.87924E-08-2.17797E-09
 -1      4145 8.23413E-08-1.06155E-07 1.29573E-08
 -1      4146-6.96009E-08-6.94215E-08-9.36862E-09
 -1      4147 1.03485E-07-2.96190E-07 2.51975E-08
 -1      4148 2.21580E-08-4.13335E-07 9.59107E-09
 -1      4149 1.01167E-07-4.26378E-07 3.73125E-08
 -1      4150-1.68729E-09-5.36256E-08-2.09146E-09
 -1      4151-3.96956E-08-3.19275E-07-1.43343E-08
 -1      4152 4.36122E-08-1.78267E-07 1.28257E-08
 -1      4153 4.57215E-08-3.98803E-07 1.82944E-08
 -1      4154 3.45962E-08-1.55253E-08 2.39361E-09
 -1      4155-4.52103E-08-3.02793E-07-1.68838E-08
 -1      4156 8.78444E-08-1.44099E-07 1.44916E-08
 -1      4157 7.13036E-08-3.85365E-07 2.56155E-08
 -1      4158 1.02701E-07-3.15293E-07 2.68511E-08
 -1      4159-1.03552E-07-2.68714E-07-2.21377E-08
 -1      4160 4.66274E-08-2.84851E-07 1.53296E-08
 -1      4161 1.02809E-07-4.05417E-07 3.58406E-08
 -1      4162 1.00758E-07-3.70047E-07 3.18104E-08
 -1      4163 2.16405E-08-9.17224E-08 7.92165E-09
 -1      4164 2.71711E-08-3.54310E-07 1.09425E-08
 -1      4165-1.02567E-07-3.75844E-07-3.16053E-08
 -1      4166-1.01220E-07-1.32966E-07-1.37641E-08
 -1      4167-1.73610E-09-5.28340E-08-1.31813E-09
 -1      4168-1.55094E-08-4.46146E-07-5.61517E-09
 -1      4169-1.10387E-07-3.61786E-07-3.18857E-08
 -1      4170-4.68941E-08-3.60084E-08-2.68402E-09
 -1      4171 1.14406E-08-4.27623E-07 5.24029E-09
 -1      4172 8.61964E-08-4.39644E-07 3.37621E-08
 -1      4173 4.00874E-08-1.64670E-08 1.51352E-09
 -1      4174-1.01521E-07-2.26481E-07-1.87666E-08
 -1      4175-5.13563E-09-6.61704E-08-3.45834E-09
 -1      4176-7.12333E-08-6.44754E-08-6.56778E-09
 -1      4177-5.02403E-08-3.30327E-08-4.28382E-09
 -1      4178 3.45608E-08-4.13558E-07 1.44998E-08
 -1      4179-1.00067E-07-4.17199E-07-3.49800E-08
 -1      4180-1.50666E-09-5.85272E-08-2.42099E-09
 -1      4181-9.36749E-08-1.06791E-07-1.30485E-08
 -1      4182 2.49668E-10-5.15245E-08-1.24143E-09
 -1      4183 6.70680E-08-1.74978E-07 1.43735E-08
 -1      4184 5.92390E-08-3.99639E-07 2.27779E-08
 -1      4185-1.14841E-07-2.96490E-07-2.56730E-08
 -1      4186-3.03616E-08-1.10605E-08-7.54733E-10
 -1      4187 9.46021E-08-1.59481E-07 1.58494E-08
 -1      4188 8.71101E-08-3.85948E-07 2.98056E-08
 -1      4189-1.62321E-09-9.56623E-10-4.74222E-11
 -1      4190 1.02345E-07-3.77437E-07 3.29419E-08
 -1      4191 5.83810E-08-4.54417E-08 4.77833E-09
 -1      4192-1.04705E-07-1.47955E-07-1.48136E-08
 -1      4193-1.13993E-07-3.16592E-07-2.72574E-08
 -1      4194 5.73454E-08-2.79634E-07 1.90080E-08
 -1      4195-8.73793E-08-4.41576E-07-3.32742E-08
 -1      4196 9.49745E-08-4.34397E-07 3.61210E-08
 -1      4197 1.15570E-07-2.53156E-07 2.31941E-08
 -1      4198 8.66391E-11-5.09815E-08-6.52551E-10
 -1      4199-1.09523E-07-4.04375E-07-3.64174E-08
 -1      4200 6.92352E-08-7.75238E-08 8.23396E-09
 -1      4201-1.09875E-07-3.69264E-07-3.26377E-08
 -1      4202-2.72629E-09-4.46245E-07-6.69559E-11
 -1      4203 7.29913E-08-4.53848E-07 3.04183E-08
 -1      4204-1.21362E-08-8.64682E-08-5.52638E-09
 -1      4205 1.02541E-07-3.18189E-07 2.70476E-08
 -1      4206 2.36338E-08-4.28257E-07 1.02258E-08
 -1      4207 4.10278E-08-1.96018E-08 1.87275E-09
 -1      4208 6.35540E-08-5.01682E-08 7.69005E-09
 -1      4209 4.74203E-08-4.13873E-07 1.92830E-08
 -1      4210 1.08895E-07-1.60588E-07 1.77215E-08
 -1      4211-3.48167E-08-1.55561E-08-1.12867E-09
 -1      4212 9.39954E-08-1.76158E-07 1.66676E-08
 -1      4213 7.44699E-08-4.00743E-07 2.73881E-08
 -1      4214-1.94159E-08-1.06110E-08-5.92507E-10
 -1      4215 2.86147E-08-1.13166E-07 8.09299E-09
 -1      4216 1.00766E-07-3.86121E-07 3.34101E-08
 -1      4217-1.08434E-07-1.63603E-07-1.59615E-08
 -1      4218-5.53938E-08-2.66947E-07-1.72308E-08
 -1      4219 1.15245E-07-2.19649E-07 2.12223E-08
 -1      4220 1.11249E-07-3.52852E-07 3.22229E-08
 -1      4221-1.09359E-07-3.76554E-07-3.33598E-08
 -1      4222-7.45437E-08-4.42423E-07-2.91817E-08
 -1      4223-5.28663E-08-4.43423E-08-3.80941E-09
 -1      4224-2.76748E-08-1.13300E-07-8.22900E-09
 -1      4225 1.31998E-08-4.48389E-07 5.46073E-09
 -1      4226 4.25482E-08-2.32559E-08 2.39702E-09
 -1      4227-1.02630E-07-2.56263E-07-2.07761E-08
 -1      4228-7.89865E-08-7.91914E-08-8.13087E-09
 -1      4229 3.53644E-08-4.27778E-07 1.50665E-08
 -1      4230-3.20150E-08-3.38128E-07-1.20591E-08
 -1      4231 2.26308E-08-3.47212E-07 9.09107E-09
 -1      4232-1.12504E-07-3.19878E-07-2.76745E-08
 -1      4233 6.03121E-08-4.14742E-07 2.37239E-08
 -1      4234 3.87497E-08-2.22070E-08 2.78629E-09
 -1      4235-3.52101E-08-1.90465E-08-1.45786E-09
 -1      4236 9.88437E-08-1.92046E-07 1.79197E-08
 -1      4237 7.02818E-08-7.63337E-08 1.01612E-08
 -1      4238-5.81687E-08-4.95450E-08-6.56078E-09
 -1      4239 8.67890E-08-4.01006E-07 3.09162E-08
 -1      4240-9.83841E-09-8.50265E-09-6.38990E-10
 -1      4241-9.59754E-08-1.62365E-07-1.59801E-08
 -1      4242-8.18760E-08-4.34368E-07-3.09484E-08
 -1      4243 1.02566E-07-3.93586E-07 3.46153E-08
 -1      4244 6.63771E-08-5.68987E-08 6.22655E-09
 -1      4245-1.10674E-07-1.80712E-07-1.70050E-08
 -1      4246 3.72317E-08-1.15051E-07 9.67695E-09
 -1      4247 1.14584E-07-2.82751E-07 2.56646E-08
 -1      4248 7.48131E-08-9.57799E-08 9.92442E-09
 -1      4249-1.09723E-07-3.86422E-07-3.45593E-08
 -1      4250-2.69746E-08-1.26939E-07-8.75500E-09
 -1      4251 1.04850E-07-2.78871E-07 2.41475E-08
 -1      4252-1.03187E-07-2.24526E-07-1.94298E-08
 -1      4253 1.02772E-07-3.83745E-07 3.36919E-08
 -1      4254 1.00193E-07-3.38420E-07 2.84996E-08
 -1      4255 2.44949E-08-4.44714E-07 1.06718E-08
 -1      4256-1.03789E-07-3.52263E-07-2.93754E-08
 -1      4257 4.46493E-08-2.65980E-08 2.83938E-09
 -1      4258 4.79113E-08-4.28274E-07 1.99105E-08
 -1      4259-3.84078E-08-2.26201E-08-1.97852E-09
 -1      4260 7.37433E-08-4.15351E-07 2.80596E-08
 -1      4261-2.60066E-08-1.72476E-08-1.35067E-09
 -1      4262-9.37379E-08-4.36260E-07-3.48062E-08
 -1      4263-6.22453E-11-5.14788E-08 1.45021E-09
 -1      4264 1.00680E-07-4.00022E-07 3.47257E-08
 -1      4265-4.75160E-08-2.96507E-07-1.45701E-08
 -1      4266-4.30861E-08-2.33577E-08-2.53362E-09
 -1      4267-5.42987E-09-6.51879E-09-2.33910E-10
 -1      4268-1.11426E-07-1.94620E-07-1.79355E-08
 -1      4269-7.96070E-08-7.73477E-08-1.03044E-08
 -1      4270 7.98147E-08-4.44966E-07 3.20573E-08
 -1      4271 3.92696E-08-1.74421E-07 1.26495E-08
 -1      4272-2.47217E-08-3.45156E-07-9.81981E-09
 -1      4273-1.09216E-07-3.94802E-07-3.53430E-08
 -1      4274-6.07910E-08-5.70539E-08-5.32817E-09
 -1      4275-4.84569E-11-5.12895E-08 9.35012E-10
 -1      4276 4.68125E-08-2.97311E-08 3.23848E-09
 -1      4277-1.02912E-07-2.86080E-07-2.30613E-08
 -1      4278-8.80063E-08-9.90570E-08-9.97370E-09
 -1      4279 3.66293E-08-4.44106E-07 1.59114E-08
 -1      4280-9.78678E-08-4.24956E-07-3.50571E-08
 -1      4281-1.16399E-07-2.81438E-07-2.42755E-08
 -1      4282 5.15897E-08-2.36147E-07 1.69673E-08
 -1      4283-8.76156E-08-4.32482E-07-3.25936E-08
 -1      4284-5.06434E-08-2.57810E-07-1.40482E-08
 -1      4285-1.10382E-07-3.83640E-07-3.43724E-08
 -1      4286-1.10368E-07-3.38875E-07-2.93446E-08
 -1      4287 6.09076E-08-4.28487E-07 2.46063E-08
 -1      4288-2.45641E-08-3.46632E-07-9.33642E-09
 -1      4289-3.89369E-08-2.54612E-08-2.17239E-09
 -1      4290 7.53292E-08-4.41171E-07 3.03177E-08
 -1      4291-3.37993E-09-5.98065E-08-1.83951E-09
 -1      4292 8.78167E-08-4.15338E-07 3.23556E-08
 -1      4293-1.59978E-08-1.52765E-08-7.83859E-10
 -1      4294 1.02172E-07-4.07876E-07 3.58924E-08
 -1      4295 1.68950E-09-5.36231E-08 2.22752E-09
 -1      4296 7.36550E-08-7.05103E-08 7.75074E-09
 -1      4297 5.26548E-08-3.64461E-08 5.36068E-09
 -1      4298 4.12095E-08-1.42492E-07 1.11355E-08
 -1      4299-3.23531E-09-6.06668E-09-2.14282E-10
 -1      4300-4.22961E-08-1.58596E-07-1.12938E-08
 -1      4301 9.76905E-08-1.18699E-07 1.47420E-08
 -1      4302 1.13908E-07-3.07521E-07 2.79318E-08
 -1      4303 8.43432E-08-1.18668E-07 1.18538E-08
 -1      4304-1.09023E-07-4.00056E-07-3.58473E-08
 -1      4305 1.00753E-07-3.56483E-07 3.04107E-08
 -1      4306 4.97052E-08-3.34748E-08 3.91506E-09
 -1      4307-4.01511E-08-3.16391E-07-1.56981E-08
 -1      4308 1.82223E-09-5.28314E-08 1.48193E-09
 -1      4309 4.77241E-08-4.44105E-07 2.04721E-08
 -1      4310 1.13645E-07-3.25737E-07 2.95389E-08
 -1      4311 1.12403E-07-2.06757E-07 1.98244E-08
 -1      4312-2.46514E-08-3.53366E-07-9.49558E-09
 -1      4313-4.29738E-08-2.92090E-08-2.80120E-09
 -1      4314 7.36906E-08-4.29279E-07 2.89467E-08
 -1      4315 5.06481E-08-2.92915E-07 1.84628E-08
 -1      4316-3.04517E-08-2.37483E-08-1.93460E-09
 -1      4317 8.92993E-08-4.40861E-07 3.48640E-08
 -1      4318 1.00024E-07-4.16677E-07 3.60768E-08
 -1      4319 1.44761E-09-5.83664E-08 2.60988E-09
 -1      4320 3.80216E-08-3.32998E-07 1.54678E-08
 -1      4321-9.99870E-09-1.33906E-08-6.82015E-10
 -1      4322 3.21343E-08-1.09167E-08 1.56822E-09
 -1      4323-1.77029E-09-5.28167E-09-1.66940E-10
 -1      4324 6.15908E-08-5.44347E-08 8.23758E-09
 -1      4325-6.68831E-08-7.01075E-08-6.52683E-09
 -1      4326-4.86045E-08-3.55382E-08-4.90526E-09
 -1      4327 9.73218E-08-1.75860E-07 1.77335E-08
 -1      4328-8.67847E-08-1.18415E-07-1.30118E-08
 -1      4329 5.22430E-08-3.68247E-08 4.54080E-09
 -1      4330-1.04044E-07-3.08104E-07-2.51150E-08
 -1      4331-5.46211E-08-2.83287E-07-1.56575E-08
 -1      4332 1.14531E-07-2.21621E-07 2.10091E-08
 -1      4333 6.09217E-08-4.43825E-07 2.54819E-08
 -1      4334-1.10465E-07-3.54958E-07-3.11974E-08
 -1      4335-4.42362E-08-3.21355E-08-3.20288E-09
 -1      4336 1.03613E-07-2.37676E-07 2.13210E-08
 -1      4337-1.43619E-08-3.54859E-07-5.30255E-09
 -1      4338 1.03512E-07-3.59469E-07 3.13165E-08
 -1      4339 8.77346E-08-4.27919E-07 3.33210E-08
 -1      4340-1.03517E-07-3.26137E-07-2.67039E-08
 -1      4341-2.15350E-08-2.20047E-08-1.66074E-09
 -1      4342-9.73012E-08-2.07379E-07-1.76183E-08
 -1      4343 1.00213E-07-4.25432E-07 3.69390E-08
 -1      4344-1.01304E-07-4.12227E-07-3.48847E-08
 -1      4345 8.16897E-08-8.54851E-08 9.37228E-09
 -1      4346-1.22664E-09-5.39471E-08-2.81243E-09
 -1      4347-3.80795E-08-3.19270E-07-1.25573E-08
 -1      4348 4.21174E-08-1.79436E-07 1.24681E-08
 -1      4349-5.90418E-09-1.24142E-08-5.38437E-10
 -1      4350 1.11141E-07-3.28751E-07 2.96708E-08
 -1      4351 9.10587E-08-1.46319E-07 1.39603E-08
 -1      4352-1.01698E-09-6.27541E-09-8.58180E-11
 -1      4353 4.60872E-08-2.81865E-07 1.61959E-08
 -1      4354 1.02157E-07-3.71689E-07 3.23000E-08
 -1      4355 5.56690E-08-4.09204E-08 5.21469E-09
 -1      4356-6.80351E-08-5.62309E-08-7.96124E-09
 -1      4357-1.12018E-07-1.79271E-07-1.77157E-08
 -1      4358 3.85358E-08-1.26105E-07 9.91463E-09
 -1      4359 9.59393E-08-4.23800E-07 3.54996E-08
 -1      4360 1.15353E-07-2.36551E-07 2.20177E-08
 -1      4361 2.69580E-08-1.26988E-07 9.88836E-09
 -1      4362-4.80814E-08-3.60365E-08-3.80719E-09
 -1      4363 7.24144E-08-4.41975E-07 2.93820E-08
 -1      4364-3.51149E-08-3.06297E-08-2.74571E-09
 -1      4365-4.72945E-08-2.83271E-07-1.67828E-08
 -1      4366 8.71769E-08-4.36640E-07 3.38422E-08
 -1      4367-1.01696E-07-2.21874E-07-1.88216E-08
 -1      4368-4.03739E-09-6.81355E-08-4.72177E-09
 -1      4369-1.39771E-08-2.09707E-08-1.22552E-09
 -1      4370-7.32391E-08-2.07656E-07-1.56323E-08
 -1      4371 5.80510E-09-6.74354E-08 4.03843E-09
 -1      4372-1.16446E-07-2.38417E-07-2.13021E-08
 -1      4373 4.87117E-10-5.18342E-08-1.93756E-09
 -1      4374-1.11119E-07-3.60891E-07-3.18309E-08
 -1      4375-3.36365E-09-1.22632E-08-3.61117E-10
 -1      4376-3.26204E-08-1.04553E-08-2.65545E-10
 -1      4377-7.39830E-08-8.59723E-08-8.16324E-09
 -1      4378-4.14482E-10-6.57842E-09-4.54666E-11
 -1      4379 4.89962E-08-2.94801E-07 1.69085E-08
 -1      4380 5.93034E-08-4.57168E-08 5.89722E-09
 -1      4381-1.02426E-07-3.29192E-07-2.68289E-08
 -1      4382 4.49193E-08-2.56571E-08 3.33745E-09
 -1      4383-1.04064E-07-1.47888E-07-1.38522E-08
 -1      4384-3.90286E-08-1.13270E-07-8.57154E-09
 -1      4385 8.29298E-08-8.56105E-08 1.17844E-08
 -1      4386 1.16287E-07-2.51966E-07 2.32929E-08
 -1      4387-1.09350E-07-3.71341E-07-3.28277E-08
 -1      4388-5.04295E-08-4.05688E-08-4.41532E-09
 -1      4389 7.35761E-08-4.51401E-07 3.04561E-08
 -1      4390-1.22059E-08-8.95024E-08-7.02607E-09
 -1      4391 8.76323E-08-4.43171E-07 3.45209E-08
 -1      4392-3.08478E-08-3.50993E-07-1.22992E-08
 -1      4393-2.57181E-08-2.90465E-08-2.37420E-09
 -1      4394 4.07268E-08-2.03181E-08 1.47623E-09
 -1      4395-1.00433E-07-2.38974E-07-1.97126E-08
 -1      4396 9.13877E-08-1.07562E-07 1.13397E-08
 -1      4397 1.16410E-07-2.91770E-07 2.65127E-08
 -1      4398-8.61672E-09-1.95845E-08-8.84902E-10
 -1      4399-4.50558E-08-2.05442E-07-1.33219E-08
 -1      4400 1.09631E-07-3.91689E-07 3.63359E-08
 -1      4401 1.10620E-07-3.45561E-07 3.14276E-08
 -1      4402 9.53908E-08-1.77662E-07 1.61226E-08
 -1      4403-1.78031E-09-1.26074E-08-2.19004E-10
 -1      4404 3.82368E-08-3.16733E-07 1.46800E-08
 -1      4405 9.98855E-08-3.87870E-07 3.33185E-08
 -1      4406-2.66951E-11-6.18749E-09 1.08534E-11
 -1      4407 6.30351E-08-5.09635E-08 6.62554E-09
 -1      4408-5.43290E-09-6.55873E-08-2.08808E-09
 -1      4409 2.25004E-08-3.44647E-07 9.90870E-09
 -1      4410 1.16419E-07-2.67165E-07 2.44964E-08
 -1      4411 5.14995E-08-3.97666E-08 5.81235E-09
 -1      4412-4.24031E-08-3.03744E-07-1.37633E-08
 -1      4413-5.48424E-08-4.55735E-08-5.09653E-09
 -1      4414-4.03188E-08-2.50538E-08-2.89530E-09
 -1      4415-2.53131E-08-1.14066E-07-8.89267E-09
 -1      4416 8.90030E-08-1.29552E-07 1.47230E-08
 -1      4417-3.97827E-08-3.85262E-08-3.75062E-09
 -1      4418-7.61060E-08-8.41880E-08-1.06720E-08
 -1      4419-1.04125E-07-2.54146E-07-2.10373E-08
 -1      4420-2.12257E-08-3.52596E-07-8.49229E-09
 -1      4421 2.20910E-08-8.76589E-08 6.06297E-09
 -1      4422-1.68320E-08-2.78478E-08-1.85682E-09
 -1      4423-9.79397E-08-4.05424E-07-3.32894E-08
 -1      4424-7.55367E-08-2.37334E-07-1.71828E-08
 -1      4425 1.32569E-08-3.53806E-07 5.90506E-09
 -1      4426-3.11065E-08-3.40732E-07-1.10852E-08
 -1      4427 2.20313E-08-3.45199E-07 9.29832E-09
 -1      4428-4.51273E-09-1.92997E-08-6.32858E-10
 -1      4429-3.59423E-08-1.94459E-08-8.73323E-10
 -1      4430 3.13895E-08-3.36323E-07 1.26103E-08
 -1      4431-8.18372E-08-1.05827E-07-1.01992E-08
 -1      4432 1.03170E-07-3.33935E-07 2.86497E-08
 -1      4433-9.40287E-08-4.27717E-07-3.41484E-08
 -1      4434-7.20679E-10-1.28537E-08-9.69253E-11
 -1      4435-1.03507E-07-2.94368E-07-2.40176E-08
 -1      4436-8.15146E-08-4.38366E-07-3.11479E-08
 -1      4437 1.02342E-07-4.21985E-07 3.72667E-08
 -1      4438-1.02389E-07-3.91021E-07-3.31232E-08
 -1      4439 6.72740E-08-5.70385E-08 7.45288E-09
 -1      4440-1.02143E-07-3.48660E-07-2.87617E-08
 -1      4441 4.18966E-10-6.31133E-09-1.12235E-12
 -1      4442-1.09713E-07-1.79352E-07-1.62617E-08
 -1      4443 4.32012E-08-3.00529E-07 1.69502E-08
 -1      4444 1.16109E-07-2.81158E-07 2.56324E-08
 -1      4445-1.09540E-07-3.87359E-07-3.46585E-08
 -1      4446-5.61415E-08-4.97309E-08-5.57306E-09
 -1      4447-2.88473E-08-3.69081E-08-3.11235E-09
 -1      4448 4.43435E-08-2.69293E-08 2.24711E-09
 -1      4449-9.90576E-08-2.67494E-07-2.14017E-08
 -1      4450-5.69990E-08-4.09347E-08-5.78279E-09
 -1      4451 9.92548E-08-1.32586E-07 1.34679E-08
 -1      4452-1.03792E-08-3.52661E-07-3.79977E-09
 -1      4453-1.02279E-07-1.32770E-07-1.49337E-08
 -1      4454-1.00253E-08-2.72652E-08-1.39016E-09
 -1      4455-5.03564E-08-2.36019E-07-1.48218E-08
 -1      4456 1.31537E-08-8.70206E-08 5.80133E-09
 -1      4457 2.27224E-08-3.52264E-07 9.74329E-09
 -1      4458 1.10311E-07-3.63840E-07 3.34483E-08
 -1      4459-3.78244E-08-3.25863E-07-1.47735E-08
 -1      4460-2.26534E-09-1.95699E-08-4.22039E-10
 -1      4461 3.72604E-09-5.95716E-08 1.98542E-09
 -1      4462-9.35952E-08-4.33608E-07-3.45262E-08
 -1      4463-3.75658E-10-5.19647E-08 1.96139E-09
 -1      4464 1.02044E-07-4.03690E-07 3.54368E-08
 -1      4465 4.46810E-12-1.29593E-08 2.23276E-12
 -1      4466 7.15822E-08-6.41384E-08 8.41094E-09
 -1      4467 1.03001E-09-6.30706E-09 5.03088E-11
 -1      4468-1.12794E-07-3.35591E-07-2.91997E-08
 -1      4469 3.48695E-08-1.59900E-08 8.65659E-10
 -1      4470 9.36640E-08-4.32481E-07 3.55281E-08
 -1      4471 1.15415E-07-2.94248E-07 2.67358E-08
 -1      4472-2.95727E-09-6.10360E-08-3.74683E-09
 -1      4473-6.06813E-08-5.50041E-08-6.31337E-09
 -1      4474-4.43769E-08-4.77525E-08-4.95268E-09
 -1      4475-1.04012E-07-2.81141E-07-2.29506E-08
 -1      4476 4.02058E-08-1.63773E-08 1.88789E-09
 -1      4477-1.90428E-08-3.61582E-08-2.54342E-09
 -1      4478-7.89754E-08-2.69297E-07-1.91954E-08
 -1      4479 7.17569E-08-6.24356E-08 9.40861E-09
 -1      4480-8.69523E-08-4.29401E-07-3.21296E-08
 -1      4481-5.08155E-08-2.53827E-07-1.54039E-08
 -1      4482 1.13361E-07-1.93398E-07 1.95868E-08
 -1      4483-5.14545E-09-2.70765E-08-9.72424E-10
 -1      4484-3.90574E-08-2.54495E-08-1.54796E-09
 -1      4485-8.75688E-08-1.32493E-07-1.19855E-08
 -1      4486-8.30196E-10-1.95873E-08-1.65303E-10
 -1      4487 1.33701E-09-5.41802E-08 2.84407E-09
 -1      4488 7.53296E-08-7.12524E-08 9.06057E-09
 -1      4489-1.01247E-07-3.63989E-07-3.01370E-08
 -1      4490 7.27935E-10-1.28333E-08 1.21796E-10
 -1      4491-5.90865E-08-2.91742E-07-1.87374E-08
 -1      4492 1.16616E-07-2.50915E-07 2.33127E-08
 -1      4493-8.98014E-09-7.83029E-08-6.12209E-09
 -1      4494 1.10785E-07-3.68244E-07 3.39633E-08
 -1      4495 9.36406E-08-4.40825E-07 3.62546E-08
 -1      4496 1.14773E-07-3.06557E-07 2.78365E-08
 -1      4497 1.93920E-09-6.11733E-09 3.56261E-11
 -1      4498-1.08180E-07-4.02061E-07-3.58437E-08
 -1      4499-6.24946E-08-6.10899E-08-6.98814E-09
 -1      4500-3.57615E-08-3.29720E-07-1.22630E-08
 -1      4501-3.95134E-08-1.67080E-08-8.71764E-10
 -1      4502-3.20323E-08-4.62657E-08-4.11910E-09
 -1      4503 4.86591E-08-3.27833E-08 3.05368E-09
 -1      4504-1.02181E-07-2.95795E-07-2.37969E-08
 -1      4505 1.06783E-07-1.63225E-07 1.60490E-08
 -1      4506-1.11292E-08-3.54612E-08-1.97217E-09
 -1      4507-5.71023E-08-2.70625E-07-1.65782E-08
 -1      4508 1.11117E-07-2.08631E-07 1.94002E-08
 -1      4509 4.36100E-08-2.88211E-08 4.07176E-09
 -1      4510 1.09831E-07-3.80041E-07 3.51591E-08
 -1      4511-2.39612E-08-3.54477E-07-8.87770E-09
 -1      4512 7.17000E-09-3.51988E-07 3.62679E-09
 -1      4513-3.50955E-08-1.53484E-08-1.66644E-09
 -1      4514 7.67609E-08-9.43135E-08 1.15586E-08
 -1      4515-2.30547E-09-2.73111E-08-6.19648E-10
 -1      4516-6.48908E-08-6.18642E-08-8.43022E-09
 -1      4517-9.99618E-08-1.91580E-07-1.75687E-08
 -1      4518-8.26450E-08-4.39510E-07-3.15994E-08
 -1      4519 1.00999E-07-4.16755E-07 3.63687E-08
 -1      4520 2.15445E-11-1.98039E-08 2.27049E-11
 -1      4521 7.75827E-08-7.80996E-08 9.68000E-09
 -1      4522 1.04998E-07-4.21654E-07 3.80270E-08
 -1      4523 1.05851E-07-4.19686E-07 3.81018E-08
 -1      4524 1.05095E-07-4.15401E-07 3.74556E-08
 -1      4525 1.06294E-07-4.08373E-07 3.71294E-08
 -1      4526 1.06460E-07-4.12299E-07 3.75615E-08
 -1      4527 1.06252E-07-4.05311E-07 3.68107E-08
 -1      4528 1.05611E-07-4.00933E-07 3.61905E-08
 -1      4529 1.05266E-07-3.93993E-07 3.53986E-08
 -1      4530 1.05606E-07-3.98317E-07 3.59271E-08
 -1      4531 1.06093E-07-3.91094E-07 3.53245E-08
 -1      4532 1.05412E-07-3.85865E-07 3.46190E-08
 -1      4533 1.06354E-07-3.77012E-07 3.39443E-08
 -1      4534 1.06273E-07-3.82952E-07 3.45262E-08
 -1      4535 1.06587E-07-3.74845E-07 3.37386E-08
 -1      4536 1.06188E-07-3.68821E-07 3.30371E-08
 -1      4537 1.06939E-07-3.60234E-07 3.22714E-08
 -1      4538 1.06855E-07-3.66941E-07 3.29410E-08
 -1      4539 1.06978E-07-3.58428E-07 3.20291E-08
 -1      4540 1.06259E-07-3.51961E-07 3.12502E-08
 -1      4541 1.04711E-07-3.43518E-07 2.99760E-08
 -1      4542 1.06028E-07-3.49888E-07 3.08937E-08
 -1      4543 1.05940E-07-3.41596E-07 2.99973E-08
 -1      4544 1.05850E-07-3.36565E-07 2.95020E-08
 -1      4545 1.07526E-07-3.26400E-07 2.88113E-08
 -1      4546 1.06442E-07-3.32968E-07 2.91963E-08
 -1      4547 1.07430E-07-3.23240E-07 2.83847E-08
 -1      4548 1.08371E-07-3.16527E-07 2.79777E-08
 -1      4549 1.07312E-07-3.04238E-07 2.65635E-08
 -1      4550 1.09313E-07-3.12809E-07 2.76529E-08
 -1      4551 1.10011E-07-3.01147E-07 2.66340E-08
 -1      4552 1.09898E-07-2.91472E-07 2.57813E-08
 -1      4553 1.09283E-07-2.77736E-07 2.44628E-08
 -1      4554 1.10296E-07-2.88696E-07 2.55458E-08
 -1      4555 1.10348E-07-2.75327E-07 2.44484E-08
 -1      4556 1.09421E-07-2.61748E-07 2.31054E-08
 -1      4557 1.09670E-07-2.46310E-07 2.18967E-08
 -1      4558 1.10309E-07-2.60763E-07 2.32435E-08
 -1      4559 1.08484E-07-2.45664E-07 2.19248E-08
 -1      4560 1.06906E-07-2.30860E-07 2.04266E-08
 -1      4561 1.04776E-07-2.15073E-07 1.90541E-08
 -1      4562 1.07362E-07-2.30203E-07 2.07484E-08
 -1      4563 1.06113E-07-2.15100E-07 1.96660E-08
 -1      4564 8.34812E-08-4.49879E-07 3.37012E-08
 -1      4565 7.61270E-08-4.50961E-07 3.12826E-08
 -1      4566 8.34537E-08-4.48220E-07 3.35635E-08
 -1      4567 7.79669E-08-4.49261E-07 3.17911E-08
 -1      4568 6.80148E-08-4.54135E-07 2.86886E-08
 -1      4569 5.42967E-08-4.51212E-07 2.33525E-08
 -1      4570 9.77274E-08-4.35205E-07 3.70516E-08
 -1      4571 9.07908E-08-4.43421E-07 3.55668E-08
 -1      4572 9.06267E-08-4.36583E-07 3.49205E-08
 -1      4573 9.81153E-08-4.33388E-07 3.70151E-08
 -1      4574 9.11339E-08-4.41216E-07 3.54888E-08
 -1      4575 9.11737E-08-4.34500E-07 3.49330E-08
 -1      4576 9.28437E-08-4.23990E-07 3.45620E-08
 -1      4577 8.01762E-08-4.36956E-07 3.15956E-08
 -1      4578 8.01109E-08-4.25774E-07 3.07201E-08
 -1      4579 9.33785E-08-4.10511E-07 3.35649E-08
 -1      4580 9.36980E-08-3.97385E-07 3.25052E-08
 -1      4581 7.99758E-08-4.11734E-07 2.96828E-08
 -1      4582 7.79489E-08-3.95384E-07 2.79341E-08
 -1      4583 6.59755E-08-4.37848E-07 2.68607E-08
 -1      4584 6.63874E-08-4.25057E-07 2.61965E-08
 -1      4585 5.44516E-08-4.39265E-07 2.27082E-08
 -1      4586 5.34855E-08-4.25162E-07 2.17034E-08
 -1      4587 6.67588E-08-4.10806E-07 2.54968E-08
 -1      4588 6.50824E-08-3.95791E-07 2.42030E-08
 -1      4589 5.23668E-08-4.09879E-07 2.07468E-08
 -1      4590 5.14062E-08-3.95484E-07 1.99404E-08
 -1      4591 4.05492E-08-4.53554E-07 1.75921E-08
 -1      4592 3.11119E-08-4.56021E-07 1.31088E-08
 -1      4593 1.90637E-08-4.59011E-07 6.59732E-09
 -1      4594 4.17656E-09-4.62796E-07 3.52770E-09
 -1      4595 4.20245E-08-4.40295E-07 1.77905E-08
 -1      4596 4.08832E-08-4.24135E-07 1.69798E-08
 -1      4597 2.91887E-08-4.39906E-07 1.22577E-08
 -1      4598 2.94777E-08-4.24759E-07 1.24232E-08
 -1      4599 3.98680E-08-4.09147E-07 1.62996E-08
 -1      4600 3.82538E-08-3.94142E-07 1.54725E-08
 -1      4601 2.73689E-08-4.08138E-07 1.15576E-08
 -1      4602 2.51066E-08-3.92952E-07 1.06345E-08
 -1      4603 1.87894E-08-4.38583E-07 7.70745E-09
 -1      4604 1.74034E-08-4.24141E-07 7.58656E-09
 -1      4605 4.71270E-09-4.37835E-07 2.72421E-09
 -1      4606 4.12510E-09-4.22966E-07 2.36547E-09
 -1      4607 1.48654E-08-4.07859E-07 6.64514E-09
 -1      4608 1.56754E-08-3.92123E-07 6.99897E-09
 -1      4609 4.32274E-09-4.07013E-07 2.43105E-09
 -1      4610 3.96902E-09-3.92737E-07 2.26750E-09
 -1      4611 9.41789E-08-3.78687E-07 3.09688E-08
 -1      4612 9.39611E-08-3.64565E-07 2.96434E-08
 -1      4613 7.53767E-08-3.80757E-07 2.62406E-08
 -1      4614 7.63903E-08-3.63920E-07 2.53577E-08
 -1      4615 9.17418E-08-3.48263E-07 2.76400E-08
 -1      4616 9.16301E-08-3.27562E-07 2.58577E-08
 -1      4617 7.49385E-08-3.45892E-07 2.37700E-08
 -1      4618 7.39329E-08-3.29819E-07 2.24296E-08
 -1      4619 6.24307E-08-3.81127E-07 2.27099E-08
 -1      4620 6.04358E-08-3.63052E-07 2.13138E-08
 -1      4621 4.93296E-08-3.81222E-07 1.88350E-08
 -1      4622 4.68792E-08-3.64176E-07 1.75606E-08
 -1      4623 5.75592E-08-3.48869E-07 1.98071E-08
 -1      4624 5.43222E-08-3.28010E-07 1.80398E-08
 -1      4625 4.22896E-08-3.47943E-07 1.56209E-08
 -1      4626 4.15964E-08-3.27921E-07 1.51364E-08
 -1      4627 9.36042E-08-3.07585E-07 2.45892E-08
 -1      4628 8.93404E-08-2.85215E-07 2.21847E-08
 -1      4629 7.09904E-08-3.04771E-07 2.04861E-08
 -1      4630 6.70123E-08-2.84463E-07 1.87081E-08
 -1      4631 8.88291E-08-2.55018E-07 2.01326E-08
 -1      4632 8.62662E-08-2.19857E-07 1.79716E-08
 -1      4633 6.33994E-08-2.55083E-07 1.67882E-08
 -1      4634 5.88516E-08-2.22747E-07 1.50571E-08
 -1      4635 5.34852E-08-3.08472E-07 1.70016E-08
 -1      4636 5.13487E-08-2.90007E-07 1.55206E-08
 -1      4637 4.71097E-08-2.77230E-07 1.44609E-08
 -1      4638 4.22445E-08-2.90273E-07 1.37363E-08
 -1      4639 5.22275E-08-2.87981E-07 1.67457E-08
 -1      4640 4.87401E-08-2.76207E-07 1.60043E-08
 -1      4641 4.00592E-08-3.15152E-07 1.33498E-08
 -1      4642 3.97774E-08-3.10262E-07 1.44843E-08
 -1      4643 4.38817E-08-2.64205E-07 1.36659E-08
 -1      4644 4.40553E-08-2.61657E-07 1.51010E-08
 -1      4645 3.57043E-08-3.79951E-07 1.43497E-08
 -1      4646 3.42054E-08-3.64036E-07 1.35743E-08
 -1      4647 2.42615E-08-3.78098E-07 1.02512E-08
 -1      4648 2.26992E-08-3.62627E-07 9.52698E-09
 -1      4649 3.20482E-08-3.45233E-07 1.26276E-08
 -1      4650 3.16787E-08-3.35326E-07 1.15035E-08
 -1      4651 3.19937E-08-3.32896E-07 1.23241E-08
 -1      4652 2.46155E-08-3.50764E-07 9.65063E-09
 -1      4653 2.36352E-08-3.44400E-07 8.94925E-09
 -1      4654 1.91539E-08-3.50786E-07 7.62101E-09
 -1      4655 2.42367E-08-3.49530E-07 9.99476E-09
 -1      4656 1.94795E-08-3.49643E-07 8.12635E-09
 -1      4657 1.40411E-08-3.77776E-07 6.29097E-09
 -1      4658 1.24953E-08-3.62548E-07 5.55404E-09
 -1      4659 3.22499E-09-3.76184E-07 1.92869E-09
 -1      4660 3.73429E-09-3.62838E-07 2.05271E-09
 -1      4661 1.47950E-08-3.53766E-07 5.92153E-09
 -1      4662 1.56904E-08-3.51049E-07 6.65274E-09
 -1      4663 1.10856E-08-3.51953E-07 4.84913E-09
 -1      4664 1.02905E-07-2.01537E-07 1.79637E-08
 -1      4665 1.04685E-07-1.87040E-07 1.69541E-08
 -1      4666 1.04606E-07-2.00443E-07 1.85604E-08
 -1      4667 1.03697E-07-1.85473E-07 1.76090E-08
 -1      4668 1.04222E-07-1.72404E-07 1.59408E-08
 -1      4669 9.95636E-08-1.56422E-07 1.44685E-08
 -1      4670 1.03059E-07-1.70009E-07 1.65889E-08
 -1      4671 1.00123E-07-1.54020E-07 1.54290E-08
 -1      4672 9.57023E-08-1.39613E-07 1.30430E-08
 -1      4673 9.24385E-08-1.25014E-07 1.19163E-08
 -1      4674 9.66772E-08-1.39036E-07 1.42161E-08
 -1      4675 9.31022E-08-1.25246E-07 1.31812E-08
 -1      4676 8.69922E-08-1.12145E-07 1.08091E-08
 -1      4677 8.31155E-08-1.00712E-07 9.63762E-09
 -1      4678 8.89668E-08-1.12544E-07 1.21439E-08
 -1      4679 8.47046E-08-1.00677E-07 1.11282E-08
 -1      4680 8.01976E-08-9.07332E-08 8.71408E-09
 -1      4681 7.43968E-08-8.18050E-08 8.03850E-09
 -1      4682 7.95749E-08-9.03100E-08 1.01508E-08
 -1      4683 7.52157E-08-8.12117E-08 9.30442E-09
 -1      4684 7.22801E-08-7.53443E-08 7.31505E-09
 -1      4685 6.91793E-08-6.79482E-08 6.46655E-09
 -1      4686 7.19524E-08-7.34831E-08 8.51231E-09
 -1      4687 6.88579E-08-6.65124E-08 7.78989E-09
 -1      4688 6.59302E-08-6.05527E-08 5.90709E-09
 -1      4689 6.15470E-08-5.40134E-08 5.00202E-09
 -1      4690 6.59878E-08-5.98184E-08 7.05760E-09
 -1      4691 6.20151E-08-5.33681E-08 6.25178E-09
 -1      4692 5.80488E-08-4.83226E-08 4.40458E-09
 -1      4693 5.45841E-08-4.33884E-08 3.69544E-09
 -1      4694 5.83511E-08-4.78348E-08 5.52664E-09
 -1      4695 5.49107E-08-4.29640E-08 4.83490E-09
 -1      4696 5.12318E-08-3.88686E-08 3.14457E-09
 -1      4697 4.81511E-08-3.46819E-08 2.53334E-09
 -1      4698 5.16029E-08-3.84622E-08 4.21632E-09
 -1      4699 4.82169E-08-3.45120E-08 3.58275E-09
 -1      4700 4.54764E-08-3.07072E-08 2.08099E-09
 -1      4701 4.24598E-08-2.71934E-08 1.76439E-09
 -1      4702 4.54642E-08-3.08583E-08 3.04914E-09
 -1      4703 4.31069E-08-2.75764E-08 2.58820E-09
 -1      4704 3.98535E-08-2.45188E-08 1.44623E-09
 -1      4705 3.92662E-08-2.18374E-08 1.12939E-09
 -1      4706 4.18566E-08-2.46487E-08 2.22702E-09
 -1      4707 3.97507E-08-2.14094E-08 1.77985E-09
 -1      4708 3.73594E-08-1.85183E-08 8.73114E-10
 -1      4709 3.70779E-08-1.46077E-08 6.04517E-10
 -1      4710 3.77266E-08-1.78971E-08 1.36942E-09
 -1      4711 3.71897E-08-1.36898E-08 9.91649E-10
 -1      4712 8.37624E-08-1.93496E-07 1.63309E-08
 -1      4713 7.97940E-08-1.61240E-07 1.41411E-08
 -1      4714 5.81958E-08-1.93937E-07 1.41200E-08
 -1      4715 5.36158E-08-1.56005E-07 1.23426E-08
 -1      4716 7.50422E-08-1.31015E-07 1.21478E-08
 -1      4717 7.09603E-08-1.09028E-07 1.06580E-08
 -1      4718 5.07707E-08-1.27739E-07 1.08941E-08
 -1      4719 4.88991E-08-1.04315E-07 9.39304E-09
 -1      4720 3.21431E-08-1.48401E-07 1.11009E-08
 -1      4721 3.14281E-08-1.52520E-07 1.09110E-08
 -1      4722 3.25876E-08-1.33763E-07 1.06348E-08
 -1      4723 3.31271E-08-1.21376E-07 1.01166E-08
 -1      4724 2.34068E-08-1.19278E-07 9.91213E-09
 -1      4725 3.07597E-08-1.37079E-07 1.02907E-08
 -1      4726 3.18461E-08-1.21067E-07 9.59415E-09
 -1      4727 2.09228E-08-1.17678E-07 8.90071E-09
 -1      4728 3.02884E-08-1.01162E-07 8.68056E-09
 -1      4729 1.59273E-08-9.54115E-08 8.41680E-09
 -1      4730 1.56460E-08-9.66216E-08 7.39926E-09
 -1      4731 6.31592E-08-8.39760E-08 8.46538E-09
 -1      4732 5.84184E-08-6.89343E-08 7.20653E-09
 -1      4733 4.64745E-08-8.29967E-08 7.79208E-09
 -1      4734 4.25924E-08-6.74892E-08 6.41733E-09
 -1      4735 5.27938E-08-5.52634E-08 5.58818E-09
 -1      4736 4.67836E-08-4.34457E-08 4.24496E-09
 -1      4737 3.87685E-08-5.20886E-08 4.85551E-09
 -1      4738 3.46540E-08-4.20375E-08 3.68696E-09
 -1      4739 2.83818E-08-8.06319E-08 7.12918E-09
 -1      4740 2.84908E-08-6.41815E-08 5.69927E-09
 -1      4741 1.55040E-08-7.85817E-08 6.24491E-09
 -1      4742 1.64341E-08-6.23143E-08 5.10779E-09
 -1      4743 2.69684E-08-5.28185E-08 4.49929E-09
 -1      4744 2.48103E-08-4.09919E-08 3.24236E-09
 -1      4745 1.58455E-08-5.08983E-08 3.87092E-09
 -1      4746 1.54540E-08-4.07607E-08 2.82349E-09
 -1      4747 6.49989E-09-7.35180E-08 6.24858E-09
 -1      4748 6.74074E-09-7.25841E-08 4.92389E-09
 -1      4749 6.03745E-09-6.01090E-08 4.28779E-09
 -1      4750 1.28634E-09-6.14464E-08 4.59423E-09
 -1      4751 1.67321E-09-5.66052E-08 3.87844E-09
 -1      4752 3.11289E-10-5.53240E-08 3.44048E-09
 -1      4753 1.99653E-09-5.64909E-08 3.02480E-09
 -1      4754 6.03597E-10-5.52960E-08 2.47937E-09
 -1      4755 7.02380E-09-5.07285E-08 3.38581E-09
 -1      4756 7.68125E-09-4.05050E-08 2.33963E-09
 -1      4757 1.74340E-09-4.98373E-08 2.59994E-09
 -1      4758 2.78260E-09-4.05988E-08 1.76557E-09
 -1      4759-4.94873E-10-5.38192E-08 2.84803E-09
 -1      4760 2.50459E-11-5.40312E-08 2.22269E-09
 -1      4761-2.38247E-10-4.82386E-08 1.57212E-09
 -1      4762 6.61862E-10-4.02866E-08 1.17259E-09
 -1      4763-2.61852E-10-4.72220E-08 6.26850E-10
 -1      4764 4.27483E-11-4.06307E-08 3.90307E-10
 -1      4765 4.13552E-08-3.54316E-08 3.04659E-09
 -1      4766 3.68261E-08-2.79867E-08 2.04525E-09
 -1      4767 3.11892E-08-3.38311E-08 2.58309E-09
 -1      4768 2.62874E-08-2.67725E-08 1.65713E-09
 -1      4769 3.20379E-08-2.13446E-08 1.35548E-09
 -1      4770 2.86125E-08-1.53197E-08 6.21128E-10
 -1      4771 2.15091E-08-1.92256E-08 5.99906E-10
 -1      4772 1.70282E-08-1.31261E-08-1.17624E-10
 -1      4773 2.20622E-08-3.33853E-08 2.28728E-09
 -1      4774 1.82551E-08-2.48788E-08 1.28254E-09
 -1      4775 1.40715E-08-3.17567E-08 1.85452E-09
 -1      4776 1.15417E-08-2.35321E-08 9.77121E-10
 -1      4777 1.48811E-08-1.81305E-08 4.49672E-10
 -1      4778 1.04678E-08-1.14224E-08-4.00079E-10
 -1      4779 9.05985E-09-1.63220E-08 2.16877E-10
 -1      4780 5.78049E-09-9.31065E-09-4.37083E-10
 -1      4781 2.54282E-08-4.96027E-09-3.16332E-10
 -1      4782 9.41107E-09-6.96537E-09-7.87014E-10
 -1      4783 4.24755E-09-3.79738E-09-9.01490E-10
 -1      4784 1.98142E-09-2.79489E-09-5.08116E-10
 -1      4785 7.66125E-09-3.22058E-08 1.54074E-09
 -1      4786 6.38535E-09-2.33676E-08 7.40627E-10
 -1      4787 3.33270E-09-3.21931E-08 1.13107E-09
 -1      4788 3.20626E-09-2.35687E-08 5.50341E-10
 -1      4789 5.03645E-09-1.52268E-08 1.68854E-10
 -1      4790 3.27563E-09-8.88935E-09-2.51612E-10
 -1      4791 2.79650E-09-1.57056E-08 1.52759E-10
 -1      4792 1.94033E-09-9.61011E-09-1.67116E-10
 -1      4793 1.43283E-09-3.19206E-08 7.67636E-10
 -1      4794 1.51921E-09-2.39090E-08 3.87709E-10
 -1      4795 3.63005E-10-3.14516E-08 2.99143E-10
 -1      4796 3.88977E-10-2.33073E-08 1.36280E-10
 -1      4797 1.29717E-09-1.63679E-08 9.65271E-11
 -1      4798 1.04485E-09-9.84611E-09-8.26160E-11
 -1      4799 4.10884E-10-1.65027E-08 5.18618E-11
 -1      4800 2.27109E-10-9.86880E-09-6.94077E-12
 -1      4801 1.29233E-09-2.98280E-09-3.49729E-10
 -1      4802 1.00627E-09-4.29536E-09-2.58479E-10
 -1      4803 4.19204E-10-3.67531E-09-1.33112E-10
 -1      4804 1.53242E-10-3.70229E-09-2.70999E-11
 -1      4805-9.42710E-09-4.57161E-07-1.01589E-09
 -1      4806-2.24210E-08-4.54724E-07-8.48799E-09
 -1      4807-3.36403E-08-4.52446E-07-1.41230E-08
 -1      4808-4.19507E-08-4.50379E-07-1.76509E-08
 -1      4809-9.00536E-09-4.38156E-07-2.46939E-09
 -1      4810-7.82178E-09-4.22846E-07-2.38925E-09
 -1      4811-2.00443E-08-4.38571E-07-7.32848E-09
 -1      4812-1.87359E-08-4.23441E-07-6.93931E-09
 -1      4813-7.67992E-09-4.07297E-07-2.47837E-09
 -1      4814-7.76900E-09-3.92085E-07-2.57451E-09
 -1      4815-1.83302E-08-4.08805E-07-6.84901E-09
 -1      4816-1.77958E-08-3.93005E-07-6.68201E-09
 -1      4817-3.15713E-08-4.39261E-07-1.26139E-08
 -1      4818-3.19027E-08-4.23055E-07-1.24806E-08
 -1      4819-4.32297E-08-4.38168E-07-1.75529E-08
 -1      4820-4.23214E-08-4.24007E-07-1.66717E-08
 -1      4821-2.90243E-08-4.07939E-07-1.11923E-08
 -1      4822-2.79524E-08-3.91772E-07-1.07108E-08
 -1      4823-4.07163E-08-4.09940E-07-1.56843E-08
 -1      4824-3.99343E-08-3.93022E-07-1.51263E-08
 -1      4825-5.48578E-08-4.50096E-07-2.27919E-08
 -1      4826-6.80106E-08-4.47827E-07-2.73882E-08
 -1      4827-7.74695E-08-4.47587E-07-3.05531E-08
 -1      4828-8.41540E-08-4.46721E-07-3.26766E-08
 -1      4829-7.88386E-08-4.46268E-07-3.09041E-08
 -1      4830-8.36507E-08-4.45331E-07-3.23927E-08
 -1      4831-5.39381E-08-4.35076E-07-2.15596E-08
 -1      4832-5.48829E-08-4.23303E-07-2.12636E-08
 -1      4833-6.74987E-08-4.36351E-07-2.64006E-08
 -1      4834-6.70327E-08-4.23096E-07-2.53686E-08
 -1      4835-5.43252E-08-4.08302E-07-2.04544E-08
 -1      4836-5.20708E-08-3.93222E-07-1.91952E-08
 -1      4837-6.68402E-08-4.09574E-07-2.45230E-08
 -1      4838-6.52910E-08-3.95089E-07-2.32701E-08
 -1      4839-8.15981E-08-4.36044E-07-3.09937E-08
 -1      4840-8.00356E-08-4.23495E-07-2.95285E-08
 -1      4841-8.93768E-08-4.40308E-07-3.37987E-08
 -1      4842-8.98586E-08-4.34211E-07-3.34236E-08
 -1      4843-9.63821E-08-4.33695E-07-3.53956E-08
 -1      4844-9.11174E-08-4.38788E-07-3.42097E-08
 -1      4845-9.12919E-08-4.32514E-07-3.37241E-08
 -1      4846-9.77808E-08-4.31529E-07-3.56226E-08
 -1      4847-9.22222E-08-4.23528E-07-3.32406E-08
 -1      4848-8.02589E-08-4.08838E-07-2.85192E-08
 -1      4849-7.99240E-08-3.95761E-07-2.74976E-08
 -1      4850-9.39156E-08-4.08046E-07-3.24011E-08
 -1      4851-9.35274E-08-3.96217E-07-3.12431E-08
 -1      4852-6.51539E-09-3.76940E-07-2.09238E-09
 -1      4853-5.34747E-09-3.64852E-07-1.59064E-09
 -1      4854-1.62263E-08-3.78337E-07-6.05706E-09
 -1      4855-1.49828E-08-3.62981E-07-5.52016E-09
 -1      4856-1.72493E-08-3.55158E-07-5.94842E-09
 -1      4857-1.70495E-08-3.50998E-07-6.12634E-09
 -1      4858-2.57938E-08-3.77322E-07-9.82131E-09
 -1      4859-2.45826E-08-3.62149E-07-9.24256E-09
 -1      4860-3.74753E-08-3.78647E-07-1.40279E-08
 -1      4861-3.53815E-08-3.63001E-07-1.30979E-08
 -1      4862-2.15488E-08-3.55496E-07-7.70674E-09
 -1      4863-2.57073E-08-3.55029E-07-9.26062E-09
 -1      4864-2.64933E-08-3.45641E-07-9.11575E-09
 -1      4865-2.12416E-08-3.50981E-07-7.84368E-09
 -1      4866-2.61896E-08-3.50519E-07-9.76877E-09
 -1      4867-2.66448E-08-3.42953E-07-9.68109E-09
 -1      4868-3.43884E-08-3.48726E-07-1.24612E-08
 -1      4869-3.31834E-08-3.36205E-07-1.11010E-08
 -1      4870-3.33041E-08-3.34177E-07-1.19088E-08
 -1      4871-4.99337E-08-3.79323E-07-1.80708E-08
 -1      4872-4.77764E-08-3.63225E-07-1.69646E-08
 -1      4873-6.37232E-08-3.79719E-07-2.20639E-08
 -1      4874-6.12509E-08-3.64562E-07-2.06823E-08
 -1      4875-4.41722E-08-3.47098E-07-1.53246E-08
 -1      4876-4.22650E-08-3.30098E-07-1.44392E-08
 -1      4877-5.86263E-08-3.47861E-07-1.92569E-08
 -1      4878-5.49066E-08-3.31034E-07-1.75171E-08
 -1      4879-7.74347E-08-3.81754E-07-2.58473E-08
 -1      4880-7.68087E-08-3.63875E-07-2.44275E-08
 -1      4881-9.26764E-08-3.79449E-07-2.95426E-08
 -1      4882-9.24944E-08-3.64203E-07-2.81331E-08
 -1      4883-7.52020E-08-3.48769E-07-2.30291E-08
 -1      4884-7.06308E-08-3.31594E-07-2.09237E-08
 -1      4885-9.32551E-08-3.47162E-07-2.67455E-08
 -1      4886-9.35269E-08-3.29468E-07-2.52341E-08
 -1      4887-4.11600E-08-3.15056E-07-1.27701E-08
 -1      4888-4.09163E-08-3.11807E-07-1.38680E-08
 -1      4889-5.22700E-08-3.10391E-07-1.59998E-08
 -1      4890-4.33319E-08-2.93614E-07-1.30411E-08
 -1      4891-5.05091E-08-2.90874E-07-1.45896E-08
 -1      4892-4.79897E-08-2.80667E-07-1.38333E-08
 -1      4893-5.18736E-08-2.89297E-07-1.58887E-08
 -1      4894-4.83869E-08-2.75989E-07-1.49239E-08
 -1      4895-4.64774E-08-2.67142E-07-1.33068E-08
 -1      4896-4.55856E-08-2.64186E-07-1.42882E-08
 -1      4897-7.07439E-08-3.09862E-07-1.95690E-08
 -1      4898-6.71628E-08-2.85635E-07-1.77876E-08
 -1      4899-9.35089E-08-3.10516E-07-2.36371E-08
 -1      4900-9.03919E-08-2.86251E-07-2.12721E-08
 -1      4901-6.42422E-08-2.57244E-07-1.60818E-08
 -1      4902-6.04805E-08-2.24070E-07-1.45203E-08
 -1      4903-8.92984E-08-2.53831E-07-1.90317E-08
 -1      4904-8.82425E-08-2.22323E-07-1.72352E-08
 -1      4905-1.03348E-07-4.19524E-07-3.61750E-08
 -1      4906-1.04763E-07-4.18644E-07-3.64976E-08
 -1      4907-1.03173E-07-4.14227E-07-3.56155E-08
 -1      4908-1.05299E-07-4.07384E-07-3.55696E-08
 -1      4909-1.05722E-07-4.12231E-07-3.61532E-08
 -1      4910-1.05464E-07-4.04858E-07-3.53551E-08
 -1      4911-1.04198E-07-4.00643E-07-3.45960E-08
 -1      4912-1.03840E-07-3.92790E-07-3.37210E-08
 -1      4913-1.04915E-07-3.98026E-07-3.45146E-08
 -1      4914-1.05617E-07-3.90952E-07-3.39819E-08
 -1      4915-1.04953E-07-3.85509E-07-3.32564E-08
 -1      4916-1.05239E-07-3.77780E-07-3.25476E-08
 -1      4917-1.06013E-07-3.82610E-07-3.32098E-08
 -1      4918-1.06189E-07-3.74859E-07-3.24119E-08
 -1      4919-1.05556E-07-3.68954E-07-3.16894E-08
 -1      4920-1.06543E-07-3.60377E-07-3.10037E-08
 -1      4921-1.06410E-07-3.67036E-07-3.16150E-08
 -1      4922-1.06810E-07-3.58962E-07-3.08140E-08
 -1      4923-1.07553E-07-3.52785E-07-3.04021E-08
 -1      4924-1.07842E-07-3.44053E-07-2.95096E-08
 -1      4925-1.06623E-07-3.50727E-07-2.98643E-08
 -1      4926-1.06550E-07-3.42209E-07-2.89195E-08
 -1      4927-1.05914E-07-3.35528E-07-2.81842E-08
 -1      4928-1.06391E-07-3.26811E-07-2.73693E-08
 -1      4929-1.06601E-07-3.33562E-07-2.80181E-08
 -1      4930-1.07358E-07-3.24246E-07-2.71920E-08
 -1      4931-1.05810E-07-3.15376E-07-2.61157E-08
 -1      4932-1.08920E-07-3.04468E-07-2.56168E-08
 -1      4933-1.08192E-07-3.13741E-07-2.62842E-08
 -1      4934-1.10077E-07-3.02537E-07-2.55020E-08
 -1      4935-1.10176E-07-2.93068E-07-2.47227E-08
 -1      4936-1.09493E-07-2.79389E-07-2.34143E-08
 -1      4937-1.10465E-07-2.90150E-07-2.44391E-08
 -1      4938-1.10274E-07-2.76782E-07-2.32994E-08
 -1      4939-1.09684E-07-2.63284E-07-2.20613E-08
 -1      4940-1.10305E-07-2.47593E-07-2.09001E-08
 -1      4941-1.10416E-07-2.62363E-07-2.21721E-08
 -1      4942-1.10406E-07-2.46963E-07-2.10531E-08
 -1      4943-1.07096E-07-2.32677E-07-1.94511E-08
 -1      4944-1.02243E-07-2.16813E-07-1.78844E-08
 -1      4945-1.08067E-07-2.31539E-07-1.97714E-08
 -1      4946-1.06286E-07-2.16233E-07-1.86718E-08
 -1      4947 5.00541E-10-5.45510E-08-2.85722E-09
 -1      4948 9.76528E-11-5.42907E-08-1.98862E-09
 -1      4949 2.60401E-10-4.71118E-08-3.11790E-10
 -1      4950 1.66731E-12-3.96337E-08-3.04974E-10
 -1      4951 2.73731E-10-4.89255E-08-1.47819E-09
 -1      4952-6.24943E-10-3.95509E-08-1.03141E-09
 -1      4953-1.03892E-10-5.58850E-08-3.30256E-09
 -1      4954-1.59879E-09-6.30072E-08-4.59766E-09
 -1      4955-1.96072E-09-5.82270E-08-4.02899E-09
 -1      4956-7.25698E-10-5.56867E-08-2.43693E-09
 -1      4957-2.13849E-09-5.67327E-08-2.87027E-09
 -1      4958-5.71087E-09-7.29662E-08-5.98180E-09
 -1      4959-6.39166E-09-7.28696E-08-4.61821E-09
 -1      4960-6.42722E-09-6.13883E-08-3.94006E-09
 -1      4961-1.74982E-09-4.91802E-08-2.33971E-09
 -1      4962-2.84772E-09-4.02377E-08-1.60438E-09
 -1      4963-7.02925E-09-4.96917E-08-3.05729E-09
 -1      4964-7.43470E-09-3.98306E-08-2.06993E-09
 -1      4965-2.99697E-08-1.49898E-07-1.05193E-08
 -1      4966-3.12847E-08-1.49713E-07-1.02255E-08
 -1      4967-1.62110E-08-9.47194E-08-8.16794E-09
 -1      4968-1.55715E-08-9.63771E-08-7.08082E-09
 -1      4969-3.09403E-08-1.36143E-07-1.00540E-08
 -1      4970-3.32670E-08-1.21608E-07-9.57596E-09
 -1      4971-3.18029E-08-1.36938E-07-9.68675E-09
 -1      4972-3.25683E-08-1.21999E-07-9.07231E-09
 -1      4973-3.11721E-08-1.00656E-07-8.17856E-09
 -1      4974-5.34599E-08-1.93906E-07-1.29188E-08
 -1      4975-5.44541E-08-1.61279E-07-1.19081E-08
 -1      4976-8.63662E-08-1.92460E-07-1.55720E-08
 -1      4977-8.03399E-08-1.60857E-07-1.33236E-08
 -1      4978-4.92169E-08-1.30293E-07-1.02764E-08
 -1      4979-5.04866E-08-1.05723E-07-8.95612E-09
 -1      4980-7.61462E-08-1.33215E-07-1.17031E-08
 -1      4981-7.04599E-08-1.02847E-07-9.36706E-09
 -1      4982-1.47597E-08-7.77308E-08-6.04430E-09
 -1      4983-1.45808E-08-6.34169E-08-4.83791E-09
 -1      4984-2.86756E-08-8.07096E-08-6.72120E-09
 -1      4985-2.77422E-08-6.45441E-08-5.27309E-09
 -1      4986-1.55968E-08-5.11178E-08-3.62749E-09
 -1      4987-1.50301E-08-4.06561E-08-2.57346E-09
 -1      4988-2.62508E-08-5.18788E-08-4.02202E-09
 -1      4989-2.44855E-08-4.16560E-08-2.94979E-09
 -1      4990-4.43635E-08-8.12017E-08-7.04746E-09
 -1      4991-4.26648E-08-6.69071E-08-5.84820E-09
 -1      4992-6.54405E-08-8.46780E-08-8.02992E-09
 -1      4993-5.85520E-08-6.82385E-08-6.37482E-09
 -1      4994-3.97203E-08-5.30557E-08-4.42025E-09
 -1      4995-3.52179E-08-4.24549E-08-3.23139E-09
 -1      4996-5.36824E-08-5.52835E-08-5.19178E-09
 -1      4997-4.69489E-08-4.40626E-08-3.78935E-09
 -1      4998-2.00654E-10-3.14785E-08-1.45561E-10
 -1      4999-2.96416E-10-2.34181E-08-6.49472E-11
 -1      5000-1.17891E-09-3.18149E-08-5.90370E-10
 -1      5001-1.22101E-09-2.31378E-08-2.54131E-10
 -1      5002-3.42882E-10-1.63058E-08-1.51320E-11
 -1      5003-2.74399E-10-9.59310E-09 1.42103E-11
 -1      5004-1.28702E-09-1.60183E-08-6.09816E-11
 -1      5005-9.48978E-10-9.92296E-09 8.19777E-11
 -1      5006-3.23809E-09-3.17242E-08-9.76739E-10
 -1      5007-3.15984E-09-2.34744E-08-4.82305E-10
 -1      5008-7.39952E-09-3.16990E-08-1.32004E-09
 -1      5009-6.54297E-09-2.31442E-08-6.39125E-10
 -1      5010-2.76979E-09-1.58343E-08-9.73861E-11
 -1      5011-2.02311E-09-1.00380E-08 1.48720E-10
 -1      5012-5.34825E-09-1.57191E-08-9.45964E-11
 -1      5013-3.32092E-09-9.11591E-09 2.38853E-10
 -1      5014-9.78001E-11-3.34507E-09 3.35576E-11
 -1      5015-3.80143E-10-3.25482E-09 1.19278E-10
 -1      5016-6.82501E-10-2.86196E-09 1.02919E-10
 -1      5017-1.35005E-09-3.16513E-09 4.06770E-10
 -1      5018-1.39446E-08-3.14382E-08-1.63005E-09
 -1      5019-1.15301E-08-2.39399E-08-9.16070E-10
 -1      5020-2.18558E-08-3.22094E-08-1.88098E-09
 -1      5021-1.95994E-08-2.46303E-08-1.10189E-09
 -1      5022-8.95568E-09-1.59991E-08-9.22370E-11
 -1      5023-5.98256E-09-9.58337E-09 3.40019E-10
 -1      5024-1.52320E-08-1.79313E-08-2.94943E-10
 -1      5025-1.03138E-08-1.15512E-08 4.41661E-10
 -1      5026-3.24929E-08-3.35765E-08-2.27978E-09
 -1      5027-2.76324E-08-2.61185E-08-1.28843E-09
 -1      5028-4.21198E-08-3.54458E-08-2.68145E-09
 -1      5029-3.73031E-08-2.85497E-08-1.78680E-09
 -1      5030-2.33116E-08-1.97146E-08-5.71091E-10
 -1      5031-1.69711E-08-1.31133E-08 2.84554E-10
 -1      5032-3.29621E-08-2.16268E-08-1.07049E-09
 -1      5033-2.82206E-08-1.55864E-08-2.78026E-10
 -1      5034-1.92400E-09-2.76868E-09 4.41625E-10
 -1      5035-3.08041E-09-2.95854E-09 5.95530E-10
 -1      5036-1.11180E-08-7.47592E-09 6.99327E-10
 -1      5037-2.49027E-08-6.54915E-09 3.39520E-10
 -1      5038-1.01546E-07-2.01219E-07-1.68202E-08
 -1      5039-1.03065E-07-1.88232E-07-1.59733E-08
 -1      5040-1.04756E-07-2.01297E-07-1.76166E-08
 -1      5041-1.03620E-07-1.86462E-07-1.66359E-08
 -1      5042-1.03324E-07-1.72992E-07-1.49848E-08
 -1      5043-9.89321E-08-1.57028E-07-1.36165E-08
 -1      5044-1.03175E-07-1.70978E-07-1.56307E-08
 -1      5045-1.00353E-07-1.55091E-07-1.45651E-08
 -1      5046-9.70522E-08-1.41663E-07-1.24490E-08
 -1      5047-9.16370E-08-1.27369E-07-1.11396E-08
 -1      5048-9.71916E-08-1.40262E-07-1.34801E-08
 -1      5049-9.33632E-08-1.24957E-07-1.22127E-08
 -1      5050-8.81356E-08-1.14009E-07-1.02962E-08
 -1      5051-8.45963E-08-1.01547E-07-9.01570E-09
 -1      5052-8.82479E-08-1.10265E-07-1.11421E-08
 -1      5053-8.39171E-08-1.00468E-07-1.03953E-08
 -1      5054-8.02419E-08-9.07395E-08-8.05147E-09
 -1      5055-7.48421E-08-8.20257E-08-7.38018E-09
 -1      5056-8.05093E-08-9.10336E-08-9.54692E-09
 -1      5057-7.64113E-08-8.19916E-08-8.70525E-09
 -1      5058-7.25885E-08-7.51729E-08-6.67779E-09
 -1      5059-6.94244E-08-6.75039E-08-5.98160E-09
 -1      5060-7.28027E-08-7.41095E-08-7.91607E-09
 -1      5061-6.93254E-08-6.67369E-08-7.16504E-09
 -1      5062-6.59282E-08-6.08824E-08-5.32753E-09
 -1      5063-6.25018E-08-5.45623E-08-4.47601E-09
 -1      5064-6.63571E-08-6.00283E-08-6.47121E-09
 -1      5065-6.24968E-08-5.37023E-08-5.68058E-09
 -1      5066-5.84825E-08-4.85027E-08-3.78141E-09
 -1      5067-5.43098E-08-4.30644E-08-3.16678E-09
 -1      5068-5.87512E-08-4.80509E-08-4.97426E-09
 -1      5069-5.52481E-08-4.30520E-08-4.35442E-09
 -1      5070-5.07856E-08-3.87822E-08-2.71277E-09
 -1      5071-4.76308E-08-3.44332E-08-2.19940E-09
 -1      5072-5.18463E-08-3.85388E-08-3.75583E-09
 -1      5073-4.83681E-08-3.44706E-08-3.15687E-09
 -1      5074-4.45944E-08-3.05917E-08-1.71019E-09
 -1      5075-4.25458E-08-2.70597E-08-1.41528E-09
 -1      5076-4.55736E-08-3.08183E-08-2.67986E-09
 -1      5077-4.29955E-08-2.74116E-08-2.19978E-09
 -1      5078-4.02903E-08-2.44060E-08-1.10313E-09
 -1      5079-3.91652E-08-2.15066E-08-8.57745E-10
 -1      5080-4.08777E-08-2.43345E-08-1.84883E-09
 -1      5081-3.92167E-08-2.13130E-08-1.44603E-09
 -1      5082-3.70555E-08-1.81532E-08-4.67777E-10
 -1      5083-3.65129E-08-1.39226E-08-3.39594E-10
 -1      5084-3.76559E-08-1.79125E-08-1.12220E-09
 -1      5085-3.70724E-08-1.36609E-08-8.11756E-10
 -1      5086 1.06419E-07-4.18628E-07 3.81697E-08
 -1      5087 1.06924E-07-4.14526E-07 3.79197E-08
 -1      5088 1.06947E-07-4.10533E-07 3.75346E-08
 -1      5089 1.06739E-07-4.03132E-07 3.67342E-08
 -1      5090 1.07089E-07-4.08368E-07 3.73588E-08
 -1      5091 1.07867E-07-4.01135E-07 3.68405E-08
 -1      5092 1.06027E-07-3.96101E-07 3.58179E-08
 -1      5093 1.06122E-07-3.88720E-07 3.50826E-08
 -1      5094 1.06834E-07-3.94260E-07 3.58459E-08
 -1      5095 1.06477E-07-3.85932E-07 3.48551E-08
 -1      5096 1.06219E-07-3.80837E-07 3.42721E-08
 -1      5097 1.06289E-07-3.72940E-07 3.34391E-08
 -1      5098 1.07033E-07-3.78403E-07 3.41849E-08
 -1      5099 1.07747E-07-3.70482E-07 3.34781E-08
 -1      5100 1.06635E-07-3.64946E-07 3.26369E-08
 -1      5101 1.06823E-07-3.56753E-07 3.17615E-08
 -1      5102 1.07891E-07-3.62041E-07 3.25207E-08
 -1      5103 1.09263E-07-3.53805E-07 3.18754E-08
 -1      5104 1.06782E-07-3.48683E-07 3.08668E-08
 -1      5105 1.07134E-07-3.40318E-07 3.00405E-08
 -1      5106 1.09146E-07-3.46965E-07 3.10544E-08
 -1      5107 1.10107E-07-3.37236E-07 3.01209E-08
 -1      5108 1.08469E-07-3.31342E-07 2.93354E-08
 -1      5109 1.09170E-07-3.21485E-07 2.84276E-08
 -1      5110 1.08160E-07-3.29094E-07 2.89446E-08
 -1      5111 1.09496E-07-3.20135E-07 2.82288E-08
 -1      5112 1.09906E-07-3.11010E-07 2.75082E-08
 -1      5113 1.10724E-07-2.99324E-07 2.65417E-08
 -1      5114 1.09451E-07-3.09980E-07 2.72456E-08
 -1      5115 1.11862E-07-2.97658E-07 2.64307E-08
 -1      5116 1.11142E-07-2.86853E-07 2.55009E-08
 -1      5117 1.11548E-07-2.73674E-07 2.44830E-08
 -1      5118 1.14077E-07-2.85712E-07 2.56865E-08
 -1      5119 1.12760E-07-2.72563E-07 2.45140E-08
 -1      5120 1.11432E-07-2.59456E-07 2.34054E-08
 -1      5121 1.10760E-07-2.44121E-07 2.22630E-08
 -1      5122 1.11824E-07-2.57680E-07 2.34207E-08
 -1      5123 1.11770E-07-2.41568E-07 2.24210E-08
 -1      5124 1.08553E-07-2.28949E-07 2.11140E-08
 -1      5125 1.07046E-07-2.13887E-07 2.00436E-08
 -1      5126 1.10232E-07-2.27540E-07 2.15020E-08
 -1      5127 1.07484E-07-2.12492E-07 2.04847E-08
 -1      5128 8.44916E-08-4.45522E-07 3.36846E-08
 -1      5129 7.88209E-08-4.46714E-07 3.18964E-08
 -1      5130 8.64502E-08-4.42070E-07 3.40386E-08
 -1      5131 7.89757E-08-4.43557E-07 3.16942E-08
 -1      5132 6.85442E-08-4.48238E-07 2.84818E-08
 -1      5133 5.45938E-08-4.46255E-07 2.33356E-08
 -1      5134 9.86265E-08-4.31317E-07 3.69880E-08
 -1      5135 9.17505E-08-4.39077E-07 3.55030E-08
 -1      5136 9.17440E-08-4.32137E-07 3.49182E-08
 -1      5137 9.88702E-08-4.28677E-07 3.68211E-08
 -1      5138 9.15265E-08-4.35877E-07 3.51581E-08
 -1      5139 9.20071E-08-4.29028E-07 3.47368E-08
 -1      5140 9.39595E-08-4.19308E-07 3.45135E-08
 -1      5141 8.08462E-08-4.33587E-07 3.15745E-08
 -1      5142 8.15784E-08-4.19320E-07 3.07879E-08
 -1      5143 9.45166E-08-4.06029E-07 3.35390E-08
 -1      5144 9.52539E-08-3.91459E-07 3.24801E-08
 -1      5145 8.00229E-08-4.06479E-07 2.94224E-08
 -1      5146 8.03169E-08-3.89844E-07 2.84000E-08
 -1      5147 6.76714E-08-4.35466E-07 2.73552E-08
 -1      5148 6.83343E-08-4.19987E-07 2.66630E-08
 -1      5149 5.48412E-08-4.31767E-07 2.26601E-08
 -1      5150 5.50190E-08-4.18561E-07 2.21577E-08
 -1      5151 6.75991E-08-4.05311E-07 2.56698E-08
 -1      5152 6.55505E-08-3.89804E-07 2.43443E-08
 -1      5153 5.43606E-08-4.03833E-07 2.14165E-08
 -1      5154 5.20284E-08-3.88970E-07 2.02457E-08
 -1      5155 4.25291E-08-4.47490E-07 1.87823E-08
 -1      5156 3.08933E-08-4.48948E-07 1.41583E-08
 -1      5157 1.99896E-08-4.50544E-07 9.80174E-09
 -1      5158 4.72820E-09-4.51032E-07 2.35418E-09
 -1      5159 4.16017E-08-4.31904E-07 1.77364E-08
 -1      5160 4.22661E-08-4.18193E-07 1.75796E-08
 -1      5161 2.96039E-08-4.33405E-07 1.30547E-08
 -1      5162 2.93645E-08-4.17845E-07 1.26051E-08
 -1      5163 4.10971E-08-4.04109E-07 1.68802E-08
 -1      5164 3.87905E-08-3.88411E-07 1.58767E-08
 -1      5165 2.75397E-08-4.03368E-07 1.17791E-08
 -1      5166 2.59867E-08-3.88432E-07 1.11921E-08
 -1      5167 1.82261E-08-4.32152E-07 8.36816E-09
 -1      5168 1.74938E-08-4.16930E-07 7.79474E-09
 -1      5169 6.01530E-09-4.32545E-07 2.97804E-09
 -1      5170 4.71183E-09-4.16711E-07 2.54404E-09
 -1      5171 1.59870E-08-4.03502E-07 7.18179E-09
 -1      5172 1.53862E-08-3.86364E-07 7.01481E-09
 -1      5173 4.04713E-09-4.01705E-07 2.28192E-09
 -1      5174 3.84085E-09-3.86291E-07 2.23291E-09
 -1      5175 9.47909E-08-3.75205E-07 3.09144E-08
 -1      5176 9.55802E-08-3.60763E-07 2.97702E-08
 -1      5177 7.83674E-08-3.74474E-07 2.68976E-08
 -1      5178 7.89316E-08-3.58792E-07 2.60679E-08
 -1      5179 9.42150E-08-3.42254E-07 2.78513E-08
 -1      5180 9.35626E-08-3.25555E-07 2.63207E-08
 -1      5181 7.76767E-08-3.44080E-07 2.49052E-08
 -1      5182 7.60609E-08-3.22544E-07 2.34484E-08
 -1      5183 6.41276E-08-3.76096E-07 2.33597E-08
 -1      5184 6.58445E-08-3.59181E-07 2.30949E-08
 -1      5185 5.06188E-08-3.74971E-07 1.95345E-08
 -1      5186 4.73704E-08-3.58792E-07 1.83265E-08
 -1      5187 5.95447E-08-3.40726E-07 2.09692E-08
 -1      5188 5.66171E-08-3.22666E-07 2.00676E-08
 -1      5189 4.46375E-08-3.42487E-07 1.75575E-08
 -1      5190 4.27514E-08-3.23924E-07 1.68383E-08
 -1      5191 9.22071E-08-3.03496E-07 2.44783E-08
 -1      5192 9.31076E-08-2.76362E-07 2.26385E-08
 -1      5193 7.35094E-08-3.02356E-07 2.19452E-08
 -1      5194 7.01983E-08-2.80773E-07 2.04890E-08
 -1      5195 9.26003E-08-2.52263E-07 2.11436E-08
 -1      5196 8.80421E-08-2.21876E-07 1.91492E-08
 -1      5197 6.48225E-08-2.52152E-07 1.86663E-08
 -1      5198 6.26118E-08-2.20395E-07 1.69350E-08
 -1      5199 5.36825E-08-3.05043E-07 1.92405E-08
 -1      5200 5.31489E-08-2.86498E-07 1.80208E-08
 -1      5201 4.91850E-08-2.72656E-07 1.71895E-08
 -1      5202 5.48842E-08-2.86532E-07 1.93775E-08
 -1      5203 4.95921E-08-2.73955E-07 1.85366E-08
 -1      5204 4.57614E-08-2.87153E-07 1.82319E-08
 -1      5205 4.15198E-08-3.09921E-07 1.60677E-08
 -1      5206 4.09950E-08-3.07794E-07 1.71449E-08
 -1      5207 4.61120E-08-2.60732E-07 1.65567E-08
 -1      5208 4.84488E-08-2.60747E-07 1.79194E-08
 -1      5209 3.66888E-08-3.74069E-07 1.51295E-08
 -1      5210 3.50109E-08-3.57944E-07 1.46072E-08
 -1      5211 2.49288E-08-3.72623E-07 1.08935E-08
 -1      5212 2.33207E-08-3.57021E-07 1.03781E-08
 -1      5213 3.32014E-08-3.43976E-07 1.38763E-08
 -1      5214 3.29783E-08-3.30127E-07 1.33911E-08
 -1      5215 3.42284E-08-3.28124E-07 1.48403E-08
 -1      5216 2.42520E-08-3.47854E-07 1.04726E-08
 -1      5217 1.94728E-08-3.47893E-07 8.49358E-09
 -1      5218 2.43011E-08-3.46919E-07 1.08871E-08
 -1      5219 2.44676E-08-3.39643E-07 1.09975E-08
 -1      5220 2.00761E-08-3.45842E-07 9.14103E-09
 -1      5221 1.45467E-08-3.71875E-07 6.80356E-09
 -1      5222 1.29782E-08-3.58135E-07 6.17325E-09
 -1      5223 3.49463E-09-3.71733E-07 2.14102E-09
 -1      5224 3.39684E-09-3.58126E-07 2.10200E-09
 -1      5225 1.52459E-08-3.49081E-07 6.81570E-09
 -1      5226 1.08612E-08-3.50944E-07 4.94748E-09
 -1      5227 1.53694E-08-3.47216E-07 7.26235E-09
 -1      5228 1.06025E-07-1.99522E-07 1.91835E-08
 -1      5229 1.05928E-07-1.84825E-07 1.83435E-08
 -1      5230 1.09030E-07-1.99119E-07 1.99754E-08
 -1      5231 1.07616E-07-1.84327E-07 1.91334E-08
 -1      5232 1.04033E-07-1.69095E-07 1.74338E-08
 -1      5233 1.00961E-07-1.53225E-07 1.63177E-08
 -1      5234 1.05709E-07-1.70067E-07 1.84430E-08
 -1      5235 1.02508E-07-1.53044E-07 1.74782E-08
 -1      5236 9.73906E-08-1.38156E-07 1.52539E-08
 -1      5237 9.39844E-08-1.24425E-07 1.42617E-08
 -1      5238 9.85582E-08-1.36420E-07 1.64317E-08
 -1      5239 9.54289E-08-1.22290E-07 1.55063E-08
 -1      5240 8.98183E-08-1.11807E-07 1.32326E-08
 -1      5241 8.54928E-08-9.99328E-08 1.22461E-08
 -1      5242 9.07485E-08-1.10315E-07 1.44822E-08
 -1      5243 8.55838E-08-9.84451E-08 1.34498E-08
 -1      5244 8.02431E-08-8.97120E-08 1.12839E-08
 -1      5245 7.59836E-08-8.08202E-08 1.04309E-08
 -1      5246 8.12682E-08-8.83079E-08 1.25309E-08
 -1      5247 7.63742E-08-7.95654E-08 1.16024E-08
 -1      5248 7.28025E-08-7.29909E-08 9.68826E-09
 -1      5249 6.95665E-08-6.57323E-08 8.95854E-09
 -1      5250 7.50162E-08-7.22485E-08 1.12636E-08
 -1      5251 7.18668E-08-6.50931E-08 1.04970E-08
 -1      5252 6.66452E-08-5.91100E-08 8.22777E-09
 -1      5253 6.28178E-08-5.29968E-08 7.40401E-09
 -1      5254 6.80480E-08-5.86737E-08 9.50895E-09
 -1      5255 6.39588E-08-5.25765E-08 8.79000E-09
 -1      5256 5.90726E-08-4.75855E-08 6.60156E-09
 -1      5257 5.56695E-08-4.27249E-08 5.92640E-09
 -1      5258 6.03207E-08-4.71831E-08 7.88685E-09
 -1      5259 5.63158E-08-4.20902E-08 7.08651E-09
 -1      5260 5.23304E-08-3.83045E-08 5.19579E-09
 -1      5261 4.92267E-08-3.43579E-08 4.50731E-09
 -1      5262 5.26656E-08-3.79079E-08 6.25890E-09
 -1      5263 4.93560E-08-3.37243E-08 5.44797E-09
 -1      5264 4.65322E-08-3.07457E-08 3.89148E-09
 -1      5265 4.36508E-08-2.73604E-08 3.33489E-09
 -1      5266 4.67118E-08-3.02694E-08 4.77535E-09
 -1      5267 4.40113E-08-2.65400E-08 4.08925E-09
 -1      5268 4.15259E-08-2.41880E-08 2.78911E-09
 -1      5269 4.00510E-08-2.11472E-08 2.30934E-09
 -1      5270 4.25188E-08-2.38623E-08 3.40890E-09
 -1      5271 4.02518E-08-2.10440E-08 2.96153E-09
 -1      5272 3.80394E-08-1.76430E-08 1.80624E-09
 -1      5273 3.72015E-08-1.30363E-08 1.33017E-09
 -1      5274 3.85522E-08-1.78886E-08 2.42116E-09
 -1      5275 3.76276E-08-1.35814E-08 1.77703E-09
 -1      5276 8.52169E-08-1.89469E-07 1.72336E-08
 -1      5277 8.14026E-08-1.58953E-07 1.54711E-08
 -1      5278 5.95871E-08-1.89185E-07 1.51244E-08
 -1      5279 5.53909E-08-1.56064E-07 1.29158E-08
 -1      5280 7.73795E-08-1.28510E-07 1.35808E-08
 -1      5281 7.04228E-08-1.07948E-07 1.19507E-08
 -1      5282 5.13386E-08-1.26931E-07 1.10706E-08
 -1      5283 5.08568E-08-1.03291E-07 9.84192E-09
 -1      5284 3.20592E-08-1.46970E-07 1.05227E-08
 -1      5285 3.25178E-08-1.46172E-07 1.02356E-08
 -1      5286 3.33813E-08-1.32521E-07 9.86090E-09
 -1      5287 3.37026E-08-1.20377E-07 9.21163E-09
 -1      5288 3.31141E-08-1.31999E-07 9.47126E-09
 -1      5289 3.67588E-08-1.18517E-07 9.05463E-09
 -1      5290 2.59959E-08-1.18724E-07 7.72402E-09
 -1      5291 3.25332E-08-1.00675E-07 7.83238E-09
 -1      5292 1.63295E-08-9.48413E-08 6.28626E-09
 -1      5293 1.81114E-08-9.17079E-08 5.19193E-09
 -1      5294 6.47032E-08-8.26664E-08 1.02693E-08
 -1      5295 6.05903E-08-6.69154E-08 8.77768E-09
 -1      5296 4.69911E-08-8.05707E-08 8.41343E-09
 -1      5297 4.37338E-08-6.49477E-08 7.18551E-09
 -1      5298 5.46036E-08-5.35639E-08 7.29813E-09
 -1      5299 4.83808E-08-4.34512E-08 6.05095E-09
 -1      5300 4.11266E-08-5.19449E-08 6.15638E-09
 -1      5301 3.56965E-08-4.14249E-08 4.93131E-09
 -1      5302 2.89229E-08-7.78565E-08 6.20890E-09
 -1      5303 2.89569E-08-6.34861E-08 5.57313E-09
 -1      5304 1.60025E-08-7.65187E-08 4.84575E-09
 -1      5305 1.65873E-08-6.21979E-08 4.05849E-09
 -1      5306 2.74323E-08-4.99308E-08 4.71136E-09
 -1      5307 2.58787E-08-4.04760E-08 3.95459E-09
 -1      5308 1.69407E-08-4.99712E-08 3.55595E-09
 -1      5309 1.61906E-08-3.96861E-08 2.98867E-09
 -1      5310 7.05987E-09-7.17112E-08 3.71365E-09
 -1      5311 7.71503E-09-7.09160E-08 2.59768E-09
 -1      5312 6.89254E-09-5.97324E-08 2.92708E-09
 -1      5313 2.30963E-09-5.59995E-08 2.13302E-09
 -1      5314 8.90840E-10-5.49492E-08 1.69612E-09
 -1      5315 2.78826E-09-6.05262E-08 1.34139E-09
 -1      5316 2.60063E-09-5.54198E-08 1.30800E-09
 -1      5317 1.19090E-09-5.43831E-08 9.02821E-10
 -1      5318 7.96392E-09-4.95454E-08 2.39848E-09
 -1      5319 8.44917E-09-3.92785E-08 2.04260E-09
 -1      5320 2.38816E-09-4.83122E-08 1.48169E-09
 -1      5321 3.50798E-09-3.94620E-08 1.30698E-09
 -1      5322 3.14421E-10-5.30853E-08 1.51194E-09
 -1      5323 3.61333E-10-5.32442E-08 7.09574E-10
 -1      5324 6.91020E-11-4.74462E-08 7.76747E-10
 -1      5325 1.07394E-09-3.91092E-08 6.98217E-10
 -1      5326-1.50929E-10-4.66088E-08 2.53761E-10
 -1      5327 2.02302E-10-3.88579E-08 2.68020E-10
 -1      5328 4.36522E-08-3.49211E-08 4.82839E-09
 -1      5329 3.76569E-08-2.78701E-08 3.66153E-09
 -1      5330 3.17858E-08-3.27659E-08 3.90249E-09
 -1      5331 2.78616E-08-2.54561E-08 3.06053E-09
 -1      5332 3.29627E-08-2.11852E-08 2.63356E-09
 -1      5333 2.83582E-08-1.49369E-08 1.77601E-09
 -1      5334 2.29409E-08-1.89716E-08 2.46303E-09
 -1      5335 1.81686E-08-1.32151E-08 1.79621E-09
 -1      5336 2.27708E-08-3.21333E-08 3.22877E-09
 -1      5337 1.91803E-08-2.46606E-08 2.25682E-09
 -1      5338 1.40191E-08-3.14521E-08 2.35455E-09
 -1      5339 1.33637E-08-2.38914E-08 2.05019E-09
 -1      5340 1.50065E-08-1.69728E-08 2.02038E-09
 -1      5341 1.05587E-08-1.04796E-08 1.74264E-09
 -1      5342 1.03125E-08-1.64506E-08 1.59959E-09
 -1      5343 6.06715E-09-8.51360E-09 1.22072E-09
 -1      5344 2.55386E-08-5.02901E-09 1.02199E-09
 -1      5345 9.31710E-09-6.42647E-09 1.29352E-09
 -1      5346 3.95739E-09-3.17350E-09 1.17245E-09
 -1      5347 2.61972E-09-3.25453E-09 9.68894E-10
 -1      5348 8.10930E-09-3.07632E-08 1.70687E-09
 -1      5349 7.42790E-09-2.27059E-08 1.41065E-09
 -1      5350 3.69522E-09-3.06042E-08 1.08008E-09
 -1      5351 3.40058E-09-2.30186E-08 8.44515E-10
 -1      5352 5.75295E-09-1.53085E-08 1.14918E-09
 -1      5353 3.77149E-09-8.64051E-09 8.78435E-10
 -1      5354 3.09458E-09-1.55975E-08 7.33071E-10
 -1      5355 2.14837E-09-9.13297E-09 5.78599E-10
 -1      5356 1.56161E-09-3.08826E-08 6.36199E-10
 -1      5357 1.64336E-09-2.30090E-08 5.26718E-10
 -1      5358 3.73044E-10-3.12333E-08 2.16675E-10
 -1      5359 5.09916E-10-2.30795E-08 1.93068E-10
 -1      5360 1.50363E-09-1.60291E-08 4.37893E-10
 -1      5361 1.09474E-09-9.82988E-09 3.19717E-10
 -1      5362 4.64630E-10-1.61988E-08 1.47766E-10
 -1      5363 2.80868E-10-9.51649E-09 9.72844E-11
 -1      5364 1.53264E-09-3.05170E-09 4.91358E-10
 -1      5365 8.90940E-10-3.25066E-09 2.43969E-10
 -1      5366 4.27393E-10-3.41543E-09 1.42003E-10
 -1      5367 1.17968E-10-3.42895E-09 4.21345E-11
 -1      5368-9.85462E-09-4.52251E-07-4.43240E-09
 -1      5369-2.02750E-08-4.47974E-07-8.66323E-09
 -1      5370-3.27150E-08-4.46595E-07-1.39478E-08
 -1      5371-4.37877E-08-4.45278E-07-1.84073E-08
 -1      5372-8.59603E-09-4.32738E-07-3.24068E-09
 -1      5373-9.01056E-09-4.16299E-07-3.20152E-09
 -1      5374-2.08911E-08-4.31847E-07-8.49026E-09
 -1      5375-1.99419E-08-4.18174E-07-7.79868E-09
 -1      5376-8.57581E-09-4.00955E-07-2.99648E-09
 -1      5377-7.93687E-09-3.86685E-07-2.76366E-09
 -1      5378-1.91904E-08-4.01122E-07-7.41532E-09
 -1      5379-1.88949E-08-3.87303E-07-7.32357E-09
 -1      5380-3.24230E-08-4.33239E-07-1.33131E-08
 -1      5381-3.07187E-08-4.17490E-07-1.22289E-08
 -1      5382-4.36515E-08-4.32978E-07-1.77440E-08
 -1      5383-4.29934E-08-4.17724E-07-1.69633E-08
 -1      5384-2.94587E-08-4.02597E-07-1.15583E-08
 -1      5385-2.76925E-08-3.87633E-07-1.08455E-08
 -1      5386-4.19435E-08-4.03086E-07-1.62658E-08
 -1      5387-3.95071E-08-3.87194E-07-1.52187E-08
 -1      5388-5.65164E-08-4.43288E-07-2.30728E-08
 -1      5389-6.86116E-08-4.46995E-07-2.75447E-08
 -1      5390-8.00448E-08-4.44191E-07-3.11252E-08
 -1      5391-8.48379E-08-4.43191E-07-3.25878E-08
 -1      5392-7.82466E-08-4.40380E-07-3.02382E-08
 -1      5393-8.48853E-08-4.40430E-07-3.23682E-08
 -1      5394-5.63509E-08-4.31207E-07-2.23256E-08
 -1      5395-5.40825E-08-4.18422E-07-2.09337E-08
 -1      5396-6.82568E-08-4.30917E-07-2.63430E-08
 -1      5397-6.80411E-08-4.17578E-07-2.54892E-08
 -1      5398-5.53152E-08-4.03507E-07-2.08142E-08
 -1      5399-5.30431E-08-3.88292E-07-1.96613E-08
 -1      5400-6.80884E-08-4.03961E-07-2.47778E-08
 -1      5401-6.66227E-08-3.89110E-07-2.36721E-08
 -1      5402-8.13645E-08-4.31413E-07-3.05743E-08
 -1      5403-8.25775E-08-4.17609E-07-2.99199E-08
 -1      5404-9.15805E-08-4.36843E-07-3.41795E-08
 -1      5405-9.17140E-08-4.30471E-07-3.36833E-08
 -1      5406-9.84471E-08-4.29482E-07-3.56307E-08
 -1      5407-9.27123E-08-4.33289E-07-3.42103E-08
 -1      5408-9.16541E-08-4.27663E-07-3.34143E-08
 -1      5409-9.83676E-08-4.26940E-07-3.53645E-08
 -1      5410-9.38391E-08-4.19038E-07-3.33500E-08
 -1      5411-8.14051E-08-4.03950E-07-2.86132E-08
 -1      5412-8.06357E-08-3.90181E-07-2.74839E-08
 -1      5413-9.48681E-08-4.05205E-07-3.24476E-08
 -1      5414-9.49444E-08-3.90781E-07-3.11926E-08
 -1      5415-6.34680E-09-3.71147E-07-2.12289E-09
 -1      5416-5.69869E-09-3.58015E-07-1.84932E-09
 -1      5417-1.71535E-08-3.72206E-07-6.74187E-09
 -1      5418-1.64561E-08-3.59523E-07-6.46764E-09
 -1      5419-1.32188E-08-3.50855E-07-4.87682E-09
 -1      5420-1.77361E-08-3.50445E-07-6.77014E-09
 -1      5421-1.29224E-08-3.49434E-07-4.98327E-09
 -1      5422-1.86938E-08-3.47982E-07-7.51413E-09
 -1      5423-2.66515E-08-3.72082E-07-1.05526E-08
 -1      5424-2.58732E-08-3.57943E-07-1.03854E-08
 -1      5425-3.86562E-08-3.72891E-07-1.49200E-08
 -1      5426-3.65721E-08-3.58651E-07-1.42529E-08
 -1      5427-2.22856E-08-3.49353E-07-8.69193E-09
 -1      5428-2.66696E-08-3.48851E-07-1.04520E-08
 -1      5429-2.30555E-08-3.46247E-07-9.39106E-09
 -1      5430-2.70284E-08-3.48315E-07-1.10462E-08
 -1      5431-2.69490E-08-3.40463E-07-1.10747E-08
 -1      5432-3.39996E-08-3.44055E-07-1.32441E-08
 -1      5433-3.41529E-08-3.31779E-07-1.30562E-08
 -1      5434-3.55356E-08-3.29819E-07-1.45018E-08
 -1      5435-5.12286E-08-3.73982E-07-1.88589E-08
 -1      5436-4.83983E-08-3.58861E-07-1.77986E-08
 -1      5437-6.46555E-08-3.74975E-07-2.25570E-08
 -1      5438-6.14480E-08-3.60165E-07-2.12305E-08
 -1      5439-4.64446E-08-3.43588E-07-1.73029E-08
 -1      5440-4.33648E-08-3.25728E-07-1.63057E-08
 -1      5441-5.96384E-08-3.43727E-07-2.03084E-08
 -1      5442-5.59837E-08-3.26225E-07-1.92981E-08
 -1      5443-7.92715E-08-3.75663E-07-2.62067E-08
 -1      5444-8.02789E-08-3.60666E-07-2.54576E-08
 -1      5445-9.44273E-08-3.75881E-07-2.97225E-08
 -1      5446-9.48555E-08-3.60505E-07-2.84247E-08
 -1      5447-7.48135E-08-3.45489E-07-2.34731E-08
 -1      5448-7.39280E-08-3.27037E-07-2.23729E-08
 -1      5449-9.54794E-08-3.42927E-07-2.69654E-08
 -1      5450-9.33105E-08-3.26421E-07-2.52090E-08
 -1      5451-4.16700E-08-3.10706E-07-1.52691E-08
 -1      5452-4.34177E-08-3.09206E-07-1.71112E-08
 -1      5453-5.50924E-08-3.06292E-07-1.85789E-08
 -1      5454-5.28058E-08-2.87742E-07-1.71763E-08
 -1      5455-4.92726E-08-2.76283E-07-1.62726E-08
 -1      5456-4.55284E-08-2.88024E-07-1.74653E-08
 -1      5457-5.35305E-08-2.86570E-07-1.83788E-08
 -1      5458-4.89080E-08-2.74332E-07-1.75092E-08
 -1      5459-4.50104E-08-2.62001E-07-1.54135E-08
 -1      5460-4.78423E-08-2.61590E-07-1.72143E-08
 -1      5461-7.14345E-08-3.05034E-07-2.08662E-08
 -1      5462-6.93895E-08-2.81394E-07-1.94388E-08
 -1      5463-9.40357E-08-3.06858E-07-2.37812E-08
 -1      5464-9.25939E-08-2.80300E-07-2.18427E-08
 -1      5465-6.60705E-08-2.52750E-07-1.78949E-08
 -1      5466-5.82122E-08-2.20410E-07-1.57282E-08
 -1      5467-9.16185E-08-2.51814E-07-2.00042E-08
 -1      5468-9.09435E-08-2.22858E-07-1.82978E-08
 -1      5469-1.05812E-07-4.16615E-07-3.65987E-08
 -1      5470-1.05917E-07-4.13439E-07-3.63047E-08
 -1      5471-1.07281E-07-4.08818E-07-3.62547E-08
 -1      5472-1.06694E-07-4.02597E-07-3.54590E-08
 -1      5473-1.07372E-07-4.08534E-07-3.62355E-08
 -1      5474-1.07917E-07-4.01020E-07-3.56179E-08
 -1      5475-1.05640E-07-3.95952E-07-3.44858E-08
 -1      5476-1.06391E-07-3.88741E-07-3.39349E-08
 -1      5477-1.06395E-07-3.94245E-07-3.44908E-08
 -1      5478-1.06348E-07-3.85870E-07-3.35735E-08
 -1      5479-1.07259E-07-3.80646E-07-3.32685E-08
 -1      5480-1.06798E-07-3.72740E-07-3.22825E-08
 -1      5481-1.07364E-07-3.79012E-07-3.30527E-08
 -1      5482-1.07035E-07-3.71159E-07-3.20977E-08
 -1      5483-1.06437E-07-3.65193E-07-3.13529E-08
 -1      5484-1.07742E-07-3.57023E-07-3.07158E-08
 -1      5485-1.08065E-07-3.62586E-07-3.13051E-08
 -1      5486-1.09681E-07-3.54693E-07-3.07233E-08
 -1      5487-1.08679E-07-3.49012E-07-2.99978E-08
 -1      5488-1.07336E-07-3.40441E-07-2.88154E-08
 -1      5489-1.08819E-07-3.46584E-07-2.96492E-08
 -1      5490-1.08330E-07-3.38520E-07-2.86889E-08
 -1      5491-1.07454E-07-3.31739E-07-2.79184E-08
 -1      5492-1.08079E-07-3.22392E-07-2.70579E-08
 -1      5493-1.08465E-07-3.30785E-07-2.78630E-08
 -1      5494-1.09132E-07-3.21214E-07-2.69745E-08
 -1      5495-1.09743E-07-3.12382E-07-2.63092E-08
 -1      5496-1.10702E-07-3.00959E-07-2.53692E-08
 -1      5497-1.09293E-07-3.11170E-07-2.60212E-08
 -1      5498-1.11368E-07-2.99631E-07-2.52503E-08
 -1      5499-1.11224E-07-2.88473E-07-2.43720E-08
 -1      5500-1.11234E-07-2.75199E-07-2.33025E-08
 -1      5501-1.12949E-07-2.87781E-07-2.44236E-08
 -1      5502-1.12750E-07-2.74295E-07-2.33730E-08
 -1      5503-1.11406E-07-2.61169E-07-2.23051E-08
 -1      5504-1.10977E-07-2.46006E-07-2.12317E-08
 -1      5505-1.13481E-07-2.59987E-07-2.24873E-08
 -1      5506-1.08831E-07-2.46514E-07-2.13438E-08
 -1      5507-1.08726E-07-2.30747E-07-2.00996E-08
 -1      5508-1.07272E-07-2.15984E-07-1.91097E-08
 -1      5509-1.08829E-07-2.29799E-07-2.03783E-08
 -1      5510-1.06663E-07-2.15694E-07-1.94798E-08
 -1      5511 2.16812E-10-5.17897E-08-7.97166E-10
 -1      5512-6.57998E-11-5.34288E-08-1.03716E-09
 -1      5513-6.36858E-11-5.22721E-08-2.90636E-10
 -1      5514 1.80026E-10-4.69152E-08-5.68002E-11
 -1      5515-3.50573E-11-3.95486E-08-1.34232E-10
 -1      5516-4.14179E-11-4.75885E-08-6.97995E-10
 -1      5517-9.14477E-10-3.94414E-08-5.74562E-10
 -1      5518-8.38675E-10-5.50140E-08-1.56950E-09
 -1      5519-2.30439E-09-5.60462E-08-1.95900E-09
 -1      5520-9.45527E-10-5.43381E-08-7.07550E-10
 -1      5521-2.42913E-09-6.04431E-08-1.09777E-09
 -1      5522-2.43164E-09-5.54555E-08-1.12131E-09
 -1      5523-6.33345E-09-7.18338E-08-3.41416E-09
 -1      5524-7.81338E-09-7.16044E-08-2.33528E-09
 -1      5525-6.94444E-09-5.91711E-08-2.41895E-09
 -1      5526-2.31935E-09-4.82354E-08-1.30935E-09
 -1      5527-3.36807E-09-3.94351E-08-1.15374E-09
 -1      5528-7.34085E-09-4.93104E-08-2.07397E-09
 -1      5529-8.03935E-09-3.95447E-08-1.82461E-09
 -1      5530-3.23325E-08-1.51063E-07-1.01962E-08
 -1      5531-3.43529E-08-1.45978E-07-9.82385E-09
 -1      5532-1.60770E-08-9.50304E-08-5.81787E-09
 -1      5533-1.79223E-08-9.20598E-08-4.71421E-09
 -1      5534-2.17748E-08-1.17872E-07-7.67681E-09
 -1      5535-3.11115E-08-1.36439E-07-9.28378E-09
 -1      5536-3.24939E-08-1.20976E-07-8.58889E-09
 -1      5537-2.37522E-08-1.16795E-07-6.95563E-09
 -1      5538-3.23771E-08-1.31284E-07-8.64290E-09
 -1      5539-3.51631E-08-1.17813E-07-8.24717E-09
 -1      5540-3.21261E-08-9.96701E-08-7.23428E-09
 -1      5541-6.03920E-08-1.90730E-07-1.44380E-08
 -1      5542-5.68630E-08-1.57418E-07-1.24214E-08
 -1      5543-8.69855E-08-1.92783E-07-1.64308E-08
 -1      5544-8.28145E-08-1.61816E-07-1.48165E-08
 -1      5545-5.31190E-08-1.28598E-07-1.06889E-08
 -1      5546-5.17956E-08-1.02678E-07-9.34723E-09
 -1      5547-7.62208E-08-1.27796E-07-1.27558E-08
 -1      5548-7.17032E-08-1.02511E-07-1.11729E-08
 -1      5549-1.49799E-08-7.67270E-08-4.39225E-09
 -1      5550-1.61453E-08-6.21130E-08-3.65029E-09
 -1      5551-2.99435E-08-7.99332E-08-6.03984E-09
 -1      5552-3.03329E-08-6.31651E-08-5.24259E-09
 -1      5553-1.54671E-08-4.88232E-08-3.05404E-09
 -1      5554-1.56401E-08-3.99057E-08-2.70277E-09
 -1      5555-2.79127E-08-5.05424E-08-4.42109E-09
 -1      5556-2.59243E-08-4.06761E-08-3.65707E-09
 -1      5557-4.68312E-08-8.16814E-08-7.89288E-09
 -1      5558-4.43443E-08-6.66499E-08-6.83240E-09
 -1      5559-6.67074E-08-8.30287E-08-9.65831E-09
 -1      5560-6.12507E-08-6.73316E-08-8.35986E-09
 -1      5561-4.06905E-08-5.12030E-08-5.56911E-09
 -1      5562-3.67080E-08-4.16270E-08-4.48451E-09
 -1      5563-5.41470E-08-5.38816E-08-6.83729E-09
 -1      5564-4.91501E-08-4.33586E-08-5.53237E-09
 -1      5565-3.00035E-10-3.09029E-08-1.35747E-10
 -1      5566-5.50992E-10-2.32993E-08-1.63585E-10
 -1      5567-1.48692E-09-3.09291E-08-5.30024E-10
 -1      5568-1.62434E-09-2.30333E-08-4.54263E-10
 -1      5569-4.10762E-10-1.62170E-08-1.08626E-10
 -1      5570-3.28050E-10-1.02893E-08-9.99218E-11
 -1      5571-1.45535E-09-1.59018E-08-3.62170E-10
 -1      5572-9.98488E-10-9.16191E-09-3.21145E-10
 -1      5573-3.77173E-09-3.14495E-08-9.80638E-10
 -1      5574-3.63221E-09-2.27974E-08-8.12200E-10
 -1      5575-7.70277E-09-3.08365E-08-1.52353E-09
 -1      5576-7.35227E-09-2.30817E-08-1.27152E-09
 -1      5577-3.01807E-09-1.54878E-08-6.89883E-10
 -1      5578-2.08380E-09-9.12617E-09-5.69816E-10
 -1      5579-5.66654E-09-1.51019E-08-1.09187E-09
 -1      5580-3.71759E-09-8.84302E-09-8.55587E-10
 -1      5581-9.35121E-11-2.97956E-09-3.25070E-11
 -1      5582-5.05157E-10-4.15150E-09-1.60240E-10
 -1      5583-1.05883E-09-3.84286E-09-3.34363E-10
 -1      5584-1.34445E-09-2.85288E-09-4.55794E-10
 -1      5585-1.45017E-08-3.10052E-08-2.18457E-09
 -1      5586-1.25828E-08-2.40522E-08-1.82927E-09
 -1      5587-2.24844E-08-3.23955E-08-2.94244E-09
 -1      5588-2.04926E-08-2.49902E-08-2.47304E-09
 -1      5589-9.48924E-09-1.59326E-08-1.52308E-09
 -1      5590-6.02143E-09-8.86343E-09-1.20948E-09
 -1      5591-1.55147E-08-1.76827E-08-1.90342E-09
 -1      5592-1.04691E-08-1.08432E-08-1.64084E-09
 -1      5593-3.28979E-08-3.31667E-08-3.68003E-09
 -1      5594-2.86252E-08-2.61031E-08-2.64771E-09
 -1      5595-4.37483E-08-3.51498E-08-4.43983E-09
 -1      5596-3.80881E-08-2.78858E-08-3.35293E-09
 -1      5597-2.32635E-08-1.92154E-08-2.23270E-09
 -1      5598-1.77673E-08-1.29973E-08-1.94433E-09
 -1      5599-3.31248E-08-2.14394E-08-2.50478E-09
 -1      5600-2.95902E-08-1.48481E-08-1.62706E-09
 -1      5601-2.19907E-09-2.71628E-09-7.26142E-10
 -1      5602-4.21803E-09-3.78148E-09-1.13420E-09
 -1      5603-1.17000E-08-7.03196E-09-1.17109E-09
 -1      5604-2.50255E-08-6.08958E-09-1.20461E-09
 -1      5605-1.06139E-07-2.01313E-07-1.82058E-08
 -1      5606-1.04985E-07-1.85937E-07-1.72804E-08
 -1      5607-1.08248E-07-2.02207E-07-1.89866E-08
 -1      5608-1.08729E-07-1.84871E-07-1.83078E-08
 -1      5609-1.04299E-07-1.70413E-07-1.64805E-08
 -1      5610-1.01073E-07-1.54269E-07-1.54157E-08
 -1      5611-1.06654E-07-1.70999E-07-1.75249E-08
 -1      5612-1.02731E-07-1.54236E-07-1.65883E-08
 -1      5613-9.77771E-08-1.39189E-07-1.44679E-08
 -1      5614-9.45373E-08-1.25036E-07-1.34699E-08
 -1      5615-9.89999E-08-1.37424E-07-1.56333E-08
 -1      5616-9.61611E-08-1.23300E-07-1.47612E-08
 -1      5617-9.03989E-08-1.11931E-07-1.24830E-08
 -1      5618-8.62127E-08-1.00312E-07-1.15903E-08
 -1      5619-9.14757E-08-1.11017E-07-1.37364E-08
 -1      5620-8.66628E-08-9.84641E-08-1.29747E-08
 -1      5621-8.21179E-08-8.99489E-08-1.06907E-08
 -1      5622-7.72656E-08-8.10514E-08-9.82532E-09
 -1      5623-8.39505E-08-8.87919E-08-1.23172E-08
 -1      5624-7.95272E-08-7.96553E-08-1.13666E-08
 -1      5625-7.36463E-08-7.34931E-08-9.07337E-09
 -1      5626-7.01274E-08-6.61718E-08-8.36108E-09
 -1      5627-7.58003E-08-7.28222E-08-1.06863E-08
 -1      5628-7.28140E-08-6.54347E-08-1.00417E-08
 -1      5629-6.69743E-08-5.93597E-08-7.63874E-09
 -1      5630-6.32003E-08-5.31804E-08-6.83022E-09
 -1      5631-6.84023E-08-5.86295E-08-9.08481E-09
 -1      5632-6.43873E-08-5.26375E-08-8.12557E-09
 -1      5633-5.96002E-08-4.78652E-08-6.08596E-09
 -1      5634-5.61585E-08-4.30027E-08-5.46239E-09
 -1      5635-6.08199E-08-4.74694E-08-7.37207E-09
 -1      5636-5.74129E-08-4.26297E-08-6.71739E-09
 -1      5637-5.26905E-08-3.84499E-08-4.75888E-09
 -1      5638-4.94293E-08-3.44055E-08-4.06725E-09
 -1      5639-5.34643E-08-3.80992E-08-5.92283E-09
 -1      5640-4.96865E-08-3.39034E-08-5.04563E-09
 -1      5641-4.66018E-08-3.07678E-08-3.46390E-09
 -1      5642-4.39778E-08-2.73585E-08-2.95031E-09
 -1      5643-4.68188E-08-3.04063E-08-4.38685E-09
 -1      5644-4.39801E-08-2.67774E-08-3.70102E-09
 -1      5645-4.14566E-08-2.42491E-08-2.46651E-09
 -1      5646-3.99395E-08-2.12473E-08-2.05730E-09
 -1      5647-4.22791E-08-2.41421E-08-3.16373E-09
 -1      5648-4.00576E-08-2.11365E-08-2.73428E-09
 -1      5649-3.79636E-08-1.77191E-08-1.63459E-09
 -1      5650-3.72379E-08-1.31183E-08-1.19681E-09
 -1      5651-3.87782E-08-1.79515E-08-2.23281E-09
 -1      5652-3.82200E-08-1.41603E-08-1.78075E-09
 -1      5653-7.14227E-08-4.30294E-07-2.72558E-08
 -1      5654-7.33185E-08-4.23305E-07-2.73548E-08
 -1      5655-1.55213E-09-4.37970E-08-7.70282E-10
 -1      5656-2.53613E-08-1.03672E-08-2.12150E-09
 -1      5657 2.23429E-08-6.97880E-08 6.24623E-09
 -1      5658-2.60181E-08-1.60280E-08-2.39288E-09
 -1      5659-6.03597E-08-4.16062E-07-2.29853E-08
 -1      5660-3.42652E-09-1.27143E-08 2.11726E-10
 -1      5661 1.58125E-08-6.89642E-09-5.98683E-10
 -1      5662-2.62829E-08-1.11885E-08-1.45754E-09
 -1      5663-3.18552E-08-8.03586E-09-1.59576E-09
 -1      5664 9.45184E-09-2.70699E-08 1.17368E-09
 -1      5665-4.09739E-08-1.64812E-08-2.04825E-09
 -1      5666-3.78235E-08-2.45762E-08-3.37678E-09
 -1      5667 2.42172E-08-4.51641E-07 9.31909E-09
 -1      5668-2.60824E-08-1.05404E-08 2.59193E-10
 -1      5669-1.00348E-07-3.82694E-07-3.17669E-08
 -1      5670-7.15294E-08-3.69271E-07-2.40918E-08
 -1      5671-8.75909E-08-3.87835E-07-2.91054E-08
 -1      5672-6.95086E-08-3.86721E-07-2.39583E-08
 -1      5673-3.80445E-08-7.37464E-08-6.64130E-09
 -1      5674-8.49375E-08-3.68889E-07-2.66411E-08
 -1      5675-8.75658E-08-4.02523E-07-3.01064E-08
 -1      5676-8.46319E-08-3.95668E-07-2.87341E-08
 -1      5677-2.31879E-08-1.62303E-08 2.67850E-10
 -1      5678-4.99623E-08-6.68838E-08-5.56831E-09
 -1      5679-9.24618E-08-4.03610E-07-3.15804E-08
 -1      5680-8.43924E-08-3.82150E-07-2.76088E-08
 -1      5681 2.43888E-09-3.49763E-08 9.47188E-10
 -1      5682-9.62516E-08-3.89134E-07-3.13268E-08
 -1      5683-1.22274E-09-2.11795E-08-3.95465E-10
 -1      5684-2.14007E-08-5.81367E-08-4.55531E-09
 -1      5685-9.43797E-08-4.15981E-07-3.32329E-08
 -1      5686-7.77747E-08-4.16716E-07-2.82958E-08
 -1      5687-8.41169E-08-4.32237E-07-3.14570E-08
 -1      5688-7.42849E-08-4.10810E-07-2.70029E-08
 -1      5689-9.07498E-10-1.39191E-08-2.98375E-10
 -1      5690-6.37926E-08-4.32090E-07-2.47850E-08
 -1      5691 1.02986E-10-4.49832E-08-2.81336E-10
 -1      5692-6.01942E-08-4.26915E-07-2.32446E-08
 -1      5693-3.49891E-08-2.01852E-08-2.79236E-09
 -1      5694-3.08649E-08-1.75419E-08-2.41648E-09
 -1      5695-8.95212E-09-1.14002E-08-1.79676E-09
 -1      5696-7.33321E-08-4.04118E-07-2.61113E-08
 -1      5697 1.32877E-08-2.03630E-08 4.75802E-10
 -1      5698-8.75490E-08-4.26603E-07-3.20775E-08
 -1      5699-8.94960E-08-4.09640E-07-3.12422E-08
 -1      5700-6.36547E-08-4.37732E-07-2.52349E-08
 -1      5701-6.41160E-08-4.51552E-07-2.62833E-08
 -1      5702-4.33392E-08-3.14688E-08-4.49990E-09
 -1      5703-7.02379E-08-4.46061E-07-2.79950E-08
 -1      5704-8.69804E-10-1.78228E-08-5.46846E-11
 -1      5705-2.78899E-10-1.98980E-08-2.36017E-11
 -1      5706 2.25655E-08-1.77528E-08 5.22355E-12
 -1      5707 3.44774E-09-3.62021E-09-1.16870E-09
 -1      5708 1.70238E-08-1.50947E-08-3.20337E-10
 -1      5709-3.66107E-08-2.51371E-08-1.01015E-09
 -1      5710 6.47945E-08-3.41283E-07 2.09980E-08
 -1      5711 4.55601E-08-4.51184E-07 1.95684E-08
 -1      5712-6.92668E-08-4.37833E-07-2.70441E-08
 -1      5713-1.13941E-08-5.20209E-09 8.34900E-10
 -1      5714 7.26040E-08-3.61292E-07 2.48999E-08
 -1      5715-3.49297E-09-2.02674E-09 2.37735E-10
 -1      5716-9.29098E-09-8.40296E-09 1.03004E-09
 -1      5717-2.37898E-08-9.59281E-09 1.00384E-09
 -1      5718-1.63139E-08-3.03378E-09 1.55178E-09
 -1      5719-1.27188E-08-2.01161E-08-3.86829E-10
 -1      5720 9.64438E-08-4.19551E-07 3.52845E-08
 -1      5721 8.95086E-08-4.22359E-07 3.34255E-08
 -1      5722-1.31098E-09-1.10684E-09-2.38843E-10
 -1      5723 6.99576E-08-3.89036E-07 2.52036E-08
 -1      5724 8.60258E-08-3.40460E-07 2.63421E-08
 -1      5725-1.45102E-08-1.01393E-08 1.42556E-09
 -1      5726 4.93613E-08-3.31305E-07 1.88266E-08
 -1      5727-2.14277E-08-6.98861E-09-1.90858E-10
 -1      5728-1.10541E-08-4.66711E-09-6.43111E-10
 -1      5729 9.28094E-09-6.30668E-08 2.66515E-09
 -1      5730-1.64451E-08-9.27864E-09-2.47568E-09
 -1      5731-2.19821E-08-1.21239E-08-1.84505E-09
 -1      5732-2.07366E-09-2.21357E-09-2.51915E-10
 -1      5733-3.96310E-09-5.06428E-09 1.04267E-09
 -1      5734-2.60193E-08-2.37686E-08-3.02429E-09
 -1      5735-2.45807E-08-2.25389E-08-3.83074E-10
 -1      5736-3.09957E-08-2.38298E-08-9.01434E-10
 -1      5737-4.49211E-08-4.54406E-07-1.90867E-08
 -1      5738-2.86933E-08-1.99998E-08-2.51838E-10
 -1      5739-1.93585E-08-1.06680E-08 7.12304E-10
 -1      5740-1.36017E-08-4.31768E-07-4.52578E-09
 -1      5741-5.90022E-08-2.74334E-07-1.54184E-08
 -1      5742-4.16339E-08-3.88915E-08-5.05517E-09
 -1      5743-2.94344E-08-3.62703E-08-3.93378E-09
 -1      5744-3.81241E-08-3.95515E-08-2.67401E-09
 -1      5745-3.24916E-08-2.94853E-08-1.47351E-09
 -1      5746-2.83835E-08-3.50689E-08-2.08312E-09
 -1      5747-5.44565E-08-4.56889E-07-2.31355E-08
 -1      5748-2.32490E-08-3.93915E-07-9.08845E-09
 -1      5749-1.73650E-08-1.67712E-08 2.61352E-10
 -1      5750-1.39197E-08-1.33427E-08 7.96713E-10
 -1      5751-3.25251E-08-5.27293E-08-4.04372E-09
 -1      5752-4.15631E-08-3.18106E-08-1.82729E-09
 -1      5753-7.01234E-09-7.50053E-09-1.89078E-09
 -1      5754-1.47322E-09-3.95375E-09-6.67983E-10
 -1      5755 1.96116E-11-3.09876E-09-6.21861E-12
 -1      5756-6.09873E-10-1.47849E-09-7.64695E-13
 -1      5757-7.31308E-10-9.89143E-09-3.02935E-10
 -1      5758-7.14340E-08-9.90405E-08-8.30128E-09
 -1      5759-3.97437E-08-4.40729E-08-5.44185E-09
 -1      5760-3.91272E-08-1.59951E-08-4.96758E-10
 -1      5761-7.71166E-08-1.84241E-07-1.57125E-08
 -1      5762-9.32019E-08-4.12496E-07-3.26179E-08
 -1      5763-4.62818E-08-3.99230E-08-2.74702E-09
 -1      5764-3.25829E-08-4.72101E-08-3.51476E-09
 -1      5765-3.07310E-08-2.38010E-08-3.16626E-09
 -1      5766-5.96549E-08-9.01275E-08-9.63431E-09
 -1      5767-4.71311E-08-4.95825E-08-3.88365E-09
 -1      5768-3.73390E-08-5.61142E-08-5.75117E-09
 -1      5769-5.26087E-08-7.54597E-08-6.54687E-09
 -1      5770-7.34714E-08-1.21319E-07-1.02629E-08
 -1      5771-4.31736E-08-1.84386E-07-1.31004E-08
 -1      5772-1.64595E-10-1.76937E-09-7.44350E-11
 -1      5773-5.88993E-10-1.24146E-08 7.02887E-11
 -1      5774-7.05093E-08-1.43102E-07-1.31229E-08
 -1      5775-1.16553E-08-6.00838E-09-2.37206E-09
 -1      5776-1.82104E-08-8.08285E-09-1.81855E-09
 -1      5777-5.28794E-08-1.05402E-07-8.77239E-09
 -1      5778-4.33099E-08-1.01037E-07-8.51873E-09
 -1      5779-1.47824E-09-2.21922E-09-7.51348E-10
 -1      5780-9.33431E-09-5.65406E-08-4.16807E-09
 -1      5781-5.92940E-08-1.45692E-07-1.12417E-08
 -1      5782-8.81569E-08-1.91358E-07-1.50460E-08
 -1      5783-3.30129E-08-2.82210E-08-3.60878E-09
 -1      5784-8.00843E-08-2.87072E-07-1.93953E-08
 -1      5785-7.35290E-08-1.81985E-07-1.36964E-08
 -1      5786-8.29879E-08-1.78429E-07-1.40235E-08
 -1      5787-4.43222E-08-1.98727E-07-1.37861E-08
 -1      5788-4.96689E-08-1.79174E-07-1.20087E-08
 -1      5789-8.71090E-08-4.23120E-07-3.16960E-08
 -1      5790-6.69539E-08-1.57093E-07-1.21275E-08
 -1      5791-3.94713E-08-1.88156E-07-1.17022E-08
 -1      5792-6.24872E-08-1.10091E-07-9.24156E-09
 -1      5793-4.04634E-08-1.04788E-07-8.16012E-09
 -1      5794-6.74879E-08-1.37147E-07-1.11433E-08
 -1      5795-5.41502E-08-9.18901E-08-8.01436E-09
 -1      5796-8.17631E-08-1.15730E-07-1.32560E-08
 -1      5797-4.83968E-08-6.04752E-08-5.05506E-09
 -1      5798-4.16807E-08-4.75281E-08-3.77825E-09
 -1      5799-2.01814E-08-3.64675E-08-3.12780E-09
 -1      5800-6.49958E-08-7.72975E-08-6.73484E-09
 -1      5801-7.24632E-08-9.30584E-08-8.13007E-09
 -1      5802-1.30252E-09-2.28734E-09 6.69824E-10
 -1      5803-1.05625E-08-1.45119E-08 3.45423E-10
 -1      5804-1.13207E-08-5.37950E-08-2.50549E-09
 -1      5805-4.82744E-09-2.70932E-08-7.62177E-10
 -1      5806-7.72767E-09-1.89239E-08-1.45588E-09
 -1      5807-1.48073E-09-6.13130E-09 3.52826E-10
 -1      5808-5.57734E-08-4.23614E-07-2.17815E-08
 -1      5809-5.95962E-08-6.21349E-08-5.19746E-09
 -1      5810-6.25932E-10-2.00660E-08-6.52831E-11
 -1      5811-2.98459E-08-9.06127E-08-7.77407E-09
 -1      5812-1.73487E-10-1.52520E-09-1.35594E-11
 -1      5813-4.55385E-08-2.14442E-07-1.23766E-08
 -1      5814-5.52124E-08-4.48163E-07-2.28636E-08
 -1      5815-5.95961E-08-4.51188E-07-2.46973E-08
 -1      5816-6.22467E-08-2.41901E-07-1.48231E-08
 -1      5817-2.06448E-08-7.17071E-08-5.96533E-09
 -1      5818-2.12608E-08-4.36226E-08-3.43162E-09
 -1      5819-1.63500E-09-2.75582E-08-4.96558E-10
 -1      5820 1.83668E-11-3.59439E-08 1.01538E-10
 -1      5821 3.26021E-11-4.27518E-08 3.11342E-11
 -1      5822 7.77700E-10-4.98429E-08-1.47895E-09
 -1      5823-1.85762E-09-1.33449E-09 5.92412E-10
 -1      5824-8.76802E-08-3.81494E-07-2.86211E-08
 -1      5825-5.57418E-10-4.50441E-08-1.70334E-09
 -1      5826 2.39466E-10-4.43914E-08-3.97106E-10
 -1      5827-3.70309E-09-1.93456E-08-1.83864E-10
 -1      5828-4.04291E-10-7.32537E-09 1.36764E-10
 -1      5829-1.18420E-09-6.47731E-09-4.66116E-10
 -1      5830-5.52622E-09-3.52556E-08-1.34174E-09
 -1      5831-7.15891E-09-6.42636E-08-5.11791E-09
 -1      5832-1.68658E-09-1.28542E-08 1.09466E-10
 -1      5833-7.48779E-08-4.02308E-07-2.66901E-08
 -1      5834-4.31544E-09-4.54646E-08-2.48864E-09
 -1      5835 5.62182E-09-1.09197E-08 1.41549E-09
 -1      5836-4.52929E-08-7.48380E-08-6.30519E-09
 -1      5837-3.41541E-08-6.91063E-08-5.79453E-09
 -1      5838-1.01196E-07-4.07527E-07-3.44089E-08
 -1      5839-1.91705E-08-7.48312E-08-4.25407E-09
 -1      5840-8.82051E-08-4.07579E-07-3.07933E-08
 -1      5841-9.38278E-08-4.03897E-07-3.20502E-08
 -1      5842-8.84779E-08-3.96251E-07-2.99834E-08
 -1      5843 3.90249E-10-4.81039E-08-7.79302E-10
 -1      5844-7.29218E-08-4.16227E-07-2.67819E-08
 -1      5845-6.15653E-08-3.97022E-07-2.25422E-08
 -1      5846 1.16600E-10-1.23256E-08 3.50238E-11
 -1      5847-3.20111E-09-5.44161E-09-1.04233E-09
 -1      5848-7.54411E-08-3.82361E-07-2.56975E-08
 -1      5849-1.33728E-09-2.32864E-09-1.14763E-10
 -1      5850-8.45637E-10-2.97433E-09 4.57512E-10
 -1      5851-9.46218E-08-3.95979E-07-3.15730E-08
 -1      5852-4.97295E-09-1.89136E-08-1.10946E-09
 -1      5853-1.39315E-08-1.46393E-08 5.09313E-10
 -1      5854-3.09205E-09-1.90584E-08-8.09592E-10
 -1      5855-6.55826E-09-1.39659E-08 2.58023E-10
 -1      5856-1.36943E-08-7.28519E-08-6.27026E-09
 -1      5857-4.57564E-10-1.57354E-09-4.79144E-11
 -1      5858-7.76395E-08-4.27741E-07-2.91481E-08
 -1      5859-6.98960E-08-4.32174E-07-2.69651E-08
 -1      5860-3.67342E-08-7.55001E-08-6.39641E-09
 -1      5861-7.08820E-08-4.42386E-07-2.79677E-08
 -1      5862-3.36292E-08-5.93888E-08-4.84202E-09
 -1      5863-5.05633E-09-5.81364E-08-4.33172E-09
 -1      5864 1.96602E-08-2.00045E-08 2.69316E-09
 -1      5865 6.64089E-09-7.22654E-09-1.22675E-09
 -1      5866-1.66112E-08-8.11402E-08-7.05466E-09
 -1      5867-3.80147E-11-1.75738E-09-2.89516E-12
 -1      5868 2.67051E-10-4.88610E-08-1.61825E-10
 -1      5869-1.96356E-08-4.59527E-08-3.21670E-09
 -1      5870 3.61392E-08-7.38572E-08 6.71039E-09
 -1      5871-5.47590E-08-4.49176E-07-2.28187E-08
 -1      5872 3.11612E-08-9.13191E-08 8.24859E-09
 -1      5873-3.61019E-09-6.52692E-08-5.16597E-09
 -1      5874-4.96621E-08-4.48527E-07-2.09001E-08
 -1      5875-4.38226E-08-4.53940E-07-1.87953E-08
 -1      5876-5.16307E-09-4.41892E-08-1.43568E-09
 -1      5877-4.76846E-08-4.50227E-07-2.02279E-08
 -1      5878-4.40688E-08-4.52873E-07-1.89329E-08
 -1      5879 3.87630E-10-4.59583E-08-1.18319E-09
 -1      5880-6.19233E-08-4.49610E-07-2.54055E-08
 -1      5881-6.34600E-08-4.44886E-07-2.56257E-08
 -1      5882 2.05206E-08-5.35824E-08 4.41484E-09
 -1      5883 3.69682E-10-4.93084E-08-5.01314E-10
 -1      5884 5.73605E-10-8.14087E-09-1.26103E-10
 -1      5885 4.34982E-09-9.86513E-09-5.38610E-10
 -1      5886-9.60848E-10-2.70605E-08-3.33301E-10
 -1      5887 1.62903E-09-7.02480E-09-4.10612E-10
 -1      5888 6.52738E-09-1.83266E-08 1.92984E-10
 -1      5889-1.88533E-09-1.23379E-08-5.65956E-10
 -1      5890-1.94889E-09-3.57409E-08-1.05073E-09
 -1      5891-3.86724E-10-2.24409E-09-5.55089E-11
 -1      5892 1.12808E-08-6.90243E-09-1.89640E-09
 -1      5893 1.70377E-08-2.82442E-08 1.55922E-09
 -1      5894 1.63219E-08-1.45202E-08 2.30561E-09
 -1      5895-6.18888E-08-4.48772E-07-2.53452E-08
 -1      5896-8.80284E-10-6.30508E-09 2.43003E-10
 -1      5897-2.19781E-09-6.15342E-09 6.58106E-10
 -1      5898-1.79492E-08-2.78206E-08-2.50118E-09
 -1      5899-2.18738E-09-2.02242E-08-1.90721E-10
 -1      5900-6.92887E-10-2.71878E-08-2.41143E-10
 -1      5901-5.06024E-10-2.64975E-09 2.41085E-10
 -1      5902-6.84391E-09-7.47496E-09 1.21570E-09
 -1      5903-1.08989E-09-1.30460E-09 4.71414E-10
 -1      5904-1.05602E-08-2.71143E-08-1.71325E-09
 -1      5905 8.03582E-08-2.67402E-07 2.11774E-08
 -1      5906-2.55008E-08-2.90189E-08-1.38664E-09
 -1      5907-1.86912E-08-3.72492E-08-2.23462E-09
 -1      5908-1.11264E-08-3.58653E-08-1.90204E-09
 -1      5909 7.00452E-08-9.25322E-08 8.68992E-09
 -1      5910-1.57656E-08-2.57055E-08-9.61765E-10
 -1      5911-9.79451E-09-2.69551E-08-9.78191E-10
 -1      5912-8.42725E-09-1.96542E-08-2.46810E-10
 -1      5913-5.03220E-09-1.12358E-08 4.58738E-10
 -1      5914-3.64583E-09-6.88494E-09 7.89390E-10
 -1      5915 4.59374E-08-5.53065E-08 4.99636E-09
 -1      5916-5.75785E-09-1.98961E-08-1.70660E-10
 -1      5917-2.03138E-08-2.12342E-08-3.53756E-10
 -1      5918-5.60184E-09-4.33984E-09-7.63858E-11
 -1      5919-8.38349E-10-1.09796E-09-5.87487E-11
 -1      5920 2.63962E-08-2.95339E-08 1.54541E-09
 -1      5921-2.64784E-10-1.39214E-09 3.45774E-11
 -1      5922-1.10158E-10-1.48442E-09 3.87042E-11
 -1      5923-1.56718E-10-2.22985E-09-1.19451E-11
 -1      5924 2.39607E-08-1.37878E-08-4.81913E-10
 -1      5925 1.24370E-08-9.47261E-09-1.47573E-09
 -1      5926-5.31766E-10-1.66452E-09 1.26077E-10
 -1      5927 3.65035E-10-1.67549E-09-6.67193E-11
 -1      5928 3.81094E-10-1.85249E-09-2.15054E-10
 -1      5929 1.80619E-10-1.26267E-09-1.08339E-10
 -1      5930 1.74481E-10-1.71730E-09-1.37148E-12
 -1      5931 9.50178E-09-1.22754E-08 1.80512E-09
 -1      5932 3.76527E-11-1.98121E-09-4.15996E-12
 -1      5933 2.07253E-10-6.65519E-09-5.72513E-11
 -1      5934 3.09377E-10-5.36477E-09-1.12521E-10
 -1      5935-2.90514E-11-6.93537E-09-6.94097E-12
 -1      5936 5.78929E-10-1.79365E-09-1.10603E-11
 -1      5937 1.23399E-10-1.72495E-09-2.02688E-11
 -1      5938 2.76505E-09-5.30505E-09-7.39138E-10
 -1      5939 4.89231E-10-1.74202E-09-2.26404E-10
 -1      5940 1.69863E-09-1.67110E-09-2.72771E-10
 -1      5941 4.34366E-09-3.16277E-09-7.03678E-10
 -1      5942 1.38664E-09-1.53449E-09-6.51836E-10
 -1      5943 2.74607E-09-2.12195E-09-4.49137E-10
 -1      5944 2.28391E-08-8.70934E-09-1.04322E-09
 -1      5945 8.99271E-09-8.20743E-09-1.11396E-09
 -1      5946 3.51540E-08-2.42665E-08 3.62172E-09
 -1      5947 9.47985E-09-7.98143E-09 2.33827E-09
 -1      5948 9.51990E-10-5.99696E-09-3.29202E-10
 -1      5949 1.33381E-09-4.31202E-09-5.10226E-10
 -1      5950 2.86123E-08-2.20759E-08 7.40455E-10
 -1      5951 3.02173E-09-6.17847E-09 1.13570E-09
 -1      5952 1.31847E-08-9.73525E-09 2.57825E-09
 -1      5953 1.51188E-08-1.52455E-08-3.46874E-10
 -1      5954 6.32518E-09-1.33405E-08-2.86227E-10
 -1      5955 3.74711E-08-3.19159E-08 4.58979E-09
 -1      5956 1.19559E-09-1.21065E-09 1.16715E-10
 -1      5957 6.79403E-09-6.91302E-09 1.93961E-09
 -1      5958 2.11314E-08-2.26691E-08 8.69387E-10
 -1      5959 8.41830E-10-1.48860E-09-3.89242E-10
 -1      5960 1.65334E-08-2.14901E-08 2.37997E-09
 -1      5961 2.18719E-08-2.63045E-08 1.12220E-09
 -1      5962-1.35287E-08-4.61495E-07-4.15446E-09
 -1      5963-1.87792E-08-4.58094E-07-7.31821E-09
 -1      5964 8.51809E-09-1.25344E-08-4.63189E-10
 -1      5965 2.25110E-08-2.93534E-08 1.71335E-09
 -1      5966-4.08596E-08-4.51149E-07-1.76446E-08
 -1      5967 3.84707E-08-4.02153E-08 3.21581E-09
 -1      5968 2.07321E-09-5.87862E-09 7.81099E-10
 -1      5969 3.29613E-09-1.24528E-08-1.63955E-10
 -1      5970 1.10388E-08-1.53716E-08-2.66682E-10
 -1      5971-3.42451E-08-4.53985E-07-1.48538E-08
 -1      5972 2.46151E-09-1.92763E-08 2.32782E-10
 -1      5973 5.36826E-09-6.98370E-09-1.00199E-09
 -1      5974-1.45181E-09-4.64236E-07-1.74813E-09
 -1      5975 5.38406E-10-2.35891E-09 2.85538E-10
 -1      5976 2.51667E-10-4.36384E-07 2.99399E-10
 -1      5977-4.57306E-09-4.44125E-07-2.10600E-09
 -1      5978 2.36693E-09-6.48613E-09-5.81079E-10
 -1      5979-2.44766E-08-4.50420E-07-1.08119E-08
 -1      5980 5.09252E-09-6.26342E-09 1.67985E-09
 -1      5981 3.66160E-10-1.98666E-08 7.91268E-11
 -1      5982 8.19370E-10-2.02045E-08 1.28800E-10
 -1      5983 1.99383E-09-1.34195E-08 5.98423E-10
 -1      5984 6.14458E-10-1.33728E-09 2.92284E-10
 -1      5985 4.13981E-10-1.10417E-09-1.56305E-10
 -1      5986-1.52830E-10-1.14792E-08 2.14184E-11
 -1      5987-8.07623E-09-4.37675E-07-3.41512E-09
 -1      5988-1.45050E-08-4.23518E-07-5.65636E-09
 -1      5989-1.34535E-08-4.47310E-07-3.48727E-09
 -1      5990-1.43896E-08-4.39608E-07-6.11409E-09
 -1      5991 4.15524E-11-1.92269E-08 2.40979E-11
 -1      5992-2.79044E-08-4.24988E-07-1.12861E-08
 -1      5993 8.42756E-11-1.42764E-08 1.80063E-11
 -1      5994-2.27836E-12-4.32744E-08 2.07498E-10
 -1      5995-1.53796E-08-4.55902E-07-6.68748E-09
 -1      5996 4.52374E-09-2.86191E-08 9.43402E-10
 -1      5997-2.87649E-10-5.01320E-08 2.64910E-10
 -1      5998-1.58967E-08-4.49276E-07-7.49455E-09
 -1      5999 8.88280E-09-6.45526E-08 5.52040E-09
 -1      6000-2.84920E-08-4.48220E-07-1.24306E-08
 -1      6001 4.39937E-09-4.56733E-08 2.71128E-09
 -1      6002 1.24846E-08-4.47392E-08 2.72571E-09
 -1      6003 6.64094E-08-7.44747E-08 1.03931E-08
 -1      6004 4.12680E-09-1.96912E-08 3.20493E-10
 -1      6005-2.64206E-08-4.41281E-07-1.11598E-08
 -1      6006-1.47325E-08-4.07408E-07-5.59877E-09
 -1      6007-3.56253E-08-4.25042E-07-1.43751E-08
 -1      6008-2.28445E-08-4.08507E-07-8.96407E-09
 -1      6009 2.84947E-10-4.73107E-08-3.16841E-10
 -1      6010-6.24396E-08-4.22694E-07-2.39670E-08
 -1      6011-2.26190E-08-3.79949E-07-8.88947E-09
 -1      6012-1.29001E-08-4.02017E-07-4.62083E-09
 -1      6013 3.54962E-09-1.67144E-08 1.59259E-11
 -1      6014-1.62829E-08-3.92065E-07-6.26255E-09
 -1      6015 7.60441E-10-1.61376E-08 9.78369E-12
 -1      6016 2.43707E-08-5.68000E-08 4.74006E-09
 -1      6017 1.70306E-09-1.28215E-08-8.98472E-11
 -1      6018 3.46509E-10-5.01552E-08-1.05470E-10
 -1      6019-1.60797E-08-4.13559E-07-6.20744E-09
 -1      6020 2.54200E-09-2.61571E-08 7.97288E-10
 -1      6021 3.51147E-08-4.74664E-08 5.52070E-09
 -1      6022-3.61280E-09-4.19851E-07-1.01034E-09
 -1      6023 1.13716E-09-2.86712E-08 5.35331E-10
 -1      6024 3.25589E-08-2.77274E-08 3.88966E-09
 -1      6025 8.15047E-10-2.51898E-08 2.84886E-10
 -1      6026-2.71402E-10-4.54547E-08 1.09321E-09
 -1      6027 2.59882E-11-4.73348E-08 5.94231E-11
 -1      6028-1.23875E-10-4.93014E-08 3.79714E-10
 -1      6029-3.56536E-08-4.10040E-07-1.40504E-08
 -1      6030 5.27754E-08-1.75764E-07 1.28552E-08
 -1      6031-7.93831E-10-5.15863E-08 2.14131E-09
 -1      6032-6.16678E-10-4.98463E-08 1.32960E-09
 -1      6033-3.02105E-08-4.07968E-07-1.19472E-08
 -1      6034-3.71491E-08-4.47594E-07-1.59336E-08
 -1      6035 3.48027E-08-5.61156E-08 5.90689E-09
 -1      6036 5.21492E-09-2.51420E-08 1.25602E-09
 -1      6037 4.83963E-08-3.88609E-08 6.11070E-09
 -1      6038 5.16950E-09-3.62271E-08 1.68226E-09
 -1      6039 1.95781E-08-3.71060E-08 2.53759E-09
 -1      6040 3.71925E-08-4.67909E-08 3.78109E-09
 -1      6041 2.98623E-08-4.67712E-08 3.94526E-09
 -1      6042 2.82031E-08-3.74041E-08 2.73198E-09
 -1      6043 2.53262E-08-2.73545E-08 3.29063E-09
 -1      6044 1.17019E-08-7.25785E-08 6.41308E-09
 -1      6045 3.51278E-08-5.81104E-08 5.17187E-09
 -1      6046 1.76480E-08-8.35968E-08 7.63728E-09
 -1      6047 5.24782E-08-4.92127E-08 4.36140E-09
 -1      6048-5.02785E-08-4.47805E-07-2.08335E-08
 -1      6049-5.23635E-08-4.33810E-07-2.10588E-08
 -1      6050-5.50891E-08-4.54447E-07-2.32329E-08
 -1      6051 4.15603E-08-1.91598E-07 1.38988E-08
 -1      6052 5.10154E-08-1.38642E-07 1.13438E-08
 -1      6053 4.06520E-08-9.25969E-08 8.32874E-09
 -1      6054 5.52926E-08-7.76587E-08 7.31526E-09
 -1      6055-3.92335E-08-4.49859E-07-1.67391E-08
 -1      6056 1.94670E-08-1.05648E-07 9.04053E-09
 -1      6057-6.55420E-08-4.48693E-07-2.66075E-08
 -1      6058-5.82119E-08-4.34766E-07-2.30039E-08
 -1      6059-6.44100E-08-4.09390E-07-2.39493E-08
 -1      6060-5.70311E-08-4.09614E-07-2.16228E-08
 -1      6061-5.01963E-08-4.10431E-07-1.93223E-08
 -1      6062 1.14451E-08-5.67144E-08 2.96430E-09
 -1      6063 6.72442E-09-5.73266E-08 4.53757E-09
 -1      6064 8.86218E-08-3.63425E-07 2.85294E-08
 -1      6065 1.05941E-08-5.76913E-08 4.56587E-09
 -1      6066-3.41330E-08-3.94225E-07-1.33200E-08
 -1      6067-4.82280E-08-4.40096E-07-1.98647E-08
 -1      6068 2.20749E-08-4.69486E-08 3.68106E-09
 -1      6069-5.04632E-08-4.17070E-07-1.96635E-08
 -1      6070 8.16949E-08-3.66050E-07 2.72143E-08
 -1      6071-7.02802E-08-4.24380E-07-2.66044E-08
 -1      6072-6.70314E-08-4.45444E-07-2.68773E-08
 -1      6073-6.40355E-08-4.27877E-07-2.47901E-08
 -1      6074-5.08900E-08-4.44097E-07-2.10895E-08
 -1      6075-4.70994E-08-4.24356E-07-1.87544E-08
 -1      6076 8.66787E-08-3.98913E-07 3.08017E-08
 -1      6077-3.86446E-08-4.39751E-07-1.61005E-08
 -1      6078 8.14832E-08-2.93762E-07 2.27605E-08
 -1      6079 8.40025E-08-2.46502E-07 2.05551E-08
 -1      6080-6.00855E-08-4.03799E-07-2.20439E-08
 -1      6081-5.95475E-08-3.80615E-07-2.13858E-08
 -1      6082-7.12738E-08-3.78951E-07-2.44573E-08
 -1      6083 8.37357E-08-2.39236E-07 1.83231E-08
 -1      6084-6.71483E-08-3.58283E-07-2.16505E-08
 -1      6085 1.15249E-08-4.61173E-08 3.24598E-09
 -1      6086-3.24665E-08-3.64086E-07-1.28692E-08
 -1      6087 6.17949E-08-2.99954E-07 2.06430E-08
 -1      6088-5.07677E-08-3.42011E-07-1.66011E-08
 -1      6089 2.00962E-09-3.60031E-08 1.18203E-09
 -1      6090 5.25687E-08-2.25674E-07 1.70054E-08
 -1      6091-6.72572E-08-3.15067E-07-2.10124E-08
 -1      6092-5.33750E-08-3.35766E-07-1.91128E-08
 -1      6093-4.52813E-08-3.32671E-07-1.72957E-08
 -1      6094 7.71810E-08-3.38674E-07 2.35366E-08
 -1      6095-1.31031E-10-4.47262E-08 3.84312E-10
 -1      6096 3.44137E-08-4.59183E-07 1.44767E-08
 -1      6097 4.94784E-11-4.89700E-08 5.49280E-11
 -1      6098 3.83909E-08-1.07229E-07 9.43578E-09
 -1      6099-1.01381E-08-3.63263E-07-3.44403E-09
 -1      6100 2.52302E-08-2.33095E-08 8.48011E-10
 -1      6101-3.78938E-08-4.44868E-07-1.55470E-08
 -1      6102-3.96805E-08-3.48304E-07-1.54780E-08
 -1      6103 3.38334E-08-4.27531E-07 1.46505E-08
 -1      6104 5.58523E-09-4.28499E-09-1.65528E-09
 -1      6105-5.55636E-08-3.50624E-07-1.97553E-08
 -1      6106-2.59281E-09-4.33071E-07-4.69931E-11
 -1      6107-6.60583E-08-3.50110E-07-2.20886E-08
 -1      6108 2.38140E-08-4.23524E-07 1.05171E-08
 -1      6109-4.39151E-08-3.64238E-07-1.66710E-08
 -1      6110 3.09472E-08-2.63820E-08 1.35152E-09
 -1      6111 6.00364E-08-4.50581E-07 2.56306E-08
 -1      6112 5.47741E-08-4.52448E-07 2.38035E-08
 -1      6113 3.84792E-08-4.55459E-07 1.72102E-08
 -1      6114 7.07015E-08-4.57064E-07 2.98521E-08
 -1      6115-5.72736E-08-3.67003E-07-2.04787E-08
 -1      6116 1.16781E-08-4.56660E-07 4.06729E-09
 -1      6117 6.17600E-08-4.52758E-07 2.63136E-08
 -1      6118 2.98599E-08-3.63626E-07 1.28800E-08
 -1      6119 3.58963E-08-4.17371E-07 1.51602E-08
 -1      6120 4.23523E-08-3.27921E-07 1.45338E-08
 -1      6121 1.56069E-08-4.16101E-09-1.33334E-09
 -1      6122 6.11591E-08-4.11895E-07 2.39403E-08
 -1      6123 6.26761E-08-1.13097E-07 1.02345E-08
 -1      6124 5.37882E-08-2.35072E-07 1.42827E-08
 -1      6125 7.59105E-08-2.27475E-07 1.67382E-08
 -1      6126 7.05594E-08-2.08085E-07 1.54989E-08
 -1      6127 6.02897E-08-1.25962E-07 1.09201E-08
 -1      6128 5.56095E-08-8.85664E-08 8.30437E-09
 -1      6129 8.90716E-08-3.51621E-07 2.76423E-08
 -1      6130 3.04875E-08-5.93704E-08 5.16873E-09
 -1      6131 3.54285E-08-6.53308E-08 5.86857E-09
 -1      6132 3.24698E-08-5.09351E-08 4.27995E-09
 -1      6133 5.91228E-08-4.25002E-07 2.38707E-08
 -1      6134-3.43133E-08-3.46947E-07-1.39198E-08
 -1      6135 6.28576E-08-7.24547E-08 6.82852E-09
 -1      6136 6.55877E-08-4.18914E-07 2.55079E-08
 -1      6137-3.66418E-08-3.39616E-07-1.48082E-08
 -1      6138 7.99234E-08-4.37753E-07 3.15412E-08
 -1      6139 9.10873E-08-3.89748E-07 3.11053E-08
 -1      6140-1.21897E-08-3.54965E-07-4.72063E-09
 -1      6141 4.46754E-08-3.81401E-07 1.77542E-08
 -1      6142 9.45286E-08-4.07135E-07 3.36616E-08
 -1      6143 5.70234E-08-6.35775E-08 5.87568E-09
 -1      6144 8.42949E-08-3.93580E-07 2.95278E-08
 -1      6145 6.54536E-08-8.03691E-08 7.62368E-09
 -1      6146 5.53490E-08-1.15795E-07 1.02041E-08
 -1      6147-1.14333E-08-3.62261E-07-4.36042E-09
 -1      6148-4.05519E-09-3.52170E-07-1.11184E-09
 -1      6149 3.63851E-08-1.71578E-07 1.18208E-08
 -1      6150 6.70247E-08-1.67048E-07 1.33134E-08
 -1      6151-2.16462E-08-3.63940E-07-8.73009E-09
 -1      6152 6.72086E-08-2.74970E-07 1.77386E-08
 -1      6153 7.58603E-08-2.05387E-07 1.75577E-08
 -1      6154 8.61927E-08-3.70740E-07 2.82256E-08
 -1      6155 6.11747E-08-2.67409E-07 1.95581E-08
 -1      6156-1.35255E-09-3.66572E-07 5.18154E-11
 -1      6157-1.47229E-09-3.53756E-07 7.88671E-12
 -1      6158-8.11175E-09-3.51655E-07-2.91695E-09
 -1      6159-1.45615E-09-3.78074E-07-3.87937E-12
 -1      6160-1.06271E-08-3.59481E-07-3.85972E-09
 -1      6161-5.31959E-09-3.57626E-07-1.55814E-09
 -1      6162-9.85799E-09-3.61947E-07-3.42968E-09
 -1      6163 7.46170E-08-3.81573E-07 2.64180E-08
 -1      6164 7.27503E-08-9.52582E-08 1.19919E-08
 -1      6165 8.29668E-08-3.47751E-07 2.55253E-08
 -1      6166 9.93878E-08-3.13143E-07 2.60261E-08
 -1      6167 7.34838E-08-3.07956E-07 2.05918E-08
 -1      6168 9.67532E-08-2.97067E-07 2.41715E-08
 -1      6169 8.45909E-08-1.83781E-07 1.53307E-08
 -1      6170 8.58448E-08-1.73191E-07 1.69765E-08
 -1      6171 8.31758E-08-3.01449E-07 2.20439E-08
 -1      6172 4.10518E-08-1.86562E-07 1.23332E-08
 -1      6173 7.17832E-08-1.87936E-07 1.46526E-08
 -1      6174 9.17993E-08-2.24349E-07 1.83454E-08
 -1      6175 5.98132E-08-9.36593E-08 1.05456E-08
 -1      6176 6.51284E-08-1.45048E-07 1.22639E-08
 -1      6177 7.88683E-08-1.12969E-07 1.36567E-08
 -1      6178 4.97040E-08-4.20898E-07 2.03818E-08
 -1      6179 8.50616E-08-1.46859E-07 1.31163E-08
 -1      6180 7.53652E-08-1.15830E-07 1.06046E-08
 -1      6181 2.32646E-08-4.32588E-07 9.69842E-09
 -1      6182 4.61280E-08-4.18298E-07 1.87311E-08
 -1      6183 6.26122E-08-9.87010E-08 9.24856E-09
 -1      6184 1.37216E-08-4.31486E-07 6.36913E-09
 -1      6185-9.50194E-08-4.16593E-07-3.34606E-08
 -1      6186 5.00181E-08-7.01915E-08 6.58794E-09
 -1      6187 7.43197E-08-1.03669E-07 9.75633E-09
 -1      6188 6.87699E-08-3.66968E-07 2.42558E-08
 -1      6189 4.91010E-08-6.32358E-08 5.87835E-09
 -1      6190 1.60637E-08-4.44177E-08 3.17548E-09
 -1      6191 4.74354E-08-7.44423E-08 6.87192E-09
 -1      6192 2.30750E-08-9.62301E-09 9.38852E-10
 -1      6193 9.99205E-08-3.65898E-07 3.12005E-08
 -1      6194 4.15264E-08-6.06775E-08 5.45948E-09
 -1      6195 5.95885E-08-7.52857E-08 9.42403E-09
 -1      6196 4.51648E-08-4.77458E-08 4.40141E-09
 -1      6197 5.31513E-08-5.72548E-08 7.98656E-09
 -1      6198 6.36182E-08-3.07946E-07 1.85812E-08
 -1      6199 3.55471E-08-3.38752E-07 1.52260E-08
 -1      6200 1.92323E-08-3.63524E-07 8.84927E-09
 -1      6201 8.74510E-09-4.11874E-07 4.21960E-09
 -1      6202 1.17457E-08-4.00300E-07 5.39743E-09
 -1      6203 1.34009E-08-4.14211E-07 6.12374E-09
 -1      6204 3.29092E-08-3.46451E-07 1.42683E-08
 -1      6205 3.96189E-08-3.49175E-07 1.62430E-08
 -1      6206 1.48986E-08-4.45204E-07 5.91421E-09
 -1      6207-6.12806E-08-2.32803E-07-1.72411E-08
 -1      6208-7.78389E-08-3.37396E-07-2.25300E-08
 -1      6209 6.71890E-08-4.53035E-07 2.82760E-08
 -1      6210 1.73057E-08-4.64097E-07 8.79606E-09
 -1      6211-5.97683E-08-4.44979E-07-2.42426E-08
 -1      6212-4.25377E-09-4.46672E-07 2.81820E-11
 -1      6213-5.16780E-08-4.16679E-07-1.98019E-08
 -1      6214-6.02948E-08-4.18280E-07-2.28208E-08
 -1      6215-4.41614E-08-4.33028E-07-1.76382E-08
 -1      6216-6.22273E-08-4.54565E-07-2.58639E-08
 -1      6217 3.33721E-08-2.05663E-08 6.90846E-10
 -1      6218-8.30125E-08-3.13798E-07-2.30893E-08
 -1      6219 3.29637E-08-3.06193E-08 1.94441E-09
 -1      6220 3.84434E-08-3.18707E-08 1.99946E-09
 -1      6221-2.81580E-08-4.51419E-07-1.11717E-08
 -1      6222-6.97418E-08-3.71869E-07-2.31336E-08
 -1      6223-4.13973E-08-1.69838E-07-1.20344E-08
 -1      6224-3.02198E-08-3.70558E-07-1.12648E-08
 -1      6225-7.64773E-08-2.50943E-07-1.69343E-08
 -1      6226 2.84252E-09-1.60544E-09 1.36150E-09
 -1      6227 6.55232E-09-4.48596E-09 2.29139E-09
 -1      6228 4.21602E-09-2.37147E-09 1.36157E-09
 -1      6229-7.84326E-09-3.59687E-07-2.47023E-09
 -1      6230 2.64555E-08-3.31756E-08 2.05200E-09
 -1      6231 1.88803E-08-1.70361E-08 2.73952E-09
 -1      6232-4.25453E-08-2.18837E-07-1.28875E-08
 -1      6233-3.68670E-08-4.17923E-07-1.43485E-08
 -1      6234-7.63018E-08-4.35937E-07-2.92388E-08
 -1      6235-8.30930E-08-2.93464E-07-2.18953E-08
 -1      6236-6.30598E-08-2.68668E-07-1.89110E-08
 -1      6237 2.27603E-08-3.62469E-08 3.59573E-09
 -1      6238-7.13737E-08-4.52743E-07-2.89207E-08
 -1      6239-7.77047E-08-2.10823E-07-1.70942E-08
 -1      6240-9.31657E-08-2.02772E-07-1.79079E-08
 -1      6241-1.01341E-07-2.65342E-07-2.18588E-08
 -1      6242-9.48048E-08-2.22850E-07-1.90760E-08
 -1      6243-8.24208E-08-3.01528E-07-2.08016E-08
 -1      6244-9.90533E-08-2.93266E-07-2.35106E-08
 -1      6245-8.36287E-08-3.60005E-07-2.56242E-08
 -1      6246-5.52996E-08-3.72850E-07-1.92746E-08
 -1      6247-6.16485E-08-3.17377E-07-1.80720E-08
 -1      6248 2.87740E-08-2.08880E-08 3.11335E-09
 -1      6249-8.36353E-08-3.38382E-07-2.39435E-08
 -1      6250-7.28860E-08-2.06982E-07-1.48258E-08
 -1      6251 2.60933E-08-1.74688E-08 1.23533E-10
 -1      6252 3.53154E-08-2.45804E-08 1.17985E-09
 -1      6253 1.39223E-08-1.24879E-08-9.52543E-10
 -1      6254-6.92223E-08-3.80433E-07-2.34476E-08
 -1      6255 8.69920E-09-5.56675E-09 1.56714E-10
 -1      6256-8.63165E-08-3.49904E-07-2.59565E-08
 -1      6257-9.40053E-08-4.19949E-07-3.34591E-08
 -1      6258 1.85980E-08-1.39847E-08-7.93600E-10
 -1      6259-8.78867E-08-4.17433E-07-3.14199E-08
 -1      6260 2.46401E-08-1.02056E-08-5.47960E-11
 -1      6261-3.28416E-08-3.99882E-07-1.25423E-08
 -1      6262 3.02926E-08-8.00720E-09-3.00876E-10
 -1      6263 3.96407E-08-1.69782E-08 8.38238E-10
 -1      6264-4.56994E-08-3.80636E-07-1.72075E-08
 -1      6265 2.31091E-08-5.84668E-09 2.99466E-10
 -1      6266-8.54361E-08-3.52945E-07-2.54915E-08
 -1      6267-3.80241E-08-4.56684E-07-1.64401E-08
 -1      6268-8.03391E-08-3.22424E-07-2.20327E-08
 -1      6269-6.66873E-08-3.38813E-07-2.17988E-08
 -1      6270-7.32572E-09-4.67349E-07-7.10126E-10
 -1      6271-3.17931E-08-4.16536E-07-1.23104E-08
 -1      6272 1.17604E-08-4.61722E-09 2.60733E-10
 -1      6273 3.86331E-09-2.02553E-09 1.61000E-10
 -1      6274 2.45655E-09-1.67596E-09 1.77176E-10
 -1      6275-9.73275E-08-2.71893E-07-2.10630E-08
 -1      6276 2.41353E-08-9.13690E-09 1.97020E-09
 -1      6277 1.51127E-08-7.75908E-09 2.51848E-09
 -1      6278 1.61595E-08-6.80874E-09 1.57498E-09
 -1      6279-8.60459E-08-3.72549E-07-2.75917E-08
 -1      6280-7.84446E-08-3.67251E-07-2.55317E-08
 -1      6281-8.73246E-08-3.67324E-07-2.74620E-08
 -1      6282-9.87354E-08-3.66224E-07-2.97575E-08
 -1      6283-9.86361E-08-3.51161E-07-2.82609E-08
 -1      6284 3.32479E-08-1.82328E-08 2.69355E-09
 -1      6285-2.53671E-08-3.98658E-07-9.62532E-09
 -1      6286 3.28432E-08-7.44508E-09 1.47202E-09
 -1      6287-7.11584E-08-3.59305E-07-2.35096E-08
 -1      6288-5.99508E-08-2.95872E-07-1.96210E-08
 -1      6289-4.63384E-08-2.41714E-07-1.65685E-08
 -1      6290-8.35885E-08-3.36370E-07-2.45537E-08
 -1      6291-8.43641E-08-3.24613E-07-2.39744E-08
 -1      6292-8.33702E-08-2.65678E-07-2.01840E-08
 -1      6293 3.02452E-08-2.35853E-08 3.39304E-09
 -1      6294-5.47120E-08-3.13741E-07-1.93320E-08
 -1      6295 4.20588E-08-4.47302E-08 6.08900E-09
 -1      6296-4.54331E-08-3.36636E-07-1.49707E-08
 -1      6297-8.94267E-08-3.59377E-07-2.73092E-08
 -1      6298 4.01525E-08-1.56786E-08 2.12056E-09
 -1      6299-7.42588E-08-2.99381E-07-1.93298E-08
 -1      6300-9.95333E-08-3.31273E-07-2.65854E-08
 -1      6301 4.00086E-08-3.74761E-08 5.21051E-09
 -1      6302-1.00536E-07-3.09630E-07-2.48400E-08
 -1      6303 4.30056E-08-3.12725E-08 4.84529E-09
 -1      6304 2.01720E-08-1.35187E-08 2.74442E-09
 -1      6305 2.52846E-08-1.49738E-08 2.72538E-09
 -1      6306 2.44435E-08-2.18207E-08 3.13716E-09
 -1      6307 1.77231E-08-2.92049E-08 2.87663E-09
 -1      6308 2.57631E-08-1.71732E-08 2.54462E-09
 -1      6309-7.49473E-08-4.18639E-07-2.77059E-08
 -1      6310 2.02071E-08-1.11704E-08 2.13857E-09
 -1      6311 1.90931E-08-1.47556E-08 2.73145E-09
 -1      6312-2.53413E-09-3.93231E-07-4.74629E-10
 -1      6313 8.57831E-09-3.62068E-07 4.39582E-09
 -1      6314 1.60143E-08-4.41786E-09 1.98944E-09
 -1      6315 1.96470E-09-1.16773E-08 5.91397E-10
 -1      6316 1.50354E-09-1.31274E-09 6.71822E-10
 -1      6317 8.23313E-10-1.31276E-08 2.86578E-10
 -1      6318 2.13870E-08-2.34193E-08 2.96375E-09
 -1      6319 2.66652E-09-4.24435E-09 1.08038E-09
 -1      6320-1.68405E-11-2.52207E-08 7.42838E-12
 -1      6321-3.48211E-11-2.00134E-08 5.63403E-12
 -1      6322 2.69850E-09-2.28161E-08 8.12346E-10
 -1      6323-6.12150E-08-4.43328E-07-2.47639E-08
 -1      6324-9.23543E-08-2.41306E-07-1.98676E-08
 -1      6325-7.85002E-08-2.48393E-07-1.92600E-08
 -1      6326-5.52091E-08-5.79653E-08-7.88849E-09
 -1      6327 9.48408E-10-5.84326E-09 3.74326E-10
 -1      6328 1.14917E-09-1.67191E-08 4.04686E-10
 -1      6329-4.80138E-08-3.85030E-08-5.66447E-09
 -1      6330-5.22509E-09-3.92261E-09 1.61083E-09
 -1      6331-1.19147E-10-6.76373E-09-5.33752E-11
 -1      6332-6.03909E-11-1.42090E-08-8.30087E-12
 -1      6333 1.09567E-10-1.88862E-09 7.90329E-12
 -1      6334-1.43785E-08-3.23523E-09-2.08780E-09
 -1      6335 4.99658E-10-6.30452E-09 2.20093E-10
 -1      6336 1.54061E-10-6.76202E-09 5.74686E-11
 -1      6337-1.33656E-11-4.34393E-09-7.80280E-12
 -1      6338 4.34189E-12-1.76331E-09-2.29063E-13
 -1      6339-7.99497E-08-2.74609E-07-2.06921E-08
 -1      6340 6.65013E-10-1.21490E-08-3.07692E-11
 -1      6341 2.52848E-10-2.71430E-09 1.37306E-10
 -1      6342-9.84036E-08-3.16558E-07-2.51511E-08
 -1      6343-1.66976E-08-1.50665E-08-2.33347E-09
 -1      6344-2.78075E-08-1.38478E-08-2.29227E-09
 -1      6345 8.14665E-10-1.52964E-09-6.87226E-12
 -1      6346-2.50188E-09-5.82388E-09-9.67215E-10
 -1      6347-3.72214E-09-1.20375E-08-9.59433E-10
 -1      6348 8.89320E-10-2.44595E-09 5.12550E-10
 -1      6349-8.34422E-10-1.89910E-08-2.51323E-10
 -1      6350 8.57839E-10-1.38198E-09 2.17150E-10
 -1      6351-1.59372E-09-2.71769E-08-5.09420E-10
 -1      6352 4.00977E-09-3.97526E-09 1.51618E-09
 -1      6353 2.21559E-11-3.53062E-08 2.99158E-11
 -1      6354 2.01624E-08-2.66606E-08 2.92459E-09
 -1      6355 1.03047E-08-2.66642E-08 1.87750E-09
 -1      6356 9.31816E-09-1.90768E-08 1.76184E-09
 -1      6357 1.11942E-08-3.60823E-08 2.12574E-09
 -1      6358-6.82586E-09-1.33753E-08-1.45970E-09
 -1      6359 7.83930E-09-1.41455E-08 1.72073E-09
 -1      6360 6.48247E-09-1.90739E-08 1.47201E-09
 -1      6361-1.40822E-08-2.07713E-08-2.19832E-09
 -1      6362-3.83073E-08-3.27937E-08-4.38966E-09
 -1      6363 6.74796E-09-1.09098E-08 1.62061E-09
 -1      6364 3.76014E-09-1.16730E-08 9.68050E-10
 -1      6365 4.90955E-09-2.00419E-08 1.10569E-09
 -1      6366 2.27771E-10-1.33059E-09 1.13739E-10
 -1      6367-1.71116E-08-2.15850E-08-2.97351E-10
 -1      6368-1.36418E-09-1.83326E-08-4.31827E-10
 -1      6369 2.49842E-09-1.97243E-08 6.99925E-10
 -1      6370 2.29967E-09-2.83238E-08 7.17542E-10
 -1      6371-3.00161E-10-4.84062E-08 1.58299E-10
 -1      6372 6.93905E-11-4.15924E-08 6.21462E-11
 -1      6373 6.87152E-11-2.75529E-08 5.88682E-11
 -1      6374 9.01406E-10-4.55929E-08 2.00417E-09
 -1      6375 4.73951E-10-1.95365E-08 1.81120E-10
 -1      6376 9.47714E-10-2.66027E-08 3.75510E-10
 -1      6377 7.79471E-10-3.43911E-08 4.21500E-10
 -1      6378-7.52888E-08-9.06365E-08-1.14951E-08
 -1      6379-6.48493E-08-3.44968E-07-2.02998E-08
 -1      6380-5.82922E-11-4.84352E-08 1.50174E-10
 -1      6381-5.57601E-08-7.13491E-08-8.47748E-09
 -1      6382 5.17971E-11-4.42086E-08 3.96644E-10
 -1      6383-9.04773E-08-1.79165E-07-1.66646E-08
 -1      6384-1.93535E-10-4.90934E-08 5.08968E-10
 -1      6385-1.74178E-10-4.71367E-08 8.01643E-10
 -1      6386 5.37510E-09-4.43795E-08 1.65032E-09
 -1      6387 5.51048E-09-3.42058E-08 1.44125E-09
 -1      6388 1.67649E-09-4.37985E-08 9.18173E-10
 -1      6389 2.14321E-08-4.39244E-08 3.76755E-09
 -1      6390 1.33708E-08-7.05277E-08 3.41753E-09
 -1      6391-5.71168E-08-1.04842E-07-1.02381E-08
 -1      6392-4.17927E-08-9.22889E-08-7.83745E-09
 -1      6393-6.38117E-08-1.24497E-07-1.17828E-08
 -1      6394 2.20414E-08-5.83959E-08 4.92981E-09
 -1      6395-6.01949E-08-1.73009E-07-1.37274E-08
 -1      6396 1.92368E-08-7.88448E-08 4.66598E-09
 -1      6397 5.42836E-09-6.38582E-08 1.90999E-09
 -1      6398 1.17373E-08-3.52602E-08 2.29477E-09
 -1      6399 2.90008E-08-3.55174E-08 4.20265E-09
 -1      6400 6.80064E-09-5.64422E-08 2.02105E-09
 -1      6401 2.16775E-08-6.98981E-08 4.80449E-09
 -1      6402 3.21876E-08-8.87596E-08 6.98764E-09
 -1      6403 3.84079E-08-1.67810E-07 1.22301E-08
 -1      6404-3.42682E-08-4.70192E-08-4.95451E-09
 -1      6405-4.54752E-08-4.49510E-08-5.93545E-09
 -1      6406 3.67188E-08-6.73281E-08 6.63230E-09
 -1      6407 5.16994E-08-7.36017E-08 8.76355E-09
 -1      6408-2.20333E-08-5.32781E-08-3.92318E-09
 -1      6409-4.70270E-08-5.75410E-08-6.84620E-09
 -1      6410-5.11717E-08-7.45529E-08-8.21395E-09
 -1      6411 5.55705E-08-4.86699E-08 7.71731E-09
 -1      6412 6.50093E-08-1.21651E-07 1.23822E-08
 -1      6413 8.82095E-08-1.43255E-07 1.57059E-08
 -1      6414 9.31794E-08-2.02348E-07 1.89534E-08
 -1      6415 7.02827E-08-1.71014E-07 1.53234E-08
 -1      6416 5.03234E-08-2.08402E-07 1.57002E-08
 -1      6417 7.17834E-08-1.41253E-07 1.38316E-08
 -1      6418 4.56635E-08-5.82486E-08 7.23755E-09
 -1      6419 5.17384E-08-1.73865E-07 1.37895E-08
 -1      6420 5.48128E-08-6.91767E-08 8.83317E-09
 -1      6421-5.67406E-08-8.05540E-08-9.03895E-09
 -1      6422-6.80833E-08-7.51743E-08-9.99815E-09
 -1      6423 5.69538E-08-8.10391E-08 9.80165E-09
 -1      6424 3.14271E-08-4.38656E-08 4.84410E-09
 -1      6425 4.79759E-08-4.94528E-08 6.94170E-09
 -1      6426 6.50711E-08-1.06799E-07 1.18589E-08
 -1      6427 5.54945E-08-1.01643E-07 1.04639E-08
 -1      6428-4.79209E-08-5.05005E-08-6.53825E-09
 -1      6429-5.49494E-08-4.84059E-08-7.15006E-09
 -1      6430 4.54337E-08-9.36713E-08 8.81438E-09
 -1      6431 4.09897E-08-1.04868E-07 8.80876E-09
 -1      6432-9.55399E-08-3.23098E-07-2.49995E-08
 -1      6433 6.14257E-08-1.37839E-07 1.27984E-08
 -1      6434 8.41492E-08-3.01296E-07 2.35847E-08
 -1      6435 9.92008E-08-3.17451E-07 2.65760E-08
 -1      6436 3.83578E-08-3.36696E-07 1.37361E-08
 -1      6437 7.86194E-08-3.74566E-07 2.65521E-08
 -1      6438-9.56935E-08-3.57335E-07-2.82178E-08
 -1      6439 4.70748E-08-3.38332E-07 1.63190E-08
 -1      6440 8.64434E-08-3.72063E-07 2.87289E-08
 -1      6441 8.81486E-08-3.31073E-07 2.60289E-08
 -1      6442 7.03390E-08-3.49126E-07 2.38549E-08
 -1      6443 7.97186E-08-3.50334E-07 2.58282E-08
 -1      6444 9.94531E-08-3.51015E-07 2.96430E-08
 -1      6445-8.83631E-08-1.44353E-07-1.49397E-08
 -1      6446 8.54706E-08-3.21711E-07 2.49795E-08
 -1      6447 9.88606E-08-3.29245E-07 2.75186E-08
 -1      6448 9.86307E-08-3.36288E-07 2.80899E-08
 -1      6449 9.80291E-08-2.64049E-07 2.25836E-08
 -1      6450 7.54663E-08-3.97501E-07 2.75643E-08
 -1      6451 6.65208E-08-3.57437E-07 2.34148E-08
 -1      6452 6.93886E-08-3.33980E-07 2.29112E-08
 -1      6453 9.90915E-08-3.09199E-07 2.59068E-08
 -1      6454 6.63873E-08-3.11141E-07 2.16696E-08
 -1      6455 7.88618E-08-3.33746E-07 2.46852E-08
 -1      6456 9.09920E-08-2.85102E-07 2.32949E-08
 -1      6457 4.93647E-08-2.42153E-07 1.76066E-08
 -1      6458 9.84393E-08-2.35256E-07 2.09493E-08
 -1      6459 6.68314E-08-2.39580E-07 1.89219E-08
 -1      6460 3.09192E-08-3.81754E-07 1.31058E-08
 -1      6461 5.99431E-08-3.64165E-07 2.18856E-08
 -1      6462 6.76227E-08-3.71787E-07 2.35418E-08
 -1      6463 6.65471E-08-3.78248E-07 2.35415E-08
 -1      6464-7.62785E-08-9.73564E-08-1.19557E-08
 -1      6465 6.23848E-09-3.52861E-07 3.41201E-09
 -1      6466 3.67171E-09-4.07482E-07 2.10024E-09
 -1      6467 1.03283E-09-3.52792E-07 1.06609E-09
 -1      6468 3.45442E-09-3.63837E-07 2.15865E-09
 -1      6469 6.42989E-08-3.17257E-07 1.94405E-08
 -1      6470 3.98853E-08-1.99834E-07 1.46624E-08
 -1      6471 5.63709E-08-3.12491E-07 2.03974E-08
 -1      6472 4.65152E-08-2.21855E-07 1.56743E-08
 -1      6473-5.88921E-08-1.41757E-07-1.20209E-08
 -1      6474 4.55646E-08-3.00074E-07 1.84468E-08
 -1      6475 4.22215E-08-3.27824E-07 1.74344E-08
 -1      6476-7.20917E-08-1.64510E-07-1.43789E-08
 -1      6477-8.55340E-08-1.47061E-07-1.23155E-08
 -1      6478-6.26831E-08-1.62962E-07-1.35439E-08
 -1      6479 5.18476E-08-3.57972E-07 1.86644E-08
 -1      6480 5.83406E-08-3.51537E-07 2.12776E-08
 -1      6481 2.86417E-08-3.70908E-07 1.16385E-08
 -1      6482 7.81114E-09-3.62322E-07 3.53570E-09
 -1      6483-2.38764E-09-4.01120E-07-3.19494E-10
 -1      6484 1.83440E-08-3.70696E-07 7.85004E-09
 -1      6485-8.75617E-08-2.03788E-07-1.58061E-08
 -1      6486-6.55722E-08-1.12378E-07-1.13800E-08
 -1      6487-2.98348E-08-9.00254E-08-6.14171E-09
 -1      6488 1.00233E-08-3.93473E-07 4.77581E-09
 -1      6489 1.07804E-08-3.50105E-07 5.36897E-09
 -1      6490 1.35494E-08-4.49828E-07 7.44258E-09
 -1      6491 3.63163E-08-4.37810E-07 1.59397E-08
 -1      6492 6.96322E-08-4.43795E-07 2.84604E-08
 -1      6493-2.30974E-09-4.09399E-07-4.06630E-10
 -1      6494 2.59201E-08-4.63157E-07 9.90737E-09
 -1      6495 2.30311E-08-4.08173E-07 1.00211E-08
 -1      6496-2.57549E-08-6.89397E-08-4.82851E-09
 -1      6497 3.98848E-10-4.25576E-07 6.30987E-10
 -1      6498 1.22328E-08-4.23314E-07 5.68391E-09
 -1      6499 3.36957E-08-4.06239E-07 1.39111E-08
 -1      6500 2.08093E-08-4.00062E-07 9.14179E-09
 -1      6501 1.80080E-08-3.94390E-07 8.03870E-09
 -1      6502 1.25874E-08-4.39639E-07 6.00393E-09
 -1      6503 2.25138E-08-4.38755E-07 1.05778E-08
 -1      6504 1.71976E-08-4.17201E-07 7.51767E-09
 -1      6505 3.01322E-08-4.09319E-07 1.28455E-08
 -1      6506 6.04254E-08-4.37404E-07 2.49485E-08
 -1      6507 4.85150E-08-4.49564E-07 2.12561E-08
 -1      6508 7.46297E-08-4.10947E-07 2.81223E-08
 -1      6509 6.78090E-09-4.01481E-07 3.43061E-09
 -1      6510 7.32568E-08-4.20412E-07 2.81055E-08
 -1      6511 3.47203E-08-4.10491E-07 1.45826E-08
 -1      6512 3.28523E-08-3.96212E-07 1.37834E-08
 -1      6513 5.35059E-08-3.66256E-07 1.93655E-08
 -1      6514 3.11373E-08-3.88233E-07 1.28253E-08
 -1      6515 2.02580E-08-3.79901E-07 9.00989E-09
 -1      6516 7.54109E-08-4.19277E-07 2.88705E-08
 -1      6517 6.70153E-08-4.38405E-07 2.73154E-08
 -1      6518 4.80566E-08-4.13509E-07 1.95633E-08
 -1      6519 6.08570E-08-4.43762E-07 2.54950E-08
 -1      6520 7.30176E-08-4.25301E-07 2.85118E-08
 -1      6521 5.20789E-08-4.09453E-07 2.08558E-08
 -1      6522 4.71907E-08-4.26672E-07 1.97061E-08
 -1      6523 5.03973E-08-4.36852E-07 2.13149E-08
 -1      6524 7.16328E-08-4.41967E-07 2.91305E-08
 -1      6525 4.42886E-08-4.58572E-07 1.97409E-08
 -1      6526 6.28533E-08-4.58407E-07 2.71008E-08
 -1      6527 6.20493E-08-4.51612E-07 2.64165E-08
 -1      6528 5.93912E-08-4.52985E-07 2.53770E-08
 -1      6529 7.22994E-08-4.51121E-07 2.99994E-08
 -1      6530 5.09458E-08-4.57749E-07 2.25003E-08
 -1      6531 3.56234E-08-4.56240E-07 1.63503E-08
 -1      6532 3.52081E-10-4.83758E-08 9.29441E-12
 -1      6533 3.58582E-08-4.48717E-07 1.63759E-08
 -1      6534 2.68022E-08-4.53459E-07 1.30357E-08
 -1      6535 3.23409E-08-4.59403E-07 1.45127E-08
 -1      6536 2.44205E-08-4.59646E-07 1.07649E-08
 -1      6537 3.47762E-08-4.47576E-07 1.46004E-08
 -1      6538 1.32659E-08-4.60009E-07 7.49573E-09
 -1      6539 5.78772E-08-3.80908E-07 2.18195E-08
 -1      6540 6.62109E-08-4.46537E-07 2.75531E-08
 -1      6541 7.51305E-08-4.33659E-07 2.97288E-08
 -1      6542 6.06146E-08-3.97692E-07 2.32133E-08
 -1      6543 8.18179E-08-4.27302E-07 3.14385E-08
 -1      6544-7.95675E-09-5.53035E-08-1.92619E-09
 -1      6545 1.00215E-07-4.14012E-07 3.59069E-08
 -1      6546 9.80035E-08-3.82348E-07 3.23566E-08
 -1      6547-1.24626E-08-6.95494E-08-2.92572E-09
 -1      6548 1.01852E-07-4.05664E-07 3.55995E-08
 -1      6549 8.72056E-08-3.81693E-07 2.96639E-08
 -1      6550-1.01999E-08-6.25348E-08-2.38098E-09
 -1      6551 9.86695E-08-3.98624E-07 3.40570E-08
 -1      6552 7.43996E-08-4.03123E-07 2.75947E-08
 -1      6553 7.79719E-08-4.13606E-07 2.91293E-08
 -1      6554 6.51306E-08-4.28342E-07 2.61045E-08
 -1      6555 6.21099E-08-4.20101E-07 2.46418E-08
 -1      6556 9.37958E-08-4.22393E-07 3.47192E-08
 -1      6557 8.65546E-08-4.07952E-07 3.14273E-08
 -1      6558 6.25006E-08-4.35650E-07 2.53900E-08
 -1      6559 7.14437E-08-4.48595E-07 2.95176E-08
 -1      6560-9.08495E-08-2.35589E-07-1.79041E-08
 -1      6561 6.61824E-08-4.50908E-07 2.78127E-08
 -1      6562-4.62945E-08-2.45821E-07-1.26876E-08
 -1      6563 6.24995E-08-4.45371E-07 2.61788E-08
 -1      6564-4.62869E-08-2.31461E-07-1.27059E-08
 -1      6565 6.00323E-08-4.45109E-07 2.51042E-08
 -1      6566 8.41640E-08-4.05439E-07 3.04171E-08
 -1      6567 8.68072E-08-4.29855E-07 3.31409E-08
 -1      6568-7.68594E-08-2.32976E-07-1.62171E-08
 -1      6569 8.33531E-08-4.20441E-07 3.13102E-08
 -1      6570 9.24502E-08-4.04146E-07 3.27183E-08
 -1      6571 8.52065E-08-4.14702E-07 3.14431E-08
 -1      6572 9.01576E-08-4.20397E-07 3.34129E-08
 -1      6573-7.97992E-08-2.72889E-07-1.88054E-08
 -1      6574-6.71878E-08-2.51966E-07-1.56386E-08
 -1      6575 8.85168E-08-3.59993E-07 2.79052E-08
 -1      6576 9.75190E-08-3.73040E-07 3.12788E-08
 -1      6577-9.73455E-08-3.01271E-07-2.34381E-08
 -1      6578 8.59461E-08-3.39354E-07 2.56516E-08
 -1      6579-6.97249E-08-3.22860E-07-1.97578E-08
 -1      6580 7.90513E-08-2.09614E-07 1.62638E-08
 -1      6581 7.57938E-08-2.61272E-07 1.84322E-08
 -1      6582-5.52752E-08-3.56600E-07-1.85479E-08
 -1      6583 8.94044E-08-2.04713E-07 1.69572E-08
 -1      6584 9.69845E-08-2.70331E-07 2.20437E-08
 -1      6585 7.07598E-08-2.44608E-07 1.68542E-08
 -1      6586 4.28372E-08-2.45439E-07 1.31605E-08
 -1      6587 4.20671E-08-2.01671E-07 1.29107E-08
 -1      6588 7.37875E-08-2.88199E-07 1.93973E-08
 -1      6589-9.16177E-08-3.38820E-07-2.55866E-08
 -1      6590 8.26822E-08-3.15692E-07 2.30600E-08
 -1      6591 9.48577E-08-3.39898E-07 2.75163E-08
 -1      6592 8.10004E-08-3.25114E-07 2.33849E-08
 -1      6593 8.47828E-08-3.82366E-07 2.88068E-08
 -1      6594 7.93932E-08-3.55329E-07 2.53726E-08
 -1      6595 6.69788E-08-3.61402E-07 2.27284E-08
 -1      6596 9.62938E-08-3.20992E-07 2.61193E-08
 -1      6597 6.05226E-08-4.19514E-07 2.38478E-08
 -1      6598 3.42304E-08-4.35456E-07 1.43007E-08
 -1      6599 4.31686E-08-4.55350E-07 1.93589E-08
 -1      6600 2.55171E-08-4.18135E-07 1.08090E-08
 -1      6601 2.08270E-08-4.11354E-07 8.97312E-09
 -1      6602 1.11197E-08-4.31532E-07 5.06755E-09
 -1      6603 4.91659E-09-4.49562E-07 3.06030E-09
 -1      6604 3.90102E-08-3.58033E-07 1.47289E-08
 -1      6605 5.36440E-08-3.74367E-07 1.97499E-08
 -1      6606 9.09772E-10-3.57755E-07 8.74317E-10
 -1      6607 8.85797E-09-3.56807E-07 3.74976E-09
 -1      6608 1.69666E-09-3.69607E-07 1.23997E-09
 -1      6609 5.40392E-08-3.20035E-07 1.70344E-08
 -1      6610 3.31426E-08-3.44162E-07 1.22912E-08
 -1      6611-2.83917E-08-4.45544E-08-4.35004E-09
 -1      6612-5.05700E-09-3.59831E-08-1.50483E-09
 -1      6613-1.13962E-08-4.38419E-08-2.35120E-09
 -1      6614 2.80804E-08-3.42655E-07 1.04813E-08
 -1      6615 3.16088E-08-3.52582E-07 1.21757E-08
 -1      6616-1.13632E-08-1.37486E-08-2.02924E-09
 -1      6617-1.31906E-08-1.07052E-08-2.48415E-09
 -1      6618 6.80771E-08-3.53935E-07 2.25270E-08
 -1      6619-2.66882E-08-3.02775E-08-3.43379E-09
 -1      6620 3.80675E-09-3.55354E-07 2.09539E-09
 -1      6621-5.34929E-09-1.13031E-08-1.29220E-09
 -1      6622 4.78754E-09-3.59089E-07 2.28385E-09
 -1      6623 8.10983E-09-3.69183E-07 3.82990E-09
 -1      6624-4.13116E-09-4.48878E-09-1.45135E-09
 -1      6625-4.86843E-09-6.31706E-09-1.63319E-09
 -1      6626 1.03095E-08-4.07363E-07 4.85158E-09
 -1      6627 3.40579E-08-4.15972E-07 1.41496E-08
 -1      6628 1.95980E-08-4.02429E-07 8.50956E-09
 -1      6629 4.69758E-08-4.33663E-07 1.94898E-08
 -1      6630 7.26835E-08-4.33453E-07 2.88124E-08
 -1      6631-5.19804E-09-2.50177E-08-1.15097E-09
 -1      6632-2.49963E-08-4.18545E-07-9.56577E-09
 -1      6633 1.97798E-08-3.85448E-07 8.56539E-09
 -1      6634 7.99252E-09-4.17783E-07 3.90123E-09
 -1      6635-2.04977E-08-3.70743E-07-7.64473E-09
 -1      6636 5.34395E-08-4.34379E-07 2.19926E-08
 -1      6637-3.90276E-10-5.87917E-09-1.49858E-10
 -1      6638 5.68686E-08-4.53917E-07 2.46213E-08
 -1      6639-1.78316E-09-6.36084E-09-6.94620E-10
 -1      6640 7.48571E-08-4.06548E-07 2.77049E-08
 -1      6641 5.64654E-08-3.88440E-07 2.11952E-08
 -1      6642 4.37648E-08-3.87217E-07 1.71767E-08
 -1      6643 3.08742E-08-3.98261E-07 1.27797E-08
 -1      6644 4.88311E-08-4.46818E-07 2.08179E-08
 -1      6645 5.86030E-08-4.61862E-07 2.57173E-08
 -1      6646 5.68983E-08-4.58325E-07 2.48413E-08
 -1      6647 4.85834E-08-4.52262E-07 2.12788E-08
 -1      6648 4.74248E-08-4.54787E-07 2.07241E-08
 -1      6649 3.84340E-08-4.60923E-07 1.69088E-08
 -1      6650 4.50715E-08-4.61575E-07 1.99923E-08
 -1      6651 2.20208E-08-4.66507E-07 7.38126E-09
 -1      6652 1.37484E-08-4.69528E-07 2.89830E-09
 -1      6653-2.31742E-09-3.51464E-08-8.14168E-10
 -1      6654-4.13458E-10-3.52013E-08-5.01533E-10
 -1      6655 1.28226E-08-4.69869E-07 5.21089E-09
 -1      6656-2.55798E-08-4.21197E-07-1.02221E-08
 -1      6657-1.76396E-08-4.62159E-07-5.49528E-09
 -1      6658-2.65836E-08-4.52987E-07-1.12577E-08
 -1      6659-1.70125E-09-4.57090E-07 1.67005E-09
 -1      6660-4.68190E-08-4.44707E-07-1.92836E-08
 -1      6661-2.56450E-09-2.12478E-08-7.13450E-10
 -1      6662-5.87772E-08-4.53042E-07-2.44454E-08
 -1      6663 1.02970E-09-1.93827E-08 3.45156E-10
 -1      6664-6.49148E-08-4.42298E-07-2.58520E-08
 -1      6665-5.92077E-08-4.57529E-07-2.49641E-08
 -1      6666-4.87015E-08-4.50304E-07-2.04478E-08
 -1      6667-1.92379E-08-4.18494E-07-7.08573E-09
 -1      6668-2.44964E-08-4.46680E-07-9.21063E-09
 -1      6669-1.76977E-08-4.01542E-07-6.56361E-09
 -1      6670-4.81279E-08-4.58778E-07-2.07470E-08
 -1      6671-4.64169E-10-1.42431E-09-2.46433E-10
 -1      6672-3.85070E-10-1.58168E-09-1.90111E-10
 -1      6673-2.44828E-10-1.53250E-09-1.14275E-10
 -1      6674-4.79725E-08-4.20101E-07-1.85982E-08
 -1      6675-7.40495E-08-3.97092E-07-2.61439E-08
 -1      6676-4.97803E-08-4.28603E-07-1.95895E-08
 -1      6677-9.57519E-08-3.73157E-07-2.97174E-08
 -1      6678-5.25011E-08-4.43315E-07-2.14138E-08
 -1      6679-1.63243E-09-1.48333E-09-8.13706E-10
 -1      6680-2.75568E-08-4.58483E-07-1.12536E-08
 -1      6681-3.64447E-08-4.32916E-07-1.44586E-08
 -1      6682-1.29074E-09-1.10820E-09 6.14161E-10
 -1      6683-4.06765E-10-1.00798E-09-1.76341E-10
 -1      6684-3.00729E-09-4.67901E-07 2.70735E-09
 -1      6685-2.90473E-09-4.16359E-07-4.41098E-10
 -1      6686-1.70854E-09-1.24017E-09-7.44063E-10
 -1      6687-1.22990E-08-4.09656E-07-4.29340E-09
 -1      6688-3.29122E-08-1.95234E-08-2.93147E-10
 -1      6689-2.56806E-08-4.30008E-07-9.81557E-09
 -1      6690-3.13504E-09-1.58868E-09-6.64706E-10
 -1      6691-1.21047E-08-4.16459E-07-4.17382E-09
 -1      6692-1.93353E-08-6.55259E-09-2.14588E-09
 -1      6693-8.12121E-09-4.07554E-07-2.83986E-09
 -1      6694-7.65873E-09-6.27451E-09-1.96810E-09
 -1      6695-1.53361E-08-4.29710E-07-6.25558E-09
 -1      6696-8.54504E-09-1.27490E-08 3.64706E-10
 -1      6697-1.17769E-08-3.85194E-07-4.22286E-09
 -1      6698-1.41471E-09-3.85891E-07 3.55329E-11
 -1      6699-9.24301E-09-6.44204E-09-2.17594E-09
 -1      6700-2.19255E-08-3.85317E-07-8.32638E-09
 -1      6701-3.30458E-08-3.56554E-07-1.18362E-08
 -1      6702-3.00248E-08-8.07370E-09 4.28241E-10
 -1      6703-3.84620E-08-3.37905E-07-1.28348E-08
 -1      6704-4.23316E-08-3.71020E-07-1.53583E-08
 -1      6705-3.52829E-08-3.44050E-07-1.21346E-08
 -1      6706-4.47993E-08-3.86070E-07-1.65984E-08
 -1      6707-3.29318E-08-4.15828E-08-4.61005E-09
 -1      6708-4.26994E-08-3.06687E-07-1.30703E-08
 -1      6709-8.76148E-08-3.88439E-07-2.90015E-08
 -1      6710-2.51126E-08-3.67432E-08-3.63126E-09
 -1      6711-7.60598E-08-3.91498E-07-2.60607E-08
 -1      6712-5.79890E-08-3.87184E-07-2.07029E-08
 -1      6713-3.02486E-08-3.42951E-07-1.03061E-08
 -1      6714-7.27815E-08-4.10608E-07-2.63450E-08
 -1      6715-3.27927E-09-1.95939E-09-1.54918E-09
 -1      6716-3.96096E-08-3.57440E-07-1.40935E-08
 -1      6717-1.25297E-08-3.58388E-07-4.22761E-09
 -1      6718-2.68588E-08-1.89397E-08-2.67111E-09
 -1      6719-2.04854E-09-3.73182E-07-2.66645E-10
 -1      6720-1.07253E-08-3.69218E-07-3.76986E-09
 -1      6721-5.97070E-08-3.08142E-07-1.69045E-08
 -1      6722-5.88156E-08-1.03009E-07-8.72384E-09
 -1      6723-3.75674E-08-4.76578E-08-3.47212E-09
 -1      6724-2.19667E-10-3.08125E-09 1.41907E-10
 -1      6725-1.83506E-08-1.46863E-08-2.62375E-09
 -1      6726 1.15510E-09-1.70849E-09 6.07112E-10
 -1      6727 1.24817E-09-8.19095E-09-2.44881E-10
 -1      6728-2.96434E-09-4.54025E-07-2.28092E-09
 -1      6729-2.24332E-08-4.36433E-07-9.46780E-09
 -1      6730-2.44176E-08-1.33693E-08 8.30531E-10
 -1      6731 1.75898E-08-7.27006E-08 6.35817E-09
 -1      6732 5.18392E-08-9.55668E-08 8.83540E-09
 -1      6733-4.20931E-08-4.56476E-08-3.25591E-09
 -1      6734-5.74918E-09-3.63438E-07-1.89446E-09
 -1      6735 4.47455E-08-6.81943E-08 6.18213E-09
 -1      6736 1.30114E-08-1.90829E-08 2.20446E-09
 -1      6737 1.71010E-08-1.02654E-08-1.13307E-09
 -1      6738 2.90155E-08-1.38182E-08 2.32655E-09
 -1      6739 7.56672E-09-5.73182E-09 2.04235E-09
 -1      6740-7.83111E-08-2.31356E-07-1.82251E-08
 -1      6741 1.42123E-10-4.39495E-08-6.00547E-11
 -1      6742 1.26839E-10-4.83581E-08 3.58076E-11
 -1      6743 5.86256E-08-1.11697E-07 1.11781E-08
 -1      6744 6.07954E-08-3.72709E-07 2.17088E-08
 -1      6745 2.59123E-08-4.45949E-07 1.24447E-08
 -1      6746 1.03077E-07-4.20217E-07 3.73163E-08
 -1      6747-5.29506E-08-6.31424E-08-7.64643E-09
 -1      6748 4.40094E-08-4.02598E-07 1.75985E-08
 -1      6749 4.33591E-08-4.51753E-07 1.90220E-08
 -1      6750 6.29342E-10-5.05311E-08-1.19843E-09
 -1      6751-6.84596E-08-4.52372E-07-2.78958E-08
 -1      6752-7.49614E-08-2.91076E-07-1.89451E-08
 -1      6753-2.10593E-08-2.04240E-08-2.63113E-09
 -1      6754-3.63477E-08-3.18520E-08-1.77834E-09
 -1      6755 1.97022E-10-2.44996E-09-1.09298E-10
 -1      6756-7.61969E-10-1.18292E-09-2.49629E-10
 -1      6757-5.85983E-08-1.20156E-07-9.85906E-09
 -1      6758-4.05519E-08-9.23593E-08-7.83988E-09
 -1      6759 4.27645E-09-6.91704E-09 1.37711E-09
 -1      6760-4.08495E-08-6.00452E-08-4.84214E-09
 -1      6761 2.83470E-10-4.91319E-08-3.71215E-10
 -1      6762-3.43889E-10-3.98921E-09-1.80396E-10
 -1      6763-2.16088E-09-1.92021E-08-5.95352E-10
 -1      6764-3.71039E-09-2.19056E-09-1.21818E-09
 -1      6765-2.81055E-08-2.79044E-08-3.31370E-09
 -1      6766-3.75167E-08-4.57555E-07-1.60996E-08
 -1      6767-3.60633E-08-3.73702E-08-4.72318E-09
 -1      6768 8.97922E-08-3.15143E-07 2.50879E-08
 -1      6769 7.06940E-08-2.32233E-07 1.86476E-08
 -1      6770-7.52572E-08-3.58467E-07-2.35250E-08
 -1      6771 9.17853E-08-4.14552E-07 3.34954E-08
 -1      6772-8.14034E-08-3.73883E-07-2.62102E-08
 -1      6773-2.26855E-08-4.46917E-09 8.43541E-10
 -1      6774-1.40463E-08-7.63582E-09 1.66411E-09
 -1      6775-2.84709E-09-2.75403E-08-7.83997E-10
 -1      6776-6.15928E-09-1.14117E-08-1.38289E-09
 -1      6777 4.05399E-10-2.35024E-09 6.42021E-11
 -1      6778-5.95353E-08-1.15709E-07-1.08441E-08
 -1      6779 5.31163E-08-6.33190E-08 8.22953E-09
 -1      6780 8.02657E-08-3.08953E-07 2.34347E-08
 -1      6781-6.25005E-08-1.01174E-07-1.06559E-08
 -1      6782 6.40139E-08-4.47189E-07 2.67479E-08
 -1      6783 2.57619E-08-4.57955E-07 9.61376E-09
 -1      6784 7.50136E-08-4.29603E-07 2.94101E-08
 -1      6785 6.28898E-08-4.57388E-07 2.70789E-08
 -1      6786 9.15762E-08-4.16732E-07 3.35268E-08
 -1      6787 7.49690E-08-2.96100E-07 2.03903E-08
 -1      6788 7.27819E-08-3.15719E-07 2.12155E-08
 -1      6789 4.98842E-08-4.55039E-07 2.20258E-08
 -1      6790-6.12968E-09-3.71585E-07-1.88701E-09
 -1      6791 5.07839E-08-4.59582E-07 2.24389E-08
 -1      6792-1.73125E-08-4.55086E-07-5.24290E-09
 -1      6793-4.89149E-08-4.55723E-07-2.08984E-08
 -1      6794-8.87302E-10-4.16608E-09-4.01036E-10
 -1      6795-6.15808E-10-3.63030E-07 2.78015E-10
 -1      6796-2.45137E-08-4.14328E-07-9.29469E-09
 -1      6797-1.03602E-09-1.08346E-09 1.19193E-10
 -1      6798 6.24892E-08-4.53774E-07 2.66899E-08
 -1      6799-4.45143E-08-4.48123E-07-1.87075E-08
 -1      6800-9.15285E-08-4.00923E-07-3.11893E-08
 -1      6801-2.64373E-08-5.89449E-08-4.72259E-09
 -1      6802 8.96164E-09-1.95381E-08 3.05369E-10
 -1      6803-8.41431E-08-2.20984E-07-1.83826E-08
 -1      6804 4.33553E-08-3.99730E-08 3.06771E-09
 -3
    1PSTEP                         2           1           1          
  100CL  101 1.000000000        6794                     0    1           1
 -4  STRESS      6    1
 -5  SXX         1    4    1    1
 -5  SYY         1    4    2    2
 -5  SZZ         1    4    3    3
 -5  SXY         1    4    1    2
 -5  SYZ         1    4    2    3
 -5  SZX         1    4    3    1
 -1         1-3.94643E+04 1.54083E+02 4.32122E+02 1.07744E+04-2.80035E+02-1.07110E+03
 -1         2 8.89233E+03 4.32910E+02-9.20378E+01 2.24711E+03-2.02527E+02-4.95312E+02
 -1         3 5.71448E+03 7.26488E+01 3.75431E+01 8.93879E+02 4.51418E+01-1.78574E+02
 -1         4-3.59159E+04 8.71506E+02 2.75870E+02 9.66898E+03 6.32440E+02 1.07710E+03
 -1         5-3.49429E+02 8.13991E+02-1.89079E+02-1.64533E+04-1.49642E+03-1.14139E+02
 -1         6 2.80130E+02 3.97243E+03 9.77628E+01-5.67363E+03-3.82362E+01-4.19454E+01
 -1         7 3.84435E+04-2.74251E+02-4.75209E+02 1.04370E+04-3.83437E+02 1.70259E+03
 -1         8 2.56273E+05 1.12313E+05 1.10576E+05 4.05600E+04 7.19418E+03 3.39527E+04
 -1         9-7.01593E+03-3.56310E+02 6.32892E+01 2.04318E+03-1.71522E+02 6.56245E+02
 -1        10 1.72909E+02 2.46824E+03-1.60482E+02-1.66892E+03-5.50531E+01-2.99909E+02
 -1        11-1.32320E+02 4.62276E+02 5.40212E+01-1.00809E+03 4.42270E+00 2.09363E+02
 -1        12-2.31748E+05-9.59259E+04-7.87165E+04 5.25427E+04 6.76989E+03-2.27807E+04
 -1        13-2.30053E+05-9.14711E+04-9.64572E+04 3.64638E+04-4.17232E+03 2.72405E+04
 -1        14-2.16498E+02-2.44130E+02-5.80681E+01-1.96493E+04 3.19884E+03 7.57558E+01
 -1        15 2.21353E+02 2.58735E+03 6.86765E+00-9.54858E+03-2.48101E+03 1.60957E+02
 -1        16 3.41221E+04-9.78879E+02-3.82045E+02 9.48777E+03 5.79165E+02-7.50657E+02
 -1        17 2.29597E+05 9.68739E+04 9.79413E+04 3.54259E+04-6.71555E+03-2.72292E+04
 -1        18-4.80466E+02-5.29823E+03 2.23809E+02-2.18162E+03 1.99860E+02-4.42964E+01
 -1        19 6.90195E+02 9.78367E+03-4.11754E+02-3.69003E+03 4.99196E+02 1.30513E+02
 -1        20-4.50263E+03 1.51422E+02 6.59679E+01 8.15885E+02-1.10534E+02 2.06111E+02
 -1        31-5.44544E+04 7.19979E+02 3.93567E+02 9.38654E+03-6.72321E+01-2.30563E+03
 -1        32-7.26115E+04 3.01103E+02-1.62557E+02 9.15618E+03 1.08259E+02-1.58448E+03
 -1        33-8.22857E+04 3.20679E+02-7.15910E+02 8.01442E+03-8.97107E+01-1.06275E+03
 -1        34-9.40371E+04 3.76637E+02-3.95032E+02 6.83698E+03 1.96501E+02-1.10102E+03
 -1        35-1.03073E+05 3.55338E+02-3.76123E+02 6.11768E+03 2.66656E+02-1.08895E+03
 -1        36-1.12560E+05 3.12700E+01-5.38434E+02 5.56422E+03 4.10669E+02-1.19754E+03
 -1        37-1.21279E+05-1.67776E+02-7.39189E+02 5.22817E+03 4.95346E+02-1.40003E+03
 -1        38-1.29843E+05-4.68467E+02-1.28020E+03 5.24570E+03 5.29315E+02-1.06941E+03
 -1        39-1.34400E+05-5.47846E+02-1.60595E+03 5.49193E+03 1.17195E+02-6.19311E+02
 -1        40-1.39388E+05-1.20191E+03-2.07423E+03 4.71273E+03 1.05083E+03-7.38339E+02
 -1        41-1.42262E+05-2.58996E+02-2.23524E+03 2.89584E+03 1.41437E+03-4.54157E+02
 -1        42-1.45093E+05 5.24944E+02-2.74837E+03 6.57724E+02 3.99728E+02-1.04428E+03
 -1        43-1.43532E+05 3.89132E+02-2.54031E+03-1.43409E+03-1.44438E+02-1.33974E+03
 -1        44-1.42750E+05 6.88369E+02-2.06109E+03-3.14932E+03 1.00708E+03-8.71944E+02
 -1        45-1.33891E+05 6.19013E+02-1.69383E+03-4.83968E+03 1.02926E+03-5.75365E+02
 -1        46-1.20353E+05 1.02013E+03-1.36707E+03-6.96977E+03 1.08626E+03-1.65751E+02
 -1        47-1.03856E+05 8.59888E+02-1.16354E+03-9.31887E+03 9.41034E+02-2.63096E+02
 -1        48-8.47987E+04-1.19096E+01-1.02295E+03-1.02350E+04 4.75388E+02 2.24477E+02
 -1        49-6.45262E+04-2.69524E+02-8.29236E+02-1.08307E+04 4.46012E+02 7.87390E+02
 -1        50-4.28534E+04-3.89840E+02-1.17352E+02-9.42868E+03-3.89813E+02 2.18589E+03
 -1        51-2.16244E+04-7.20712E+02 5.55912E+02-8.85116E+03-4.12367E+02 1.63063E+03
 -1        52-3.22295E+03-4.50888E+02 1.05862E+03-6.66067E+03-5.08844E+02 9.41362E+02
 -1        53 1.04979E+04-8.76710E+02 1.83474E+03-5.72551E+03-1.03873E+03-9.71810E+02
 -1        54 2.07436E+04-8.44534E+02 1.29614E+03-3.61443E+03-9.85261E+02-7.69934E+02
 -1        55 2.87988E+04-3.84196E+02 1.47275E+03-1.71852E+03-9.64125E+02-7.45308E+02
 -1        56 3.19234E+04-8.41467E+02 1.04171E+03-7.74360E+02-3.81368E+02-8.83663E+02
 -1        57 3.52350E+04-2.51630E+02 8.89934E+02 1.07286E+03-5.05386E+02-9.52640E+02
 -1        58 3.34346E+04 2.05584E+02 1.34213E+03 2.09216E+03-6.92901E+02-1.73093E+03
 -1        59 3.10948E+04 6.45018E+02 1.24728E+03 2.75847E+03-1.00735E+03-2.06917E+03
 -1        60 2.76042E+04 9.27714E+02 1.18949E+03 3.52352E+03-1.33389E+03-2.00205E+03
 -1        61 2.36025E+04 8.33347E+02 6.36015E+02 3.23773E+03-1.03164E+03-1.89322E+03
 -1        62 1.84641E+04 2.49914E+02 4.13646E+01 3.06569E+03-1.86510E+02-1.10028E+03
 -1        63 1.62936E+04 4.57513E+02 2.28486E+02 2.76393E+03-1.96358E+02-9.26121E+02
 -1        64 1.32350E+04 2.71336E+02 2.64194E+02 2.48050E+03-1.29024E+02-7.20187E+02
 -1        65 1.04939E+04 1.85120E+02 1.25097E+02 2.23000E+03-2.55521E+02-6.70863E+02
 -1        66 5.92158E+03 1.19377E+02 1.80429E+02 1.05564E+03-5.66927E+01-3.96750E+02
 -1        67 7.04077E+03 5.65112E+01 1.95131E+01 9.59008E+02-1.64826E+02-8.52910E+02
 -1        68 7.40916E+03 6.42150E+01-2.28641E+02 8.51195E+02-1.52645E+02-9.63545E+02
 -1        69 7.51424E+03 5.61896E+01-8.28824E+01 1.18419E+03-9.15131E+01-9.66184E+02
 -1        70 7.75865E+03 1.95137E+02 2.27744E+01 1.71734E+03-5.12648E+01-6.40365E+02
 -1        71-4.91383E+04 1.02895E+03 6.97975E+02 8.41357E+03 3.92110E+02 1.56566E+03
 -1        72-6.72584E+04 6.54088E+02-3.53668E+02 7.85126E+03 1.33514E+01 6.21431E+02
 -1        73-7.84701E+04 6.17934E+02-4.75636E+02 7.02317E+03-1.91865E+02-8.44128E+01
 -1        74-8.84794E+04 5.45710E+02-4.96217E+02 5.95701E+03-2.45992E+02-1.94005E+02
 -1        75-9.81360E+04 2.44676E+02-5.63804E+02 5.19962E+03-2.84890E+02-3.65228E+02
 -1        76-1.06437E+05 1.51767E+02-4.18699E+02 4.46229E+03-4.48114E+02 1.90656E+00
 -1        77-1.15500E+05 4.71426E+01-7.33456E+02 4.16361E+03-7.84060E+02 1.41620E+02
 -1        78-1.23878E+05-8.12044E+01-1.08473E+03 3.74787E+03-8.66828E+02 9.70991E+01
 -1        79-1.31089E+05 2.72493E+02-1.24430E+03 3.30626E+03-5.68066E+02 4.64802E+01
 -1        80-1.36865E+05 2.32953E+02-1.48191E+03 2.13930E+03-5.33639E+02-1.10544E+01
 -1        81-1.40337E+05-5.78770E+01-2.05962E+03 1.15099E+03-1.14110E+03 9.87828E+00
 -1        82-1.43765E+05-1.48150E+01-2.15803E+03 2.35173E+01-1.28273E+03-1.31383E+03
 -1        83-1.38306E+05 1.13487E+03-1.88233E+03-2.19116E+03 1.77934E+02-1.18841E+03
 -1        84-1.38316E+05 8.13385E+02-2.42065E+03-3.92599E+03-8.87613E+02-1.23588E+03
 -1        85-1.28926E+05 1.19432E+03-1.80517E+03-6.64555E+03-1.12113E+03-1.48519E+03
 -1        86-1.18043E+05 1.00496E+03-1.69612E+03-8.81853E+03-7.94496E+02-2.41946E+03
 -1        87-1.01292E+05 1.51033E+03-1.24578E+03-1.14234E+04-9.62659E+02-2.01930E+03
 -1        88-8.36764E+04 5.55446E+02-8.30921E+02-1.27116E+04-3.13273E+02-2.62792E+03
 -1        89-6.38377E+04 4.24846E+02-4.58850E+02-1.43711E+04 6.70710E+01-2.81822E+03
 -1        90-4.33125E+04-1.19751E+03-6.22418E+02-1.23518E+04-3.29970E+02-4.63529E+03
 -1        91-2.15783E+04-2.78136E+02 8.76346E+02-1.07596E+04 3.90649E+02-4.41867E+03
 -1        92-4.86303E+03-4.71215E+02 1.56420E+03-9.91194E+03 7.72471E+02-2.20919E+03
 -1        93 8.69792E+03-1.33395E+03 1.41701E+03-8.46069E+03 1.10200E+03-1.52303E+03
 -1        94 1.95970E+04-1.10964E+03 1.47147E+03-5.74248E+03 9.91288E+02-1.32175E+03
 -1        95 2.71377E+04-5.20446E+02 1.33746E+03-3.61314E+03 8.45328E+02-1.28837E+03
 -1        96 2.98415E+04-7.43081E+02 1.13307E+03-2.53342E+03 4.68991E+01-1.42132E+03
 -1        97 3.17766E+04-4.47337E+02 8.87599E+02-8.42288E+02 6.12246E+02-9.56223E+02
 -1        98 3.03094E+04 8.98268E+02 1.67263E+03 4.92681E+02 1.79374E+03-1.35059E+02
 -1        99 2.70528E+04 7.89147E+02 1.35119E+03 1.10078E+03 1.45401E+03 5.02792E+02
 -1       100 2.24022E+04-1.41303E+02 8.28225E+02 1.88599E+03 2.30531E+02 7.58640E+01
 -1       101 1.91803E+04 1.25532E+02 6.51474E+02 1.96401E+03-1.57282E+02-2.26734E+02
 -1       102 1.59967E+04 2.32623E+02 3.54582E+02 1.61831E+03 2.41673E+02-4.07294E+02
 -1       103 1.26949E+04 1.80132E+02 3.44319E+02 1.28240E+03 3.16453E+02-3.20876E+02
 -1       104 1.02770E+04-9.34444E+01 2.55215E+02 1.11758E+03 1.28888E+02-3.38566E+02
 -1       105 8.39989E+03 1.54706E+02 3.78400E+02 8.15884E+02 9.32262E+01-1.71492E+02
 -1       106-3.64692E+04 1.18590E+01 1.53088E+03 9.76611E+03 4.62396E+02 8.44724E+02
 -1       107-3.44017E+04-7.91047E+02 2.06731E+03 7.35846E+03 2.31543E+02-2.65614E+02
 -1       108-3.34651E+04-4.77485E+02 1.96864E+03 6.51663E+03 1.35991E+02-5.32262E+02
 -1       109-3.49735E+04-1.14322E+03 2.33895E+03 7.53128E+03 1.19032E+02-1.14067E+03
 -1       110-3.82588E+04 1.88066E+02 2.10878E+03 1.01327E+04-1.77827E+02-1.32490E+03
 -1       111-4.54272E+03-2.40159E+04-8.76556E+02-1.71402E+04-1.11340E+03-2.87452E+02
 -1       112-8.76354E+03-4.86779E+04-1.26804E+02-2.23258E+04-1.81891E+03-8.69051E+02
 -1       113-1.69659E+04-6.93359E+04-2.14746E+03-3.10394E+04-7.28718E+02-8.81365E+02
 -1       114-2.27458E+04-7.53803E+04-1.37293E+03-3.83297E+04-2.45162E+02-1.53657E+03
 -1       115-3.30901E+04-8.45183E+04-1.94431E+03-4.76280E+04 9.52451E+02-9.72906E+02
 -1       116-4.09026E+04-7.84759E+04-7.14602E+02-5.20533E+04-1.12990E+02-1.70679E+03
 -1       117-5.18500E+04-7.57134E+04-3.60384E+03-5.49295E+04 1.54279E+03-2.80951E+03
 -1       118-6.48252E+04-6.70776E+04-4.47036E+03-5.76015E+04 3.36970E+03-1.29464E+03
 -1       119-6.65842E+04-5.26336E+04-3.80206E+03-5.45586E+04 2.55706E+03-7.89761E+02
 -1       120-6.14444E+04-3.96422E+04-4.27386E+03-4.63151E+04 1.58242E+03-4.19549E+02
 -1       121-6.08831E+04-2.90424E+04-3.84953E+03-3.90107E+04 2.62007E+03 4.69818E+02
 -1       122-4.22817E+04-1.96374E+04-2.85119E+03-2.98851E+04 1.57325E+03 1.40844E+03
 -1       123-2.36192E+04-1.27079E+04-2.12009E+03-2.19143E+04 1.37179E+03 2.10643E+03
 -1       124 9.77695E+03-6.25264E+03-9.44679E+02-1.45610E+04 1.06352E+03 4.10913E+03
 -1       125 3.78693E+04-1.74063E+03 3.95195E+02-1.22290E+04 5.33644E+02 2.92868E+03
 -1       126 6.81351E+04 2.95311E+03 1.46867E+03-1.45564E+04-9.87785E+02 3.34297E+03
 -1       127 9.30497E+04 8.03381E+03 1.79734E+03-2.27838E+04-1.86702E+03 6.58629E+02
 -1       128 1.09228E+05 1.16068E+04 1.59254E+03-2.96720E+04-1.87852E+03 1.01172E+03
 -1       129 1.22775E+05 1.98350E+04 3.09730E+03-4.07047E+04-1.99997E+03-3.94295E+02
 -1       130 1.19160E+05 2.51238E+04 2.20727E+03-4.71191E+04-1.64320E+03-8.22941E+02
 -1       131 1.14344E+05 3.47999E+04 1.88757E+03-5.46806E+04-1.09521E+03-2.35328E+03
 -1       132 9.61058E+04 3.95953E+04 7.19237E+02-5.56902E+04-6.68271E+02-1.79694E+03
 -1       133 8.46625E+04 4.89653E+04 2.44688E+03-5.70846E+04-2.27565E+01-1.73274E+03
 -1       134 6.60527E+04 5.25147E+04 2.74952E+03-5.25468E+04-2.35980E+02-2.20718E+03
 -1       135 4.77937E+04 5.27634E+04 9.90140E+02-4.51767E+04 4.65482E+02-2.08105E+03
 -1       136 3.46195E+04 5.24068E+04 1.05442E+03-3.84146E+04 8.08861E+02-1.39555E+03
 -1       137 2.41732E+04 4.86916E+04 8.67965E+02-3.01121E+04 2.81809E+02-9.27812E+02
 -1       138 1.52897E+04 4.16641E+04 3.10164E+02-2.20166E+04 5.94922E+02-6.19201E+02
 -1       139 9.44993E+03 3.35142E+04-4.88945E+01-1.52361E+04 5.43648E+02-4.39329E+02
 -1       140 4.86638E+03 2.43024E+04-1.86598E+02-9.79088E+03 3.68855E+02-3.66608E+02
 -1       141 2.16814E+03 1.37311E+04 1.20164E+02-6.65399E+03-2.68753E+02 1.62557E+01
 -1       142-1.70714E+03-7.33669E+03-4.90789E+01-6.13694E+03 2.10347E+02-4.14379E+01
 -1       143-4.39842E+03-1.76543E+04-3.83324E+02-8.77874E+03 5.38097E+02-2.15131E+02
 -1       144-9.18655E+03-2.98224E+04 6.84065E+01-1.50972E+04 5.96606E+02 5.58123E+01
 -1       145-1.48763E+04-3.89488E+04 1.17997E+02-2.19430E+04 6.06929E+02 4.53830E+02
 -1       146-2.40774E+04-4.75427E+04-5.54939E+02-3.06036E+04 5.21145E+02 3.82624E+02
 -1       147-3.61616E+04-5.01357E+04-1.72991E+02-3.97925E+04 6.04735E+02 1.11859E+03
 -1       148-4.95764E+04-5.39170E+04-1.65202E+03-4.64106E+04-2.46843E+01 3.13002E+03
 -1       149-6.86779E+04-5.41113E+04-3.38825E+03-5.37386E+04-7.92495E+02 2.40898E+03
 -1       150-8.63658E+04-4.93468E+04-2.71141E+03-5.82445E+04-4.80086E+02 1.52268E+03
 -1       151-9.57967E+04-4.14133E+04-2.57785E+03-5.75542E+04-1.59254E+02 3.70684E+02
 -1       152-1.16914E+05-3.67064E+04-2.64121E+03-5.69279E+04-3.40605E+02 1.96028E+03
 -1       153-1.24205E+05-2.65417E+04-2.60528E+03-4.94713E+04-1.33579E+03 1.02177E+02
 -1       154-1.24016E+05-1.89525E+04-3.86408E+03-3.93603E+04-3.55733E+02-7.18942E+02
 -1       155-1.19567E+05-1.23812E+04-1.85129E+03-3.21017E+04-2.57618E+03-1.33210E+03
 -1       156-9.67143E+04-8.12267E+03-3.07691E+03-2.33471E+04-2.13924E+03-3.50932E+03
 -1       157-7.08148E+04-4.85767E+03-2.29519E+03-1.65665E+04-1.82956E+03-4.02545E+03
 -1       158-3.69220E+04 1.43182E+03 1.06187E+02-1.30310E+04 2.08881E+02-3.29249E+03
 -1       159-6.58054E+03 6.60983E+03 6.76897E+02-1.55173E+04 1.64660E+03-3.04721E+03
 -1       160 2.30699E+04 1.33161E+04 1.78459E+03-2.26642E+04 2.10505E+03-1.85895E+03
 -1       161 3.57726E+04 1.77004E+04 2.38111E+03-2.71507E+04 6.75674E+02-1.36038E+03
 -1       162 6.27137E+04 2.95991E+04 3.73579E+03-4.14829E+04 1.42921E+03-3.71321E+02
 -1       163 6.37158E+04 4.03065E+04 4.11411E+03-4.79844E+04 1.31130E+03 7.22406E+02
 -1       164 6.79600E+04 5.19541E+04 3.57790E+03-5.45646E+04 3.11275E+03 8.76959E+02
 -1       165 6.42495E+04 6.80778E+04 5.07053E+03-5.70352E+04 4.13215E+03 1.32814E+03
 -1       166 5.30741E+04 7.75554E+04 4.12854E+03-5.55562E+04 2.49726E+03 2.66605E+03
 -1       167 4.42118E+04 8.35766E+04 2.79369E+03-5.35257E+04 1.01882E+03 1.67534E+03
 -1       168 3.32847E+04 8.57985E+04 2.20903E+03-4.73403E+04 1.08782E+03 1.46594E+03
 -1       169 2.29596E+04 7.79587E+04 1.75608E+03-3.81285E+04-4.08388E+02 1.50121E+03
 -1       170 1.64081E+04 6.80808E+04 7.22401E+02-3.05169E+04-1.12127E+03 1.46599E+03
 -1       171 9.83783E+03 4.91247E+04 5.79414E+02-2.30711E+04-1.30684E+03 1.12538E+03
 -1       172 4.49092E+03 2.43813E+04 1.35508E+03-1.71810E+04-1.40567E+03 6.11296E+02
 -1       173 2.37018E+04 1.56497E+03-1.70066E+03 1.06501E+04-7.78671E+02 1.81639E+03
 -1       174 1.73055E+04 6.90649E+03-1.55378E+03 1.30588E+04-8.35284E+02 3.57467E+02
 -1       175 1.51693E+04 1.05193E+04-6.47666E+02 1.34487E+04-1.27144E+03-8.40201E+01
 -1       176 1.56000E+04 1.67523E+04-3.24280E+03 2.12962E+04-4.19195E+03 1.35133E+03
 -1       177 7.18434E+04 6.40862E+04 1.65813E+04 6.89056E+04-2.85473E+03 2.43613E+03
 -1       178-9.35980E+03-5.20852E+02-3.88136E+02 2.08009E+03-3.42297E+02 9.23235E+02
 -1       179-1.14706E+04-3.82004E+02-3.00858E+02 2.54371E+03-2.29188E+02 7.98128E+02
 -1       180-1.42755E+04-3.15750E+02-2.50955E+02 2.67238E+03-2.28491E+02 1.00847E+03
 -1       181-1.77941E+04-2.01881E+02-5.55066E+02 3.03065E+03-1.98239E+02 8.86746E+02
 -1       182-1.97888E+04-2.26509E+01-5.08236E+02 3.44806E+03 4.96775E+01 9.05060E+02
 -1       183-2.26277E+04 1.70410E+02-5.64594E+02 3.08977E+03-5.03652E+01 1.29851E+03
 -1       184-2.77579E+04-9.86539E+02-1.48226E+03 2.38993E+03-1.16971E+03 1.88572E+03
 -1       185-3.16828E+04-4.92898E+02-1.15963E+03 2.26799E+03-1.27053E+03 1.09571E+03
 -1       186-3.03009E+04 5.80248E+02-9.09951E+02 1.21853E+03-4.78214E+02 8.61027E+02
 -1       187-2.99100E+04 8.08571E+02-1.35507E+03-1.48116E+02-6.39200E+02 8.72440E+02
 -1       188-2.73140E+04 4.08380E+02-1.17035E+03-1.60720E+03-8.39406E+02 7.30937E+02
 -1       189-1.84151E+04 8.12489E+02-1.18027E+03-3.57155E+03-1.01613E+03 7.91318E+02
 -1       190-7.09593E+03 1.17203E+03-1.52057E+03-5.90399E+03-1.26568E+03 1.22293E+03
 -1       191 6.54942E+03 5.95950E+02-1.32015E+03-7.86978E+03-6.77105E+02 7.67586E+02
 -1       192 2.32414E+04 4.66712E+02-1.52534E+03-9.75180E+03-7.22869E+02 7.08953E+02
 -1       193 4.37512E+04-4.46121E+00-5.56020E+02-9.60939E+03-3.61501E+02-1.08088E+03
 -1       194 6.58530E+04 3.56520E+02 7.58560E+02-1.05500E+04 4.55752E+02-1.79192E+02
 -1       195 8.54797E+04-2.85148E+02 9.38068E+02-1.02636E+04 6.30495E+02 1.56314E+02
 -1       196 1.04064E+05-9.63068E+02 1.13190E+03-9.10068E+03 9.58684E+02 2.95359E+02
 -1       197 1.19971E+05-1.04450E+03 1.35942E+03-6.88173E+03 1.09387E+03 3.03860E+02
 -1       198 1.33537E+05-5.81936E+02 1.75888E+03-4.63650E+03 1.09351E+03 3.90254E+02
 -1       199 1.40718E+05-1.14083E+03 1.43871E+03-3.07203E+03 3.10872E+02 2.88482E+01
 -1       200 1.47768E+05-6.06314E+02 1.47616E+03-8.67447E+02 8.77552E+02 4.20656E+02
 -1       201 1.48065E+05 7.09504E+02 2.71536E+03 1.72857E+03 2.33457E+03 1.89642E+03
 -1       202 1.44567E+05 6.98666E+02 2.93616E+03 3.52662E+03 1.92553E+03 1.50819E+03
 -1       203 1.37226E+05 1.22050E+02 1.61283E+03 4.56964E+03 5.15635E+02 8.76016E+02
 -1       204 1.35574E+05 5.42543E+02 1.40509E+03 4.79092E+03 6.21277E+02 1.31420E+03
 -1       205 1.26758E+05-7.62204E+01 7.78894E+02 5.16408E+03 5.07033E+02 1.34804E+03
 -1       206 1.19493E+05 2.50496E+02 4.66324E+02 5.38807E+03 5.03622E+02 1.40602E+03
 -1       207 1.10492E+05-8.76401E+01 3.71417E+02 5.87801E+03 3.46528E+02 9.14916E+02
 -1       208 1.01877E+05-2.32090E+02 5.36759E+02 6.41505E+03 2.83897E+02 7.91366E+02
 -1       209 9.28943E+04 7.42216E+01 7.01424E+02 7.01966E+03 2.45303E+02 1.07773E+03
 -1       210 8.27426E+04-3.45018E+02 2.88838E+02 7.56485E+03 1.96367E+02 1.89564E+03
 -1       211 7.10739E+04-5.06982E+02 1.45727E+02 9.23579E+03 4.63061E+01 1.70594E+03
 -1       212 5.28312E+04-7.21176E+02-3.60163E+02 9.18172E+03-1.04461E+02 2.58052E+03
 -1       213 1.74274E+02 2.87323E+02-3.49278E+02-7.29192E+02 1.01830E+02-2.69434E+02
 -1       214 1.97464E+02-9.20891E+02-1.43536E+02-1.79970E+02 2.08413E+02-1.95430E+02
 -1       215-8.82367E+01-1.78023E+03-9.40281E+00 4.79414E+02 8.77264E+01-2.25759E+02
 -1       216-3.43887E+02-2.16445E+03-4.78610E+01 9.21715E+02-2.25238E+01-1.20399E+02
 -1       217-6.17103E+02-2.24652E+03-3.65184E+01 1.35466E+03 1.06787E+01-1.06233E+02
 -1       218-1.12716E+03-2.07100E+03-1.70219E+01 1.64469E+03-9.49422E+01-2.29913E+01
 -1       219-1.46549E+03-1.99718E+03-8.46991E+01 1.86479E+03-1.42238E+02 3.32083E+01
 -1       220-2.04371E+03-1.68758E+03-1.35605E+01 2.02606E+03-1.83565E+02 1.16321E+02
 -1       221-2.61451E+03-1.40163E+03-2.51121E+01 2.07201E+03-1.42751E+02 1.13966E+02
 -1       222-2.99210E+03-8.86780E+02 2.04785E+01 1.99261E+03-1.24829E+02 1.63646E+02
 -1       223-3.89796E+03-6.74738E+02-1.92157E+01 1.97343E+03-1.70007E+02 3.08919E+02
 -1       224-4.52216E+03-4.62441E+02-1.02800E+01 1.90052E+03-1.80503E+02 4.18933E+02
 -1       225-5.96344E+03-3.13893E+02-6.22562E+01 1.81585E+03-1.32272E+02 5.43986E+02
 -1       226-1.49103E+02-1.99067E+03 2.62607E+02-1.61935E+03-3.13808E+02 2.93275E+02
 -1       227-2.50392E+02-6.86399E+03 3.85606E+02-2.99297E+03-4.57680E+02 3.92358E+02
 -1       228-9.57560E+02-1.36004E+04 3.02429E+02-4.54908E+03-1.19116E+03 2.74847E+01
 -1       229-1.10922E+03-2.08003E+04 1.00033E+03-6.74013E+03-1.99882E+03-5.10036E+01
 -1       230-2.72455E+03-3.19943E+04 1.72661E+03-9.10909E+03-5.39336E+03-8.00615E+02
 -1       231-5.29535E+03-3.51245E+04 1.57478E+02-1.27515E+04-1.05670E+04-3.26316E+03
 -1       232-3.12896E+03-3.36700E+04-6.09528E+03-1.23381E+04-1.35242E+04-4.53591E+03
 -1       233 8.06743E+02-1.85193E+04-9.39267E+03-7.02981E+03-6.98519E+03-2.49920E+03
 -1       234 1.21795E+03-2.35473E+03 2.29472E+03-1.02525E+03-9.47951E+02 2.18385E+03
 -1       235 2.07952E+03 6.52448E+03 8.42397E+03-6.98461E+03-7.86299E+03 4.50200E+03
 -1       236 2.91436E+03 2.16919E+04 4.14705E+03-1.18188E+04-1.28800E+04 3.64542E+03
 -1       237 4.64759E+03 2.39595E+04-9.78716E+02-1.10125E+04-8.76457E+03 1.80111E+03
 -1       238 1.94444E+03 1.76460E+04-1.66167E+03-7.61934E+03-3.64551E+03 2.58706E+02
 -1       239 1.12167E+03 1.21467E+04-5.44782E+02-4.77780E+03-1.93495E+03 3.40427E+01
 -1       240 5.15247E+02 6.14659E+03-4.14387E+02-2.70212E+03-7.83066E+02-1.19876E+02
 -1       241 6.98996E+03 2.66669E+02-2.10131E+01 1.93261E+03-1.23514E+02-4.64381E+02
 -1       242 5.61815E+03 5.11349E+02-2.29498E+01 2.10037E+03-1.53033E+02-2.98003E+02
 -1       243 4.60856E+03 6.11293E+02-1.32421E+01 2.27447E+03-7.95045E+01-2.53701E+02
 -1       244 3.84063E+03 1.13952E+03 6.60385E+01 2.47079E+03-8.32160E+01-9.23242E+01
 -1       245 3.25367E+03 1.62252E+03 3.35310E+01 2.47191E+03-1.21507E+02-6.14554E+01
 -1       246 2.63132E+03 1.96648E+03 1.06184E+01 2.46653E+03-1.46807E+02-1.00075E+02
 -1       247 1.97192E+03 2.28395E+03 6.58418E+01 2.39252E+03-1.00977E+02-6.00246E+00
 -1       248 1.45839E+03 2.69739E+03 5.41757E+01 2.10115E+03-6.03327E+01 1.18089E+02
 -1       249 1.00882E+03 2.95338E+03 4.31298E+01 1.83674E+03-9.08041E+01 9.98401E+01
 -1       250 4.46240E+02 2.99967E+03 1.96571E+01 1.42349E+03 2.23286E+01 8.64589E+01
 -1       251 5.11648E+01 2.85554E+03 6.81267E+01 8.79852E+02 2.48214E+01 6.58476E+01
 -1       252-5.88359E+01 2.55076E+03 1.00433E+02 4.84605E+02-1.30374E+00 9.41049E+01
 -1       253-6.77268E+01 2.14146E+03 2.70226E+02-4.11426E+01 6.55656E+01 2.57273E+02
 -1       254-6.88422E+04-6.77761E+04-1.78705E+04 6.92860E+04-8.09424E+03 5.25461E+03
 -1       255-1.67673E+04-1.63572E+04 2.67085E+03 2.12038E+04-6.88060E+03 2.54973E+03
 -1       256-1.71215E+04-8.89959E+03 1.12505E+03 1.48984E+04-3.42720E+03 1.13666E+03
 -1       257-1.89024E+04-5.00436E+03 2.02650E+03 1.23008E+04-2.19994E+03 3.74333E+02
 -1       258-2.62234E+04-2.12661E+03 2.17746E+03 1.08920E+04-9.19417E+02-1.72854E+02
 -1       259 1.63532E+05 6.32903E+04 6.24768E+04-1.85318E+04 2.91285E+03 2.66777E+04
 -1       260 1.22778E+05 5.16822E+04 5.34878E+04-1.92224E+04 6.09149E+02 2.41925E+04
 -1       261 8.75876E+04 3.60137E+04 3.17079E+04-1.75521E+04 1.86826E+03 1.51942E+04
 -1       262 7.36995E+04 3.17357E+04 3.21019E+04-1.91116E+04 3.63231E+02 1.49788E+04
 -1       263 5.37674E+04 2.31310E+04 1.90979E+04-1.91485E+04 1.12829E+03 9.55700E+03
 -1       264 4.56641E+04 2.01625E+04 2.00318E+04-2.07175E+04 2.93032E+02 9.67118E+03
 -1       265 3.17464E+04 1.44585E+04 1.04353E+04-2.18085E+04 5.00361E+02 5.97757E+03
 -1       266 2.25348E+04 9.83783E+03 7.51570E+03-2.37179E+04 1.35651E+02 4.14752E+03
 -1       267 1.65484E+04 7.38656E+03 6.06867E+03-2.44788E+04 3.15650E+02 3.13954E+03
 -1       268 9.98331E+03 4.63402E+03 3.28076E+03-2.54515E+04 1.21217E+02 1.86081E+03
 -1       269 5.21561E+03 2.25719E+03 1.88584E+03-2.59494E+04 2.30238E+02 9.04154E+02
 -1       270 4.33920E+02 1.33902E+02 1.85319E+02-2.58824E+04 3.16611E+02-6.44001E+00
 -1       271-5.42770E+03-2.61822E+03-2.65584E+03-2.58097E+04 2.24258E+02-1.28996E+03
 -1       272-9.63056E+03-4.61568E+03-3.52613E+03-2.51190E+04 3.89017E+02-1.78534E+03
 -1       273-1.58525E+04-7.26245E+03-5.69523E+03-2.40826E+04 4.27850E+02-2.94725E+03
 -1       274-2.29405E+04-1.04477E+04-8.27013E+03-2.29160E+04 5.25733E+02-4.33538E+03
 -1       275-3.04948E+04-1.28575E+04-1.01752E+04-2.17370E+04 1.46360E+02-5.41717E+03
 -1       276-3.94139E+04-1.65601E+04-1.41730E+04-2.07737E+04 6.83961E+02-6.80398E+03
 -1       277-5.29550E+04-2.25808E+04-1.76964E+04-1.93426E+04 8.38678E+02-8.92188E+03
 -1       278-7.05687E+04-3.01285E+04-2.88430E+04-1.86682E+04 9.85550E+02-1.37447E+04
 -1       279-8.59252E+04-3.45233E+04-3.05711E+04-1.77443E+04 1.66218E+03-1.55240E+04
 -1       280-1.15431E+05-4.67235E+04-4.68632E+04-1.89287E+04 1.91603E+03-2.23526E+04
 -1       281-1.62526E+05-5.71877E+04-5.31620E+04-2.26838E+04 8.14220E+02-2.35992E+04
 -1       282-6.00017E+04-5.55820E+04-1.97496E+04 5.93981E+04 4.47248E+03 5.76634E+02
 -1       283-1.54067E+04-2.57132E+04 2.79314E+03 2.31582E+04 4.54626E+03-3.66530E+03
 -1       284-8.15579E+03-7.18584E+03 2.54621E+03 1.06385E+04 3.88697E+03-4.58498E+02
 -1       285-1.41867E+04-3.54396E+03 2.42697E+03 9.55115E+03 1.85103E+03 6.90232E+02
 -1       286-2.37204E+04-1.02823E+03 1.78703E+03 9.19392E+03 9.59604E+02 9.29020E+02
 -1       287-1.96506E+05-7.59998E+04-6.46142E+04 3.65045E+04-5.24558E+03 1.46841E+04
 -1       288-2.07801E+05-9.63242E+04-8.86572E+04 3.66031E+04-2.29977E+03 4.26061E+03
 -1       289-2.13363E+05-9.07035E+04-8.20622E+04 3.44962E+04-1.24507E+03-7.45081E+02
 -1       290-2.25221E+05-1.00082E+05-8.96889E+04 3.87714E+04 2.55138E+03-1.05923E+04
 -1       291-2.46271E+05-1.19989E+05-1.04454E+05 5.73972E+04 9.52148E+03-2.49875E+04
 -1       292-4.92022E+03-2.54098E+04-7.34401E+02-1.96418E+04 2.74953E+03 4.23311E+02
 -1       293-9.83401E+03-5.07167E+04-2.20219E+02-2.48388E+04 3.27448E+03 1.01872E+03
 -1       294-1.80721E+04-7.13753E+04-8.95887E+02-3.30387E+04 2.80863E+03 2.05975E+03
 -1       295-2.52890E+04-8.03997E+04-2.17965E+03-4.07600E+04 1.76493E+03 1.77670E+03
 -1       296-3.60504E+04-8.91872E+04-2.08764E+03-5.03456E+04 2.79107E+02 2.09961E+03
 -1       297-4.80202E+04-8.76530E+04-3.41260E+03-5.83593E+04 7.14206E+02 2.39372E+03
 -1       298-5.94711E+04-8.14303E+04-3.79762E+03-6.14345E+04-1.14669E+03 3.62894E+03
 -1       299-7.03803E+04-7.10483E+04-4.97874E+03-6.26236E+04-3.16897E+03 2.29017E+03
 -1       300-7.37787E+04-5.81572E+04-3.91756E+03-5.76395E+04-2.29263E+03 4.80129E+02
 -1       301-6.82559E+04-4.51186E+04-3.15686E+03-5.04004E+04-1.48071E+03-5.92117E+02
 -1       302-6.54690E+04-3.35145E+04-2.99102E+03-4.41188E+04-2.61441E+03-5.02391E+02
 -1       303-4.59657E+04-2.18381E+04-1.88270E+03-3.34146E+04-2.32375E+03-1.76340E+03
 -1       304-2.68749E+04-1.55888E+04-1.94073E+03-2.64202E+04-2.19113E+03-3.74064E+03
 -1       305 2.40988E+03-7.73980E+03-1.00873E+03-1.93204E+04-1.83503E+03-5.56002E+03
 -1       306 3.01289E+04-3.28661E+03 4.37419E+02-1.66369E+04-5.85950E+02-4.31772E+03
 -1       307 7.02413E+04 4.34926E+03 2.67017E+03-1.94222E+04 1.42023E+03-5.85846E+03
 -1       308 9.60516E+04 8.34122E+03 2.55670E+03-2.60373E+04 1.90655E+03-5.45048E+03
 -1       309 1.19984E+05 1.33167E+04 1.43676E+03-3.46070E+04 2.75832E+03-3.43292E+03
 -1       310 1.26826E+05 1.99890E+04 4.14718E+03-4.19705E+04 8.99447E+02-2.70792E+03
 -1       311 1.25249E+05 2.81620E+04 2.68551E+03-5.17420E+04 1.74895E+03-1.39880E+03
 -1       312 1.21842E+05 3.83798E+04 3.39586E+03-6.04469E+04 1.43068E+03 9.25308E+02
 -1       313 1.00196E+05 4.61213E+04 2.62622E+03-5.97698E+04 5.11195E+02 1.17682E+02
 -1       314 9.08847E+04 5.16597E+04 2.83844E+03-6.12469E+04 1.04704E+03 1.90286E+03
 -1       315 7.27505E+04 5.82338E+04 3.62198E+03-5.75241E+04 5.82997E+02 2.75930E+03
 -1       316 5.32076E+04 5.93975E+04 1.50314E+03-4.98876E+04-6.89384E+02 3.11363E+03
 -1       317 3.94572E+04 5.43400E+04 3.60004E-01-4.26097E+04-1.50819E+03 1.25168E+03
 -1       318 2.78514E+04 5.50106E+04 1.05275E+03-3.52270E+04-1.29508E+03 9.26364E+02
 -1       319 1.80737E+04 4.77880E+04 6.43508E+02-2.63452E+04-2.29133E+03 1.31836E+03
 -1       320 1.11325E+04 3.78539E+04 2.06703E+02-1.90287E+04-2.77122E+03 1.07718E+03
 -1       321 5.26182E+03 2.47142E+04 7.11868E+02-1.19039E+04-2.33379E+03 2.58888E+02
 -1       322 2.41853E+03 1.41849E+04 4.55818E+01-9.34550E+03-2.39114E+03 4.04524E+02
 -1       323-2.71607E+03-1.01750E+04 3.95158E+00-9.71583E+03-2.30857E+03-2.02365E+02
 -1       324-6.17280E+03-2.39172E+04 3.14684E+02-1.35621E+04-2.11840E+03-4.18795E+02
 -1       325-1.17678E+04-3.56553E+04-1.90324E+02-1.94899E+04-2.09409E+03-1.00187E+03
 -1       326-1.83822E+04-4.59060E+04-8.48433E+02-2.69866E+04-2.10723E+03-1.29611E+03
 -1       327-2.92348E+04-5.51494E+04-9.15098E+02-3.58309E+04-1.44122E+03-1.36590E+03
 -1       328-3.94114E+04-5.52228E+04 2.98344E+02-4.35602E+04-1.27577E+03-1.69674E+03
 -1       329-5.32833E+04-5.92618E+04-1.24044E+03-5.06879E+04-7.66274E+02-2.52945E+03
 -1       330-7.28594E+04-5.78752E+04-2.27994E+03-5.85411E+04 2.61340E+02-2.06760E+03
 -1       331-9.02465E+04-5.61753E+04-3.93057E+03-6.22519E+04-1.86445E+03-3.40924E+03
 -1       332-1.02240E+05-4.67958E+04-2.92555E+03-6.06831E+04-9.77761E+01-1.38331E+03
 -1       333-1.22918E+05-3.94719E+04-2.56809E+03-6.05405E+04 1.06872E+03-1.86598E+03
 -1       334-1.27333E+05-2.86136E+04-2.30221E+03-5.20936E+04 1.92301E+03 4.31508E+00
 -1       335-1.28927E+05-2.21468E+04-2.46813E+03-4.45659E+04 1.96871E+03 7.50075E+02
 -1       336-1.14884E+05-1.32414E+04-1.26725E+03-3.38058E+04 1.42332E+03 2.75091E+03
 -1       337-9.76388E+04-7.45890E+03-7.92112E+02-2.58763E+04 1.35615E+03 3.80814E+03
 -1       338-6.92965E+04-2.40746E+03-8.01949E+02-2.08813E+04 1.39005E+02 4.56045E+03
 -1       339-3.82262E+04 2.37171E+03 3.39201E+02-1.77237E+04-2.02360E+02 6.02142E+03
 -1       340-1.01578E+04 6.69790E+03 1.87561E+03-1.88906E+04-1.94283E+02 4.23774E+03
 -1       341 3.02958E+04 1.43968E+04 2.55525E+03-2.61615E+04-2.35669E+03 4.37916E+03
 -1       342 4.96600E+04 2.15187E+04 2.10789E+03-3.43652E+04-1.87819E+03 3.38540E+03
 -1       343 6.91713E+04 3.34360E+04 3.83579E+03-4.40101E+04-3.76962E+03 1.50259E+03
 -1       344 7.45589E+04 4.70022E+04 4.62431E+03-5.19968E+04-2.66002E+03-4.69110E+02
 -1       345 7.26384E+04 5.59196E+04 2.96246E+03-5.75891E+04-2.37266E+03-5.25066E+02
 -1       346 6.96772E+04 7.13321E+04 4.90206E+03-6.25958E+04-2.41600E+03-2.58875E+03
 -1       347 5.81552E+04 8.33181E+04 3.48187E+03-6.19995E+04-3.78154E+02-4.31167E+03
 -1       348 4.64489E+04 8.53095E+04 1.37670E+03-5.71191E+04 8.28343E+02-2.89015E+03
 -1       349 3.73855E+04 9.00469E+04 1.84597E+03-5.23091E+04 5.52477E+02-1.78390E+03
 -1       350 2.57932E+04 8.34654E+04 2.23127E+03-4.21041E+04 1.48070E+03-2.09117E+03
 -1       351 1.85613E+04 7.34806E+04 1.73804E+03-3.39961E+04 3.15799E+03-2.00639E+03
 -1       352 1.12353E+04 5.12349E+04 1.16346E+03-2.57113E+04 3.75185E+03-1.15338E+03
 -1       353 5.38926E+03 2.87989E+04 2.14655E+03-1.88322E+04 3.94851E+03-1.25012E+03
 -1       354 2.17204E+04 2.00420E+03-2.01770E+03 1.04878E+04 6.56581E+02 2.96708E+02
 -1       355 1.68726E+04 6.58823E+03-1.21214E+03 1.20993E+04 7.72199E+02-3.30225E+02
 -1       356 1.52903E+04 8.54582E+03-1.42104E+03 1.27248E+04 1.72984E+03 2.94235E+02
 -1       357 1.60515E+04 1.42296E+04-2.26469E+03 1.94374E+04 4.79725E+03 5.19285E+02
 -1       358 6.87117E+04 5.34863E+04 1.69506E+04 6.41299E+04 3.61400E+03-1.80001E+00
 -1       359 1.57231E+05 6.56840E+04 6.97594E+04-2.67069E+04-4.65010E+02-2.64398E+04
 -1       360 1.11997E+05 4.60161E+04 4.82978E+04-2.32757E+04-1.02556E+02-2.01525E+04
 -1       361 7.73467E+04 3.05468E+04 2.75667E+04-2.08245E+04-1.18711E+03-1.31604E+04
 -1       362 6.05976E+04 2.54637E+04 2.46303E+04-2.12321E+04-9.60874E+02-1.11911E+04
 -1       363 4.63399E+04 1.92302E+04 1.67623E+04-2.15257E+04-6.78374E+02-8.02223E+03
 -1       364 3.49257E+04 1.52126E+04 1.29071E+04-2.24637E+04-2.85491E+02-6.27970E+03
 -1       365 2.58835E+04 1.13028E+04 9.10712E+03-2.36535E+04-4.57167E+02-4.91095E+03
 -1       366 1.91317E+04 8.62790E+03 7.06076E+03-2.46001E+04-4.80118E+02-3.92885E+03
 -1       367 1.33407E+04 6.12193E+03 5.04035E+03-2.56448E+04-4.24451E+02-2.76834E+03
 -1       368 8.28622E+03 4.10774E+03 3.00762E+03-2.65720E+04-3.08164E+02-1.62529E+03
 -1       369 4.73237E+03 2.24106E+03 2.32193E+03-2.71338E+04-2.00452E+02-1.12371E+03
 -1       370 6.98813E+00-3.15002E+01-5.69375E+01-2.72558E+04-7.74259E+01 2.07070E+00
 -1       371-3.86784E+03-1.72878E+03-1.39400E+03-2.70073E+04-1.93928E+02 8.48758E+02
 -1       372-7.97075E+03-3.87281E+03-2.69547E+03-2.65860E+04-2.07027E+02 1.60494E+03
 -1       373-1.43736E+04-6.76843E+03-6.54035E+03-2.57556E+04-2.47835E+02 3.18103E+03
 -1       374-1.82592E+04-8.12258E+03-6.06826E+03-2.47723E+04-3.46159E+02 3.22399E+03
 -1       375-2.57669E+04-1.14843E+04-7.90745E+03-2.36009E+04-4.08805E+02 4.68301E+03
 -1       376-3.84774E+04-1.72601E+04-1.70007E+04-2.24446E+04-3.36198E+02 8.05518E+03
 -1       377-4.57106E+04-1.91993E+04-1.55242E+04-2.08349E+04-9.51966E+02 7.71968E+03
 -1       378-6.12439E+04-2.58308E+04-2.49967E+04-2.09469E+04-8.94254E+02 1.15130E+04
 -1       379-7.40529E+04-2.94753E+04-2.68584E+04-2.06479E+04-8.15188E+02 1.25131E+04
 -1       380-1.00096E+05-3.81570E+04-3.68597E+04-2.15940E+04-2.09412E+03 1.60957E+04
 -1       381-1.34048E+05-4.48493E+04-4.03134E+04-2.49841E+04-1.31922E+03 1.76985E+04
 -1       382 4.85190E+03 4.86710E+01 9.77183E+01 1.03324E+03 3.67480E+01-2.47284E+02
 -1       383 3.27262E+03 9.22978E+01 8.45066E+01 1.00310E+03-3.37280E+01-1.65710E+02
 -1       384 2.79235E+03 1.51373E+02 1.11981E+02 1.16888E+03-1.00554E+02-1.98767E+02
 -1       385 1.77076E+03 1.33498E+02 3.03876E+01 1.06150E+03-1.43409E+02-1.91390E+02
 -1       386 1.52664E+03 5.39028E+02 9.64682E+01 1.01436E+03-5.31585E+01-2.44928E+02
 -1       387 9.83677E+02 5.84996E+02 4.22720E+01 8.79493E+02 4.81212E+01-3.87472E+01
 -1       388 4.80770E+02 7.14794E+02 4.05991E+01 8.13622E+02-9.18237E+01-6.95396E+01
 -1       389 2.26279E+02 6.01920E+02 1.03838E+02 5.40312E+02-8.64368E+01-9.82918E+01
 -1       390-7.96214E+01 5.49434E+02 1.04301E+02 2.72225E+02-2.86384E+01-7.31709E+01
 -1       391-2.42231E+02 1.69389E+02 7.65414E+01-7.87381E+01 6.32640E+01 1.52104E+01
 -1       392-6.37353E+02-4.18431E+02-3.96081E+01-5.28242E+02 9.94100E+01 1.91218E+02
 -1       393-4.45457E+02-1.14071E+03 2.24379E+01-8.63032E+02 1.24426E+02 6.80519E+01
 -1       394-2.11159E+02-2.07768E+03 2.61708E+02-1.17113E+03 1.73363E+02-1.49461E+02
 -1       395-4.42509E+02-8.57494E+03 2.44348E+02-2.76345E+03 6.31813E+02-5.54418E+01
 -1       396-6.72428E+02-1.51124E+04 1.28343E+02-4.31502E+03 1.28654E+03-5.08382E+01
 -1       397-1.62060E+03-2.42103E+04 3.89380E+02-6.51530E+03 1.51620E+03 5.76081E+01
 -1       398-2.48540E+03-3.63667E+04 1.06426E+03-9.87704E+03 2.77278E+03 6.75316E+01
 -1       399-4.03282E+03-5.23559E+04 1.54916E+03-1.54596E+04 6.03548E+03-1.08822E+02
 -1       400-1.04667E+04-6.52307E+04 1.43852E+03-2.43344E+04 1.21815E+04 3.11926E+03
 -1       401-8.90091E+03-7.14051E+04-4.25702E+03-2.88576E+04 2.39669E+04 9.08583E+03
 -1       402-3.93037E+03-5.15016E+04-1.31268E+04-1.91944E+04 2.71054E+04 1.13023E+04
 -1       403 5.74108E+03-3.12012E+04 1.24655E+04-1.19635E+04 8.68630E+03-4.88916E+03
 -1       404 2.97646E+04 8.49380E+04 2.54166E+04-4.18788E+04 4.17499E+04-2.38810E+04
 -1       405 9.59725E+03 7.21057E+04-4.66625E+03-2.86969E+04 2.28948E+04-3.41609E+03
 -1       406 4.55488E+03 5.82188E+04-3.57907E+03-1.96450E+04 1.12695E+04-1.75193E+03
 -1       407 3.21778E+03 3.66915E+04-2.12373E+03-1.25384E+04 4.41338E+03-1.84077E+02
 -1       408 1.95250E+03 2.56716E+04-6.54993E+02-8.02925E+03 2.41303E+03-3.94518E+01
 -1       409 8.35171E+02 1.43103E+04-3.42998E+02-4.41632E+03 1.19893E+03 2.65852E+01
 -1       410 2.54111E+02 5.31195E+03-4.95473E+02-2.00524E+03 5.00858E+02 2.40536E+02
 -1       411 5.35792E+02 3.63304E+03-2.42060E+02-1.70243E+03 1.91615E+02 7.95970E+01
 -1       412 6.43113E+02 1.98138E+03-5.29381E+01-1.11159E+03-3.47112E+01-8.25959E+01
 -1       413 5.50299E+02 1.19172E+03-3.54045E+01-7.30106E+02 3.76747E+01-1.21922E+02
 -1       414 2.98729E+02 5.09258E+02-1.82201E+02-5.16248E+02 1.25145E+00 1.83008E+02
 -1       415 1.08353E+02 2.08692E+02-1.57694E+01-1.89830E+02-9.13076E+01 2.35407E+02
 -1       416 2.44835E+01 2.61060E+01-1.37751E+02 3.35174E+01-8.74741E+01 1.24825E+02
 -1       417-3.31070E+02-1.74648E+02-1.60108E+02 2.19527E+02 3.73587E+01 1.67441E+02
 -1       418-7.80878E+02-2.22146E+02-5.58816E+01 4.73802E+02-7.47027E+01 2.11569E+02
 -1       419-1.04428E+03 1.50390E+01 2.38940E+01 5.72424E+02-1.29254E+02 1.85883E+02
 -1       420-1.81673E+03-6.12053E+01-5.82525E+01 7.39049E+02-1.01734E+02 1.78598E+02
 -1       421-2.48117E+03-4.00883E+01-1.07604E+02 7.11210E+02-5.37854E+01 2.02534E+02
 -1       422-3.75452E+03-2.54552E+01-7.42065E+01 7.96892E+02-1.71805E+01 2.89456E+02
 -1       423-6.51729E+03-1.09079E+02-2.39359E+02 7.03605E+02 1.09108E+02 1.37749E+02
 -1       424-8.29460E+03-2.96048E+02-3.51476E+02 9.34802E+02 3.56184E+02 2.47138E+02
 -1       425-1.12654E+04-2.09315E+02-2.32805E+02 1.26504E+03 1.96726E+02 3.28351E+02
 -1       426-1.39875E+04-6.04003E+01-2.35008E+02 1.32252E+03 1.98994E+02 2.42202E+02
 -1       427-1.79015E+04-2.70558E+02-4.50526E+02 1.52610E+03 2.75111E+02 3.74580E+01
 -1       428-2.02378E+04-2.41670E+02-1.04445E+03 1.50459E+03 7.03885E+02-1.81802E+02
 -1       429-2.55791E+04-2.71140E+02-9.10979E+02 1.44530E+03 9.26306E+02 2.30324E+02
 -1       430-2.64979E+04 2.27989E+02-1.05826E+03 6.41452E+02 2.40034E+02 7.20659E+02
 -1       431-2.80890E+04 4.83607E+02-1.21418E+03-4.94128E+02 7.61581E+02 1.11379E+03
 -1       432-2.68676E+04 9.55893E+02-1.47818E+03-2.05853E+03 8.16806E+02 1.07968E+03
 -1       433-2.44399E+04 5.19148E+02-1.47996E+03-3.68748E+03 8.93447E+02 1.34780E+03
 -1       434-1.65731E+04 9.47799E+02-1.45789E+03-5.82237E+03 9.73031E+02 1.48245E+03
 -1       435-6.05699E+03 1.11534E+03-1.30253E+03-8.11799E+03 9.74912E+02 1.69929E+03
 -1       436 7.26997E+03 1.21787E+03-9.82376E+02-9.88210E+03 3.16063E+02 2.10854E+03
 -1       437 2.42739E+04 9.38816E+02-7.40600E+02-1.23117E+04 1.70441E+02 2.17376E+03
 -1       438 4.24677E+04 1.93691E+02-3.76017E+02-1.21616E+04 4.00757E+02 4.19065E+03
 -1       439 6.43163E+04-2.40475E+02 3.34760E+02-1.32163E+04 2.51098E+02 3.55424E+03
 -1       440 8.45830E+04-2.37176E+02 8.81631E+02-1.18549E+04-3.64898E+02 3.37019E+03
 -1       441 1.01599E+05-9.95229E+02 1.24124E+03-1.10166E+04-9.24677E+02 2.33942E+03
 -1       442 1.17663E+05-8.67758E+02 1.44535E+03-9.03769E+03-9.27966E+02 1.87284E+03
 -1       443 1.30558E+05-6.15304E+02 1.87069E+03-6.82557E+03-1.19023E+03 1.76647E+03
 -1       444 1.37663E+05-1.21710E+03 2.34070E+03-4.98905E+03-7.45314E+02 1.43224E+03
 -1       445 1.37096E+05-1.12825E+03 1.79140E+03-2.31025E+03 1.45177E+02 1.11553E+03
 -1       446 1.43185E+05 9.27966E+01 2.21977E+03-2.75264E+02-1.52543E+03 1.55288E+03
 -1       447 1.40267E+05 6.72568E+02 1.90707E+03 1.17881E+03-1.22798E+03 1.50843E+02
 -1       448 1.34466E+05-7.29297E+02 1.20174E+03 2.08474E+03-1.02055E+03 1.54890E+02
 -1       449 1.30399E+05 1.27483E+02 1.26898E+03 3.01463E+03-7.97855E+02-1.82868E+02
 -1       450 1.22500E+05-2.88087E+02 8.71386E+02 3.43325E+03-6.76280E+02-1.23340E+02
 -1       451 1.15848E+05 2.38776E+02 9.55146E+02 3.94438E+03-4.91442E+02-3.53085E+02
 -1       452 1.04292E+05 4.18097E+02 1.30754E+03 4.06978E+03 2.12879E+02-5.77613E+02
 -1       453 9.59080E+04 2.38596E+02 1.18509E+03 4.85350E+03-7.51490E+01-5.16152E+02
 -1       454 8.69860E+04-1.60929E+00 9.83298E+02 5.78062E+03-3.72073E+02-5.27715E+02
 -1       455 7.88743E+04-5.25793E+02 3.24178E+02 6.74759E+03-4.71101E+02-5.94218E+02
 -1       456 6.71278E+04-9.14319E+02 2.58111E+02 7.88805E+03-2.82203E+01-6.02093E+02
 -1       457 4.99175E+04-8.74118E+02-3.26918E+02 8.29471E+03 3.58772E+02-1.31096E+03
 -1       458-3.81757E+02-4.24706E+03 5.36657E+02-1.67593E+03 2.42445E+02-1.25406E+01
 -1       459-1.56532E+02-2.40093E+03 5.33305E+02-1.25021E+03 4.45126E+02 1.19039E+02
 -1       460-7.26300E+01-1.06025E+03 7.40168E+02-9.74066E+02 3.88226E+02 5.28195E+01
 -1       461 6.35408E+01-7.79975E+02 7.27884E+02-7.69623E+02 3.52661E+02 1.16174E+02
 -1       462-2.12686E+02-7.72599E+00 2.68180E+02-9.43927E+02 1.07245E+02 2.00757E+02
 -1       463 2.04351E+05 8.99073E+04 7.65166E+04 4.39517E+04-5.00962E+03-1.97118E+04
 -1       464 2.50134E+05 1.13270E+05 9.90745E+04 4.00443E+04-1.69837E+03-2.91954E+03
 -1       465 2.20499E+05 1.05112E+05 9.47761E+04 3.76103E+04-1.86989E+03 4.91729E+02
 -1       466 2.14871E+05 9.93736E+04 8.32359E+04 4.30404E+04 2.70047E+03 1.13273E+04
 -1       467 2.15594E+05 9.19934E+04 7.71446E+04 4.20292E+04 3.50258E+03 2.09141E+04
 -1       468 3.55962E+04-3.56463E+02-1.79802E+03 9.84630E+03 3.27774E+01-4.63979E+02
 -1       469 3.37877E+04 3.97265E+02-2.36707E+03 7.36297E+03 1.35733E+02 3.22300E+02
 -1       470 3.33694E+04 6.00368E+02-1.44693E+03 6.44287E+03 7.39843E+01 3.72073E+02
 -1       471 3.39074E+04 2.32980E+02-2.17459E+03 7.66216E+03 8.95841E+01 6.36555E+02
 -1       472 3.73437E+04-1.53043E+02-1.77169E+03 1.04800E+04 5.98205E+01 1.43657E+03
 -1       473-4.79911E+03-2.38553E+01-2.04662E+02 8.03884E+02-1.13573E+02 5.56200E+02
 -1       474-5.63983E+03 1.29186E+01-8.31409E+01 7.66375E+02-1.44931E+02 1.02201E+03
 -1       475-6.04088E+03-8.00754E+01 1.68357E+02 7.77456E+02-1.23507E+02 1.14628E+03
 -1       476-6.22374E+03-1.69455E+02 1.57677E+01 1.10566E+03-1.21888E+02 9.99403E+02
 -1       477-6.35286E+03-2.79193E+02-4.55036E+01 1.66629E+03-1.19746E+02 6.67313E+02
 -1       478 5.67801E+02 7.66402E+03-9.27279E+02-2.75459E+03 3.88200E+02 9.02053E+01
 -1       479 5.20707E+02 5.76404E+03-1.32273E+03-1.81672E+03 4.27723E+02-1.35256E+02
 -1       480 3.75434E+02 4.38917E+03-1.24856E+03-1.56604E+03 3.25022E+02-1.73990E+02
 -1       481 4.01853E+02 3.55362E+03-1.05753E+03-1.69062E+03 4.25344E+02-9.31031E+01
 -1       482 4.88332E+02 2.70281E+03-4.55743E+02-1.59458E+03-1.45485E+01-2.44185E+02
 -1       483-3.05947E+02 2.05595E+03-4.96037E+02-1.73165E+04 2.97622E+03-2.83104E+02
 -1       484 1.52464E+02 2.03186E+03-4.84230E+02-1.37751E+04 2.84240E+03-1.61105E+02
 -1       485 8.72243E+02 5.28442E+03 1.04185E+02-1.22489E+04 1.21988E+03-1.16154E+02
 -1       486-2.72293E+02 2.15444E+03 2.42741E+02-1.30277E+04-3.96764E+02 1.99028E+02
 -1       487-3.36190E+02 6.47843E+02 1.90339E+02-1.48126E+04-1.55641E+03 4.51272E+00
 -1       488 3.04602E+02 2.51744E+03 5.34673E+02-8.75986E+03-1.87868E+03 1.13527E+01
 -1       489 2.17739E+02 2.97602E+03 2.93778E+02-6.18923E+03-1.98686E+03 1.32263E+01
 -1       490 1.58248E+01 1.89342E+03-3.54694E+02-4.86368E+03-2.41054E+03-4.45329E+01
 -1       491 1.52134E+02 3.06125E+03 9.71835E+01-5.36669E+03-7.85607E+02 3.33425E+01
 -1       492 3.09093E+02 3.83889E+03 2.95879E+02-5.72319E+03-2.29268E+02-3.88058E+01
 -1       493 2.69245E+04 1.03504E+03 1.41991E+03 1.65528E+03 8.42630E+02-8.66153E+02
 -1       494 2.90514E+04 2.76237E+02 1.96286E+03 2.72345E+02 9.40701E+01-8.75953E+02
 -1       495-1.24075E+05 1.75624E+02-2.56643E+03-6.70783E+03-2.24963E+02-2.94246E+03
 -1       496-1.18604E+05 1.34160E+03-1.82601E+03-6.99126E+03 2.09074E+01-2.79544E+03
 -1       497-1.32442E+05 8.26462E+02-2.43428E+03-4.97488E+03 1.87952E+02-2.76037E+03
 -1       498-1.48189E+05-3.08879E+02-2.48800E+03-1.78682E+02 2.55752E+02-1.91384E+03
 -1       499-1.45086E+05-5.77629E+02-3.05601E+03-2.50338E+03-1.01095E+01-1.81945E+03
 -1       500-6.36199E+04-3.49352E+02-5.49387E+02-9.41539E+03 2.87801E+02-2.58850E+03
 -1       501-7.41960E+04-3.96824E+02-1.15771E+03-9.57447E+03 3.48881E+02-4.11288E+01
 -1       502-8.55866E+04 6.34635E+02-6.64398E+02-8.94411E+03 9.15969E+01-2.33575E+03
 -1       503-5.23175E+04-5.80842E+02-4.74761E+02-1.33595E+04-1.82886E+02-3.30449E+03
 -1       504-1.22089E+05-3.77626E+02-1.68035E+03 3.66962E+03 3.14271E+01-4.92934E+02
 -1       505-1.13910E+05-3.20419E+02-1.26981E+03 3.89745E+03 6.91921E+01-2.95184E+02
 -1       506 2.46598E+04 6.32095E+02 9.26661E+02 2.97449E+03-7.93533E+02-1.52333E+03
 -1       507 2.64869E+04 1.21564E+03 1.43663E+03 3.08168E+03-3.83407E+02-1.46085E+03
 -1       508-1.44159E+05-4.97717E+02-1.30590E+03 1.22820E+03 5.11281E+01-2.14629E+03
 -1       509-1.41600E+05-1.19234E+03-7.44620E+02 2.88257E+03 1.19604E+03-1.94961E+03
 -1       510-1.41940E+05 1.20461E+02-1.29383E+03 1.90421E+03-2.81985E+02-2.14697E+03
 -1       511-1.04100E+05-2.78742E+02-1.03387E+03 4.27992E+03 2.07986E+02-1.31385E+02
 -1       512 2.70901E+04 5.17337E+02 8.33378E+02 1.64667E+03 2.84337E+02-6.67262E+02
 -1       513-3.19846E+04-6.56487E+02 7.62776E+02-1.16214E+04 9.37931E+01-3.59547E+03
 -1       514-1.46592E+04 6.65166E+01 1.59222E+03-9.85343E+03 2.98883E+02-3.38046E+03
 -1       515 3.28263E+04 4.62902E+02 2.19375E+03-5.66540E+02 3.12334E+02-1.91990E+03
 -1       516 3.30107E+04-3.01279E+02 1.66014E+03-1.61652E+03-5.78777E+02-1.44266E+03
 -1       517 3.30261E+04-1.00430E+03 2.04320E+03-8.32331E+02 1.33676E+02-2.64974E+03
 -1       518-1.08507E+05-2.73126E+02-1.31504E+03 4.39039E+03-4.28534E+01-2.11623E+03
 -1       519-1.16650E+05-6.72944E+02-1.57674E+03 4.18988E+03-3.37364E+02-1.92393E+03
 -1       520 1.09154E+04 2.66301E+02 5.64596E+02 1.07564E+03 2.09068E+01-4.08846E+02
 -1       521 7.67857E+03-4.43022E+01 1.25135E+01 1.03123E+03-2.40487E+01-4.86380E+02
 -1       522 1.16013E+04-7.44309E+01-2.25088E+02 1.08525E+03-5.42612E+01-1.00265E+03
 -1       523 3.14251E+04-3.48714E+02 1.13364E+03 1.20604E+03-2.41896E+02-1.96719E+03
 -1       524 3.29650E+04-5.88800E+02 1.47885E+03 9.75193E+01 9.17458E+01-2.38323E+03
 -1       525 3.31664E+04-2.48884E+02 1.70708E+03 4.80008E+02-3.81893E+02-1.83031E+03
 -1       526-7.46471E+04 2.15453E+02-9.20587E+02-1.15523E+04 3.42153E+01-3.97785E+03
 -1       527-9.30131E+04 3.44574E+01-1.65233E+03-1.06028E+04-2.10171E+02-3.83940E+03
 -1       528-9.38825E+04-6.57682E+01-1.52997E+03-9.11511E+03 7.41388E+00-5.56566E+01
 -1       529-1.13612E+05-1.39211E+02-2.54141E+03-7.24670E+03-3.66238E+02-3.16511E+02
 -1       530-1.05680E+05 9.64879E+02-1.63738E+03-7.82498E+03-1.32790E+02-2.15000E+03
 -1       531 1.77917E+04 3.86288E+02 3.45498E+02 2.18989E+03 4.98398E+01-1.31300E+03
 -1       532 2.25338E+04 6.26118E+02 3.84784E+02 2.18785E+03-2.75127E+02-1.59802E+03
 -1       533 1.97725E+04-5.59181E+01 2.31612E+02 1.29623E+03 6.90799E+01-1.52162E+03
 -1       534 1.84264E+04 6.01357E+02 9.19096E+02 1.53171E+03-3.51361E+02-6.85671E+02
 -1       535-1.47471E+05-2.39010E+02-1.71658E+03 1.70274E+03 9.56865E+02-1.87388E+03
 -1       536-1.40124E+05 7.28040E+02-1.49592E+03 1.79851E+03 2.67709E+02-1.72377E+03
 -1       537-1.44378E+05-4.22122E+02-1.72115E+03 1.04504E+03 2.66717E+02-1.55422E+03
 -1       538-1.39551E+05-6.35039E+02-1.56399E+03 3.59791E+03 3.67032E+01-1.84223E+03
 -1       539-1.32957E+05-7.28556E+02-2.03715E+03 4.43404E+03-1.72096E+02-1.31831E+03
 -1       540-1.35052E+05 2.51637E+02-1.43951E+03 2.34948E+03-2.70210E+02-1.88313E+03
 -1       541 8.74066E+03-1.08886E+02-2.23010E+01 1.02118E+03-1.79059E+02-9.49158E+02
 -1       542 2.55049E+03-3.61518E+02 1.87909E+03-7.93691E+03-2.00922E+01-3.40565E+03
 -1       543-3.18779E+03-6.57527E+02 1.45193E+03-7.33516E+03-2.24268E+02-2.94607E+03
 -1       544-1.29545E+05 1.90147E+02-2.59890E+03-5.30244E+03 1.94970E+01-8.88411E+02
 -1       545-1.39404E+05-2.39710E+01-2.82382E+03-4.08967E+03 2.37364E+02-1.49090E+03
 -1       546-7.69097E+04 2.62744E+02-3.17575E+02 6.69769E+03 2.76797E+02-2.02142E+03
 -1       547-1.25751E+04-1.07771E+02 1.33200E+03-8.54648E+03 1.34140E+02-6.43146E+02
 -1       548 2.46070E+04 1.71711E+02 2.65253E+03-3.60321E+03-3.87277E+02-2.18624E+03
 -1       549-5.38250E+04 8.67996E+02 1.37409E+03 9.27920E+03-1.08251E+02-1.80924E+03
 -1       550 1.43507E+04 1.30966E+01 2.25643E+02 1.49428E+03-1.34281E+02-1.19281E+03
 -1       551 1.20380E+04 3.41251E+02 3.73948E+02 1.12133E+03-3.22605E+00-5.16857E+02
 -1       552 2.33684E+04 3.00217E+02 8.18262E+02 1.48776E+03-1.43283E+02-7.34214E+02
 -1       553 2.55890E+04-2.54954E+02 5.34523E+02 1.27848E+03-8.11224E+01-1.48162E+03
 -1       554 2.21144E+04 5.69270E+02 2.17386E+02 1.82497E+03 8.07853E+01-1.40578E+03
 -1       555 2.60702E+04 5.88959E+02 3.83268E+02 1.85663E+03-2.41679E+02-1.08232E+03
 -1       556 1.66361E+04-2.65544E+02 2.64947E+03-5.67094E+03-1.07680E+02-2.92477E+03
 -1       557-1.04457E+05 8.74815E+02-1.24901E+03-8.65586E+03-1.10401E+01-2.77206E+03
 -1       558-1.40122E+05-8.47676E+02-1.45741E+03 1.16540E+03-1.95723E+02-1.04053E+03
 -1       559-1.39826E+05-1.11169E+02-1.88943E+03 2.23892E+03 3.65024E+01-1.05854E+03
 -1       560 3.13981E+04-3.28269E+02 1.94166E+03-1.58883E+03-2.61567E+02-8.10687E+02
 -1       561 2.77168E+04 4.94433E+02 1.01771E+03 1.55751E+03-3.10010E+02-1.60254E+03
 -1       562-1.35950E+05-2.15323E+02-1.80770E+03 2.95697E+03-5.76552E+01-9.34582E+02
 -1       563 1.24047E+04-1.03441E+03 1.83976E+03-6.06536E+03-2.51658E+02-2.87928E+03
 -1       564-1.40653E+05-1.15957E+02-3.08257E+03-2.59508E+03 3.48596E+02-1.75136E+03
 -1       565-1.32953E+05 7.76925E+02-3.04733E+03-5.26181E+03-1.00379E+02-2.09954E+03
 -1       566-1.41767E+05-2.81186E+02-3.29360E+03-3.15812E+03-2.29141E+02-2.71268E+03
 -1       567 2.08900E+04-1.39911E+02 3.77692E+02 1.43415E+03-1.33511E+02-1.24261E+03
 -1       568 1.60977E+03 8.16353E+01 1.90965E+03-6.90696E+03-3.88354E+02-4.94122E+02
 -1       569 1.17723E+04-1.43609E+03 1.34801E+03-5.87744E+03 9.99801E+01-2.41112E+03
 -1       570-2.80767E+03-4.34269E+02 1.34424E+03-7.09801E+03-8.21920E+01-2.57639E+03
 -1       571 1.39860E+04 6.29334E+02 3.85970E+02 1.91896E+03 1.03289E+02-1.06227E+03
 -1       572-4.56553E+04-1.43762E+02 3.37766E+02-8.73326E+03 2.08717E+02-3.15708E+03
 -1       573-6.66396E+04 9.75837E+01-6.23072E+02-8.86290E+03-3.91138E+02-3.22473E+03
 -1       574-5.02313E+04 3.51253E+02 8.58519E+02 6.44205E+03 1.53138E+02-7.20610E+02
 -1       575-1.11015E+05 2.34985E+02-7.50530E+02 3.62930E+03 2.66277E+02-1.20628E+03
 -1       576-1.47042E+05 6.22447E+02-1.87561E+03 3.12570E+02 4.60970E+02-1.79175E+03
 -1       577-6.50579E+04 8.46731E+02 2.53482E+02 8.25909E+03 4.38837E+01-1.77683E+03
 -1       578 3.04118E+04 5.62509E+02 1.75359E+03 2.18114E+03-3.49715E+02-2.11413E+03
 -1       579-1.22293E+05 1.01959E+03-1.88187E+03-5.86045E+03-2.68032E+02-2.11838E+03
 -1       580 1.17536E+04-2.55765E+02 2.25571E+02 1.00424E+03-2.44219E+01-1.07847E+03
 -1       581 1.20347E+04-8.72155E+01 1.70594E+02 1.32253E+03-5.76290E+01-1.08193E+03
 -1       582 1.50644E+04 5.04801E+02 4.90111E+02 1.32318E+03-1.27051E+02-5.21083E+02
 -1       583-8.47188E+04 2.11661E+02-6.64316E+02 5.72914E+03 7.51965E+01 6.14079E+01
 -1       584-1.18550E+05 3.43451E+02-9.13865E+02 3.35140E+03 3.08952E+02-1.37945E+03
 -1       585-1.20440E+05 3.05027E+02-1.15523E+03 3.32460E+03-3.17360E+02-1.68570E+03
 -1       586-1.45895E+05-3.59856E+02-1.99916E+03-4.01237E+02-1.53717E+02-1.56204E+03
 -1       587-1.47881E+05 3.26567E+02-2.34038E+03-1.27833E+03 2.87388E+01-2.39967E+03
 -1       588 1.54448E+04 1.63973E+01 1.57928E+02 1.59286E+03-4.06604E+01-1.34556E+03
 -1       589-9.48014E+04 2.30104E+02-5.18947E+02 4.61877E+03 2.41063E+02-1.43870E+03
 -1       590-8.47846E+04 2.91485E+02-6.07026E+02 5.17411E+03 3.12187E+02-1.32457E+03
 -1       591-9.20286E+04 1.81960E+02-6.36039E+02 4.12602E+03 1.43106E+02-9.74897E+02
 -1       592-9.43226E+04 1.11686E+01-7.69764E+02 4.87268E+03 3.99994E+01-4.57891E+01
 -1       593-8.89608E+04 2.59531E+02-6.93427E+02 6.04811E+03 1.15684E+02-1.98423E+03
 -1       594-5.07547E+04 4.19639E+02 1.23226E+03 7.87134E+03 1.39479E+02-7.48961E+02
 -1       595-4.61576E+04 6.13874E+02 1.70186E+03 8.36331E+03 6.76817E+01 6.91576E+02
 -1       596-9.89090E+04 6.33271E+01-8.42456E+02 5.25314E+03 1.28540E+02-1.93928E+03
 -1       597 3.03168E+04-1.01849E+01 7.61904E+02 1.37374E+03 2.52667E+02-1.79894E+03
 -1       598 3.23595E+04-1.11156E+03 1.96131E+03-7.26619E+02-3.74716E+02-1.99058E+03
 -1       599-1.29275E+05-3.82038E+02-1.87516E+03 3.34713E+03-2.14046E+01-7.09965E+02
 -1       600-1.11308E+05 4.38993E+02-2.11032E+03-8.52242E+03-3.68418E+01-3.62165E+03
 -1       601-3.31098E+04 2.37849E+01 4.21250E+02-1.08020E+04-1.09945E+02-1.57201E+02
 -1       602-5.25485E+04-2.41064E+01 7.88051E+01-1.04217E+04 2.28887E+02-2.41626E+02
 -1       603-6.41789E+04 3.82763E+02 3.38183E+02 5.91841E+03 5.90284E+01-1.31939E+03
 -1       604-1.01062E+05 3.76923E+02-6.35904E+02 4.09799E+03 1.43003E+02-1.20001E+03
 -1       605-1.25741E+05-4.87910E+02-1.66659E+03 4.14625E+03 4.06803E+01-1.73727E+03
 -1       606-1.27068E+05 1.91534E+02-1.30858E+03 2.74564E+03 3.04515E+02-1.59999E+03
 -1       607 3.12179E+04 1.52702E+02 2.39720E+03-2.40705E+03-5.42675E+01-1.54246E+03
 -1       608 2.93482E+04-1.08644E+03 2.16283E+03-2.36012E+03-3.44919E+02-2.45399E+03
 -1       609 2.14736E+04-1.14105E+03 1.77580E+03-4.19005E+03-5.62959E+02-2.41859E+03
 -1       610 1.74545E+04-1.13597E+02 3.10735E+02 1.52349E+03-3.22430E+02-1.25672E+03
 -1       611 2.25089E+04-1.04036E+03 1.85091E+03-3.81688E+03 3.13493E+02-2.40587E+03
 -1       612-8.61167E+04 4.05067E+02-9.05358E+02-9.13911E+03 1.07143E+02-3.06922E+03
 -1       613 1.21158E+04 3.19516E+02 1.78035E+02 1.80813E+03-5.91094E+01-9.82223E+02
 -1       614 9.76643E+03-2.95049E+01-1.24945E+02 1.64285E+03-1.44581E+02-9.56622E+02
 -1       615-8.13607E+04 2.58393E+02-4.51837E+02 4.49097E+03 1.22652E+02-7.26643E+02
 -1       616-1.45981E+05-9.11958E+02-2.15378E+03-2.37741E+02 7.72113E+02-2.25370E+03
 -1       617 9.46618E+03-5.54462E+01 6.39644E+01 1.24656E+03-1.44773E+02-1.13381E+03
 -1       618 2.54049E+04 3.19771E+02 2.24711E+03-2.51127E+03 3.23346E+01-1.16014E+03
 -1       619-6.79731E+04 2.80447E+02 1.44746E+01 5.10508E+03 1.71718E+02-6.20783E+02
 -1       620-7.33053E+04 2.33903E+02-4.80962E+02 5.71675E+03 1.26611E+02-1.09164E+03
 -1       621-2.18991E+04 2.64540E+02 1.25099E+03-7.43848E+03 4.05982E+01-3.14996E+03
 -1       622-1.90998E+04-2.14618E+02 1.26719E+03-7.46066E+03-1.02238E+02-2.91790E+03
 -1       623-3.93123E+04-7.29393E+01 3.02710E+01-8.28799E+03 3.18291E+02-2.41760E+03
 -1       624 2.88849E+04-9.68491E+02 1.65780E+03-2.51061E+03 3.89959E+01-2.31435E+03
 -1       625 3.12846E+04 1.78104E+02 1.89447E+03 1.24922E+03-2.52388E+02-1.75552E+03
 -1       626 1.22179E+04-9.54531E+01-6.91743E+01 1.26006E+03 6.65641E+01-1.13351E+03
 -1       627-1.35242E+05 6.64087E+02-2.46065E+03-3.83842E+03-8.65811E+01-2.22842E+03
 -1       628 1.72492E+04-3.36006E+02 2.11892E+03-4.66764E+03-8.25244E+01-8.76509E+02
 -1       629-1.27227E+05 3.90391E+02-1.22454E+03 3.06775E+03-3.11545E+02-1.77364E+03
 -1       630-6.01420E+04 3.08107E+02-1.22091E+02 8.27622E+03 2.44317E+02 3.72354E+02
 -1       631-7.32434E+04 4.01899E+02-4.02173E+02 6.56246E+03 1.03793E+02 2.42886E+02
 -1       632-1.04559E+05 2.61699E+02-6.09570E+02 4.06702E+03 4.38634E+01-1.46943E+03
 -1       633-1.12325E+05-4.67561E+01-9.55709E+02 3.61064E+03-2.02782E+02-1.45198E+03
 -1       634 3.11959E+04 4.19595E+02 8.15102E+02 1.16922E+03-1.81446E+02-1.92638E+03
 -1       635-1.32949E+05 5.56155E+02-1.35210E+03 2.49733E+03 2.49822E+02-1.63529E+03
 -1       636-1.45838E+05 9.11553E+02-2.53862E+03-1.04228E+03-2.57615E+02-1.93256E+03
 -1       637-6.19464E+04 4.91272E+02 2.52441E+02 5.98479E+03 1.34629E+02-1.06063E+03
 -1       638-1.41494E+05 1.10813E+02-2.82666E+03-2.53278E+03-2.17707E+02-2.02776E+03
 -1       639 6.47231E+04-9.30221E+02 1.47660E+02 1.34063E+04-5.67504E+01 1.22583E+03
 -1       640 7.65733E+04-7.58214E+02-3.76092E+00 1.23411E+04-2.27173E+01 9.95112E+02
 -1       641 7.33759E+03 3.42850E+02-5.21225E+01 2.50728E+03-1.92581E+02-5.15248E+02
 -1       642 5.64103E+03 2.32061E+02-5.46590E+01 2.57638E+03-8.79736E+01-3.61666E+02
 -1       643 9.74802E+04-3.60591E+02 5.50890E+02 1.01192E+04 5.14117E+02 7.34192E+02
 -1       644 9.16557E+04-5.77690E+02 1.70119E+02 1.01138E+04 3.53242E+02 7.02333E+02
 -1       645-4.81809E+04 1.14159E+03 6.00345E+02-2.22092E+04-1.05602E+02-1.25711E+03
 -1       646-6.85135E+04-4.86298E+03-4.85047E+02-2.41793E+04-1.34553E+03-1.56144E+03
 -1       647-8.31448E+02-3.82004E+02-6.26109E+01-1.72114E+03-6.18823E+01 1.88474E+02
 -1       648 4.52831E+03 4.81127E+02 2.36270E+01 2.52962E+03-9.91113E+01-1.93438E+02
 -1       649-1.24428E+05 1.18972E+03 2.86704E+02 5.50957E+03 1.97266E+03-2.85108E+02
 -1       650-6.66320E+04 1.15317E+03 2.53016E+01 1.42618E+04-1.21808E+02-1.16323E+03
 -1       651-1.68803E+04-8.21640E+03-2.83195E+03-2.47335E+04 3.81594E+02-1.80669E+03
 -1       652-2.34864E+04-1.07731E+04-2.71645E+03-2.40091E+04 3.61355E+02-1.99666E+03
 -1       653 2.03103E+04 5.55397E+04 1.14058E+02-3.23452E+04 9.17483E+01 1.42533E+03
 -1       654 3.37389E+04 6.24629E+04 1.48276E+03-3.92030E+04 1.19542E+03 1.29214E+03
 -1       655 2.71512E+04 6.20881E+04 7.46326E+02-3.64700E+04 7.79359E+02 1.60467E+03
 -1       656 3.51487E+04 1.85254E+04-5.87587E+02 2.94759E+04-2.88286E+03-3.73185E+02
 -1       657 5.90315E+04 2.46009E+04-1.28791E+03 4.71194E+04-5.67221E+03-6.25058E+02
 -1       658 2.99788E+04 1.04191E+04 1.10487E+03 2.12664E+04-4.70609E+02-7.93857E+01
 -1       659-1.44893E+04 9.21567E+00 1.72748E+00 5.03462E+03-3.54445E+02 3.25960E+02
 -1       660-1.32123E+04-3.43648E+02-2.72116E+02 4.39749E+03-2.73289E+02 3.90017E+02
 -1       661 1.23471E+03 2.97573E+03-1.25095E+02-2.89378E+03-8.68285E+01-2.37873E+02
 -1       662 1.63443E+03 5.31004E+03-2.32072E+02-4.49287E+03-2.95885E+02-3.01370E+02
 -1       663 1.94936E+04 3.93949E+02 4.88894E+02 4.05944E+03-5.10783E+02-1.02004E+03
 -1       664-9.78458E+03-4.14105E+02-2.16635E+02 4.25262E+03-3.45306E+02 6.59817E+02
 -1       665-4.16820E+04-1.59135E+04-7.01721E+03-2.11377E+04 4.72103E+02-4.68407E+03
 -1       666-5.64993E+04-2.21019E+04-1.13285E+04-1.94385E+04 1.59278E+03-6.56689E+03
 -1       667-6.98077E+04-2.24846E+04-1.11019E+04-1.95897E+04 1.41726E+03-6.65221E+03
 -1       668 2.37737E+03 1.22062E+04-4.20581E+02-8.65523E+03-2.20291E+03 1.59801E+02
 -1       669 3.60543E+03 1.47450E+04-1.73837E+03-1.21240E+04-5.87241E+03 1.58846E+03
 -1       670-2.80872E+03-8.52557E+02-1.31156E+02 2.13338E+03-1.07990E+02 2.85227E+02
 -1       671-2.22548E+03-9.88400E+02-5.00577E+01 1.96826E+03-9.61140E+01 1.53074E+02
 -1       672-1.26973E+03-9.93603E+03 3.91722E+02-5.91538E+03-5.31476E+02 2.05442E+02
 -1       673 2.09327E+04 3.52125E+04 6.48008E+01-2.40786E+04 1.15321E+02-9.06344E+02
 -1       674 3.74772E+02-1.35402E+03 1.43775E+01 2.05634E+01-2.31496E+01-1.63934E+02
 -1       675-3.75367E+02-1.86306E+03-5.55073E+01 1.19478E+03-1.07457E+02 6.69683E+00
 -1       676 1.45127E+02-1.88273E+03 1.35202E+02 8.81094E+02-3.63593E+01-1.35664E+02
 -1       677 2.44656E+04 1.13775E+04 4.11445E+03-2.33234E+04 6.69568E+02 2.89894E+03
 -1       678 1.67976E+04 7.97286E+03 2.58276E+03-2.51116E+04 1.85732E+02 1.72338E+03
 -1       679-1.23924E+05 3.32646E+03-1.02906E+03-1.72991E+02 1.30090E+03-1.02296E+03
 -1       680-3.41731E+03-2.55360E+04 2.60873E+03-1.36978E+04-6.45227E+03-2.22102E+03
 -1       681-4.49064E+03-2.28060E+04 9.93921E+02-1.76041E+04-1.05420E+04-6.05345E+03
 -1       682 6.30564E+02-1.38570E+04-2.66197E+03-1.23364E+04-1.11867E+04-7.42093E+03
 -1       683 6.18229E+02-1.58870E+03-4.37722E+01 1.91882E+02-1.52051E+01-6.03517E+01
 -1       684-9.02688E+03-2.82167E+04 1.15649E+02-2.43177E+04-1.40057E+03-8.93661E+02
 -1       685-6.62848E+04-4.18291E+04-5.30471E+02-4.61232E+04-4.76822E+02 1.45198E+03
 -1       686 1.78393E+05 3.99550E+04 3.26333E+04 5.49925E+04 3.55557E+02 1.00750E+04
 -1       687-1.42672E+04-4.44376E+04 4.62656E+01-2.74543E+04-9.22531E+02-1.17529E+03
 -1       688-9.77156E+04-1.55108E+04-4.13994E+02-3.42120E+04-2.41291E+03-4.44523E+02
 -1       689-8.96912E+04-9.50786E+03-2.37943E+02-2.77325E+04-1.88030E+03-9.54575E+02
 -1       690 8.79381E+03 2.55083E+04 1.47235E+02-2.65603E+04-9.07471E+02 9.49855E+02
 -1       691 2.46388E+03 9.44103E+03 2.28638E+02-2.28204E+04-1.07639E+03 3.05543E+02
 -1       692-1.21857E+05 5.46608E+01-3.14479E+02 7.25841E+03 1.57577E+03-7.05284E+01
 -1       693-1.20415E+05-3.57402E+02-5.50526E+02 8.10804E+03 6.96575E+02-4.43945E+02
 -1       694-1.54799E+04 4.79047E+02-9.14611E+01 4.16801E+03-1.01030E+03 7.49072E+02
 -1       695-1.73066E+04 2.52320E+02-5.11481E+02 3.50986E+03-9.53803E+02 6.96268E+02
 -1       696 9.66838E+04 2.08741E+04 1.02171E+03-3.64156E+04-2.22089E+03-3.12365E+02
 -1       697 9.48603E+04 1.43547E+04 1.38070E+03-3.28178E+04-2.12904E+03 2.39802E+02
 -1       698 7.03578E+04 2.42915E+04 1.41268E+04-1.95770E+04 4.21571E+02 8.03808E+03
 -1       699 5.41653E+04 2.02328E+04 8.98550E+03-1.96640E+04 1.25129E+03 5.86918E+03
 -1       700 6.24928E+03-1.10485E+04-1.12207E+03-2.18405E+04 1.04032E+03 1.35260E+03
 -1       701 5.16022E+04 6.96925E+02 1.70256E+02-2.39281E+04-3.06873E+02 1.52190E+03
 -1       702 3.30142E+04-5.12537E+03-8.56549E+02-2.24373E+04 6.27617E+02 2.43841E+03
 -1       703 9.12244E+04 3.09922E+04-1.41672E+02-4.46238E+04-1.24557E+03-1.41161E+03
 -1       704 7.98358E+04 3.50927E+04 8.33665E+02-4.50361E+04-9.74975E+02-1.30875E+03
 -1       705 2.15964E+03 8.66516E+03-4.23441E+02-6.57003E+03-1.15424E+03-9.21149E+01
 -1       706 1.20640E+04 6.04739E+03 1.80693E+03-2.57758E+04 1.53180E+02 1.34852E+03
 -1       707-3.20217E+04-8.86571E+03 8.89099E+02 2.21404E+04-2.12164E+03 1.49502E+03
 -1       708 9.63962E+04 2.58422E+04 8.13443E+02-4.10612E+04-1.74035E+03-1.04377E+03
 -1       709 2.21998E+04 2.05687E+03-5.04089E+02-1.45532E+04-5.91344E+02 3.47239E+02
 -1       710 1.45491E+04-1.98632E+03 6.17743E+02-2.20403E+03-1.10799E+03-5.25441E+02
 -1       711 1.19506E+04-1.32201E+03 2.07932E+02-4.28337E+03-1.35387E+03-5.90463E+02
 -1       712-9.98904E+04-2.73286E+04-8.38647E+02-4.21157E+04-1.72162E+03 1.23260E+03
 -1       713 9.91700E+04-2.14715E+03 6.13257E+02-1.32179E+04 1.73115E+03 1.35942E+02
 -1       714 1.12357E+05-1.54504E+03 2.92050E+02-8.55167E+03 1.54527E+03 3.16206E+02
 -1       715-1.40535E+04-1.73712E+04-4.76311E+02-2.45442E+04 1.79729E+03 4.56921E+02
 -1       716 1.27050E+05-1.15133E+03 3.78421E+02 2.39482E+03 1.98480E+03 1.08997E+03
 -1       717 1.22575E+05-8.44911E+02-5.74813E+01 5.47785E+03 2.13995E+03 7.05938E+02
 -1       718 3.24415E+04 1.45875E+04 4.64385E+03-2.20879E+04 5.15516E+02 3.32565E+03
 -1       719 6.45190E+04 4.17620E+04 1.20384E+03-4.51455E+04-1.95014E+02-1.75397E+03
 -1       720 1.42252E+04 2.98179E+04-5.68281E+01-1.88587E+04 2.85427E+02-4.62750E+02
 -1       721 8.63803E+03 2.33072E+04-2.13786E+02-1.36160E+04 1.74982E+02-3.66767E+02
 -1       722 4.38521E+03-5.40206E+03 5.55985E+03-5.05245E+03-3.12247E+03 5.50470E+03
 -1       723 4.21112E+04 1.61559E+04 7.85780E+03-2.11273E+04 1.60383E+02 5.04029E+03
 -1       724 1.05506E+05-1.33740E+02-6.53948E+01 8.85147E+03 6.51366E+02 6.55736E+02
 -1       725 5.20932E+04 3.89060E+04 7.98106E+01-3.94458E+04-3.67499E+02-1.91072E+03
 -1       726 2.14606E+04-6.09726E+02 1.31873E+02 2.98653E+03-4.21268E+02-7.33424E+02
 -1       727-7.74848E+02-1.58514E+03-1.02226E+00 1.54401E+03-9.92594E+01 5.05851E+01
 -1       728-1.78411E+04-1.49593E+03 2.42811E+02-1.22044E+04 8.14010E+01 2.79911E+02
 -1       729 4.47323E+04 1.25309E+03-4.99179E+01 1.71410E+04-8.74629E+02 6.73137E+01
 -1       730-1.46164E+04-2.75874E+04 1.71621E+01-1.94514E+04 2.65439E+02 2.98114E+02
 -1       731-2.31108E+03-1.55316E+04 3.05764E+02-8.51499E+03-1.27257E+03-3.40629E+01
 -1       732 1.59483E+03 7.61297E+03 4.26923E+01-8.85153E+03-5.42974E+01-2.73716E+02
 -1       733-1.95532E+04-5.52942E+04-3.91425E+02-3.20582E+04 1.50853E+02-1.48470E+03
 -1       734 3.55568E+04 5.75195E+03-2.77517E+02 1.94360E+04-9.46103E+02 1.79959E+02
 -1       735 1.23604E+05 3.43272E+01 5.04657E+02 7.20868E+03 7.94254E+02 4.85164E+02
 -1       736 3.76930E+04 5.79962E+04 1.09371E+03-3.92108E+04 1.04187E+03 1.53991E+03
 -1       737-1.27549E+05 1.19887E+03-1.09415E+03-3.09164E+03 1.20363E+03-8.06248E+02
 -1       738-1.19362E+05 2.28422E+03-8.47602E+02-6.46105E+03 1.20190E+03-7.64459E+02
 -1       739-6.64141E+02 1.13216E+03-1.64413E+02-6.91306E+02-6.85081E+01 2.67813E+02
 -1       740-4.54483E+04-5.10228E+04-7.56062E+02-4.19161E+04 1.88370E+03-7.14283E+02
 -1       741-4.23614E+04-5.53185E+04-6.44091E+02-4.11418E+04 2.05444E+03-2.64212E+03
 -1       742-3.73549E+04-5.93788E+04-6.93947E+02-4.10290E+04 7.39620E+02-2.42823E+03
 -1       743 1.18494E+05-3.29656E+02 2.29236E+02 8.14778E+03 7.82183E+02 4.63518E+02
 -1       744-2.94696E+03-2.13611E+04 1.46100E+03-1.13187E+04-2.31985E+03-1.50229E+02
 -1       745 2.21027E+04-1.07350E+03-2.97388E+02 4.31115E+02-3.16175E+02-8.57170E+01
 -1       746 7.17483E+04-3.48017E+02 2.20302E+02-1.55533E+04 3.81381E+02-1.80712E+02
 -1       747-9.13078E+04-2.78687E+04-1.64807E+04-1.89229E+04 2.66238E+03-9.50850E+03
 -1       748-1.70694E+03-1.24805E+03-6.35279E+00 1.93762E+03-1.46401E+02 1.04679E+02
 -1       749-1.48043E+03-1.61787E+03 1.89105E+01 1.96644E+03-1.73079E+02 1.68693E+01
 -1       750-2.09248E+04 2.77071E+02-2.64558E+02 2.31358E+03-6.22826E+02 4.81185E+02
 -1       751 8.39142E+04-4.46168E+02 1.42592E+02 1.02710E+04 2.39154E+02 1.00237E+03
 -1       752 2.54108E+03 1.37195E+03 7.98048E+01 2.34068E+03-1.04261E+02-9.87169E+01
 -1       753-1.33178E+03-5.83494E+03 2.11747E+02-4.35087E+03-4.89340E+02 2.64893E+02
 -1       754-1.76912E+03-1.40612E+03-3.73002E+02-2.66915E+04 2.91663E+02-2.44617E+02
 -1       755 4.05382E+04 3.32772E+04 1.46510E+03-3.57059E+04 1.20736E+03 3.16283E+02
 -1       756 2.87941E+04 2.54653E+04 1.75205E+03-2.94131E+04 2.14076E+03-6.74371E+02
 -1       757 1.16048E+04 7.01146E+02 3.67974E+02 4.34964E+03-3.39436E+02-5.53905E+02
 -1       758 1.33724E+04 4.94434E+02 3.96181E+01 4.56844E+03-9.54712E+02-5.74974E+02
 -1       759-2.89466E+03-8.12631E+03-3.08332E+01-2.27342E+04-9.14294E+02-4.20967E+02
 -1       760-3.68691E+02 1.69518E+03 4.88109E+01-1.23541E+02-1.15022E+02 1.50861E+00
 -1       761 8.86168E+04 2.75341E+04 1.47784E+04-1.81327E+04 2.50345E+03 9.25675E+03
 -1       762-3.73457E+04-1.25764E+03-1.15014E+01-1.61887E+04-4.30876E+02 5.25953E+02
 -1       763 4.36444E+04 3.88909E+04 6.21611E+02-3.72941E+04 3.29433E+03 1.24052E+03
 -1       764 8.68389E+04-8.61247E+02 3.46960E+02-1.44976E+04 1.12847E+03 6.81616E+01
 -1       765 4.07842E+04 5.26055E+04 1.60816E+03-4.01610E+04 2.94632E+03 1.76790E+03
 -1       766 3.88614E+04 4.16186E+04-1.47718E+02-3.58048E+04 8.21203E+01-1.29730E+03
 -1       767-8.97447E+04-3.15930E+04-9.32404E+02-4.40771E+04-4.01674E+02 1.35148E+03
 -1       768-7.96279E+04-3.48673E+04-3.27918E+02-4.46378E+04-3.81899E+02 9.24920E+02
 -1       769-1.07969E+05-2.40796E+02-1.78000E+02 8.39836E+03 6.83082E+02-7.22762E+02
 -1       770-1.11956E+05 5.26697E+02-4.89488E+02 8.68005E+03 5.81565E+02-6.18871E+02
 -1       771-9.56388E+02-5.74145E+03-2.09549E+03-5.90559E+03-1.15071E+03-2.83974E+03
 -1       772 2.54280E+03 1.26146E+03 5.12506E+02-2.66707E+04 2.46197E+02 2.11735E+02
 -1       773-2.14108E+02 2.33550E+03 9.62599E+01 7.19168E+02 2.49979E+01 5.59093E+01
 -1       774 1.46041E+02 2.46954E+03 2.58231E+01 1.22760E+03-2.21422E+01 1.03422E+02
 -1       775-1.12614E+05 1.79960E+03-2.99150E+02-9.09176E+03 1.35774E+03-4.02561E+02
 -1       776-9.86268E+04 2.13272E+03-5.67742E+02-1.36110E+04 1.73552E+03-1.60862E+02
 -1       777-1.48649E+05-2.98878E+04-1.53165E+04 5.73108E+04 3.03575E+02-5.74263E+03
 -1       778 1.00984E+03 9.78037E+02-1.80381E+01-1.79027E+03-8.45773E+01-1.44022E+02
 -1       779 4.05652E+02 2.35372E+03-5.75209E+01 1.54699E+03-1.21357E+02 1.48131E+02
 -1       780-6.02206E+03-3.30259E+03-1.25937E+03-2.63901E+04 1.60995E+02-7.63456E+02
 -1       781-8.58207E+04 8.04563E+02-1.01026E+02 1.06744E+04 1.95724E+02-9.89109E+02
 -1       782-9.35320E+04 2.55722E+02-1.65227E+02 9.61166E+03 4.80240E+02-9.09122E+02
 -1       783-3.21419E+04-1.30134E+04-3.41206E+03-2.22323E+04 6.35484E+02-3.25104E+03
 -1       784-8.78642E+03 9.99037E+03-1.07634E+02-2.31034E+04 1.20974E+03-9.43711E+02
 -1       785-3.08879E+04 5.57174E+03 2.77852E+01-2.23300E+04 5.97917E+02-1.03910E+03
 -1       786-1.16785E+05-2.20530E+04-1.36072E+04-1.66499E+04 2.22211E+03-8.96491E+03
 -1       787-4.21399E+04-3.88086E+04-3.92027E+02-3.64867E+04 2.44412E+03-1.40975E+03
 -1       788-3.86933E+04-3.22348E+04-1.22820E+03-3.43337E+04 1.40670E+03-2.62000E+02
 -1       789 1.29808E+05-1.72322E+03-2.41090E+01-2.36761E+03 3.68407E+02-1.27339E+02
 -1       790-9.96390E+02-2.12462E+03 4.42477E+01-3.08830E+03-2.45707E+02 2.30072E+02
 -1       791 1.20462E+05 2.97221E+04 2.17522E+04-1.81803E+04 1.30837E+03 1.17975E+04
 -1       792 1.75777E+05 3.84263E+04 3.70106E+04-1.01132E+04 3.50804E+03 1.33452E+04
 -1       793-7.75067E+04 1.44670E+03 8.85814E+01 1.31866E+04-1.30208E+02-1.12064E+03
 -1       794-1.00987E+05-2.16438E+04-1.87426E+03-3.74259E+04-1.55627E+03 5.58501E+02
 -1       795 8.23065E+03 4.39170E+02 2.18978E+02 3.38430E+03-3.03656E+02-5.33911E+02
 -1       796 1.04960E+04 4.08675E+02 7.86738E+01 3.76473E+03-3.27558E+02-4.52992E+02
 -1       797-2.38574E+02 2.04862E+03-1.31448E+03-8.44603E+03-1.95762E+03 5.23371E+02
 -1       798 1.47202E+04 8.18274E+01 4.47930E+02 4.66017E+03-1.15330E+03-9.94328E+02
 -1       799-9.13225E+03-1.93108E+04-2.56938E+02-1.40867E+04 3.14167E+02 1.54736E+02
 -1       800-5.35808E+04 5.05701E+02-9.09587E+01 1.49956E+04-9.41965E+01-7.85762E+02
 -1       801-4.62499E+03-2.30873E+02 4.47740E+01 2.43402E+03-1.29786E+02 3.41753E+02
 -1       802-3.64776E+03-5.40905E+02-4.51903E+01 2.24904E+03-1.53255E+02 3.18483E+02
 -1       803-5.29958E+03-1.03601E+04 3.15708E+02-1.13994E+04 4.58522E+02 2.39662E+02
 -1       804 8.80608E+03 1.42031E+03-5.14806E+02-1.05599E+04-1.37073E+03 3.20172E+02
 -1       805 1.46476E+04 4.44670E+04 1.71432E+02-2.82398E+04-5.24300E+02 8.60642E+02
 -1       806 1.30926E+05-1.95651E+03 4.43786E+02 2.05944E+02 1.03577E+03 7.41533E+02
 -1       807-3.58655E+04-1.78222E+04 2.31595E+03 3.14321E+04-4.42469E+03 3.50386E+03
 -1       808-4.42888E+04-2.53744E+04 6.85854E+03 4.69257E+04-8.51495E+03 7.52280E+03
 -1       809-3.82221E+04-5.03244E+03 1.47806E+03 1.96081E+04-1.13548E+03 3.96270E+02
 -1       810-4.32725E+04-5.73476E+02 4.56782E+02 1.65898E+04-5.57323E+02 4.54950E+02
 -1       811 1.10160E+05-1.45125E+02 3.99327E+02 8.83909E+03 7.95051E+02 7.56690E+02
 -1       812 4.99657E+03 1.47161E+04-8.31520E+02-1.46602E+04-9.72232E+03 3.48962E+03
 -1       813-4.22566E+04-3.86223E+04 3.19965E+02-3.45969E+04-4.27219E+02 2.31548E+03
 -1       814-1.71363E+05-1.41454E+04-1.41450E+04-2.37955E+03 3.39888E+03-6.32935E+03
 -1       815 3.33207E+03 1.07577E+03 8.45090E+01 2.50688E+03-6.55762E+01-7.42624E+01
 -1       816 2.38580E+03-2.92803E+03 6.05099E+02-8.52148E+03-1.53413E+03-2.50831E+02
 -1       817-7.03386E+04 6.88216E+02-3.91356E+02-1.79618E+04 3.31188E+02 1.63323E+01
 -1       818-3.16658E+04-6.07453E+04-1.08291E+03-3.78803E+04 1.04529E+03-1.16806E+03
 -1       819 2.13428E+03 1.76446E+03 5.80523E+01 2.35061E+03-1.64320E+02-3.18901E+01
 -1       820 1.45051E+03 1.84945E+03 7.43664E+01 2.06788E+03-9.09974E+01-7.86497E+01
 -1       821 5.11892E+03 1.61228E+04-1.53144E+02-1.03792E+04 3.44340E+02-3.55902E+02
 -1       822 5.21332E+04-5.59826E+02-1.06096E+02 1.48041E+04-7.33202E+01 8.83393E+02
 -1       823-8.60347E+04 1.21194E+03-2.06863E+02-1.50360E+04 8.63198E+02 6.79001E+01
 -1       824-2.69279E+04-6.09955E+04-8.33458E+02-3.56923E+04 6.48164E+02-1.87159E+03
 -1       825-7.63690E+03-2.44690E+03 2.22451E+02-1.11421E+04-7.79337E+02-4.02876E+01
 -1       826 4.28343E+03 6.53170E+02 8.51690E-02 2.42505E+03-9.07496E+01-1.58619E+02
 -1       827 3.39475E+03 8.18640E+03 3.21586E+03-1.17712E+04-1.09788E+04 5.85871E+03
 -1       828-1.80296E+04 1.13916E+03-3.72183E+02 3.74854E+02-1.10468E+03 4.73768E+02
 -1       829-1.63728E+04 1.53056E+03-2.35697E+02-1.85322E+03-1.00598E+03 6.37055E+02
 -1       830 2.18631E+04-1.33935E+03-9.06734E+01 2.06926E+03-2.93960E+02-5.65730E+02
 -1       831-2.11702E+04-3.30312E+04-7.46385E+00-2.45265E+04 5.32399E+02 6.93060E+02
 -1       832-5.16483E+04-5.46027E+02-2.17652E+02-1.54915E+04 2.04217E+02 6.66658E+02
 -1       833-1.20387E+03-1.66263E+03 2.02002E+02-8.42292E+03-5.53494E+00 6.67881E+01
 -1       834-7.29126E+03-5.94728E+02-1.12386E+02 2.81092E+03-3.95386E+02 5.96740E+02
 -1       835-5.74687E+03-5.63666E+02-9.38407E+01 2.49996E+03-2.52673E+02 5.46204E+02
 -1       836-1.11994E+04-6.02131E+03-1.91787E+03-2.56604E+04 3.47401E+02-1.28958E+03
 -1       837 6.73530E+03 3.20310E+03 1.00049E+03-2.64422E+04 2.84992E+02 7.26804E+02
 -1       838 8.57066E+04 1.04398E+04 1.01635E+02-2.78806E+04-1.44177E+03 2.92038E+02
 -1       839-1.07291E+04 1.19847E+03-1.28602E+02-4.72764E+03-1.19643E+03 5.41977E+02
 -1       840 3.02294E+04 3.59038E+04 2.02082E+00-2.88099E+04-2.12688E+02-5.73543E+02
 -1       841-1.26908E+05 2.45369E+03-2.02805E+02 3.41940E+03 1.93857E+03-4.66283E+02
 -1       842 8.92879E+02-3.64197E+02 4.46898E+01-9.94569E+02-3.58367E+00-2.08756E+02
 -1       843 4.59276E+04 5.25853E+04 1.91003E+03-4.36591E+04 2.92545E+03 1.72743E+03
 -1       844 1.17219E+05-3.12298E+03 5.36012E+02-6.10369E+03 1.46862E+03 2.77725E+02
 -1       845-2.10250E+04-2.37369E+04-1.08641E+03-2.82226E+04 2.88215E+03 4.85476E+01
 -1       846 8.48588E+02 2.14752E+03 7.81927E+01 1.72916E+03-8.98244E+01 1.87972E+01
 -1       847 5.29828E+04 1.54116E+02-2.45209E+01-1.48600E+04 3.61725E+01-3.91551E+02
 -1       848 3.84228E+04 1.17887E+03-3.98102E+02-1.57103E+04-4.50243E+02 1.24549E+02
 -1       849 6.97611E+04 6.15764E+03 6.39683E+02-2.34371E+04-1.42533E+03 1.07119E+03
 -1       850-8.69697E+03-4.80173E+02-2.57277E+01 3.62505E+03-3.44778E+02 4.95341E+02
 -1       851 9.38760E+03 1.77040E+04 5.16088E+02-2.54708E+04 2.79900E+03-2.23710E+02
 -1       852-3.24592E+04-3.64343E+04-8.47759E+01-3.04227E+04 1.18404E+02 4.95192E+02
 -1       853-1.00776E+05-6.58505E+01-2.30218E+02 8.88235E+03 5.95125E+02-9.11624E+02
 -1       854-5.45347E+04-3.84615E+04-6.32074E+02-3.87791E+04-7.98701E+02 1.77882E+03
 -1       855-2.74042E+04-5.17791E+03 3.43132E+02-2.31719E+04-6.00599E+02 3.51881E+02
 -1       856-1.88992E+04-5.22951E+03-2.10102E+01-1.86327E+04-5.43180E+02 4.70060E+02
 -1       857-3.60815E+04-3.82299E+03-3.59109E+02-2.58167E+04-7.33570E+02 3.24802E+02
 -1       858-4.46367E+04-1.23746E+03-4.21754E+01-2.78128E+04-3.14493E+02 1.73371E+02
 -1       859-7.78855E+04 2.46626E+03 7.31415E+01 1.78591E+04 3.66316E+02-7.12786E+02
 -1       860-2.82973E+03-2.02451E+03-1.57437E+02-4.95430E+03-1.50990E+02 1.61902E+02
 -1       861-4.33075E+03-3.96267E+03-4.64748E+01-7.66688E+03-3.72788E+02 6.61272E+01
 -1       862 6.28156E+04 1.07988E+04 8.03205E+02-3.24597E+04-1.09050E+03 4.70528E+02
 -1       863 3.81764E+04 4.10427E+03-2.15485E+02-2.59935E+04-6.36993E+02-1.69746E+02
 -1       864 1.21912E+05 4.08606E+03 1.53699E+03 4.51296E+04-2.52084E+03 1.82355E+03
 -1       865-6.20315E+04-1.00490E+04-6.60433E+02-3.31515E+04-1.91005E+03-1.02234E+03
 -1       866-6.98473E+04-1.42617E+04 4.86372E+02-3.08257E+04-1.91492E+03 1.85997E+01
 -1       867-1.25826E+05 1.27926E+04-9.30162E+01 1.85563E+04 4.16050E+02 4.07971E+03
 -1       868-1.98413E+04 1.79263E+04 3.69390E+02-2.86275E+04 1.10615E+03-5.54158E+02
 -1       869-3.52130E+04 1.05977E+04 2.89323E+01-3.20993E+04 1.14078E+03-8.89211E+02
 -1       870 2.73863E+03 9.44593E+02 1.49429E+02 4.93166E+03-2.38841E+02-1.81914E+02
 -1       871 4.72740E+03 4.54253E+02 3.69476E+02 5.43981E+03-9.86857E+02-3.23374E+02
 -1       872 3.01272E+03 2.28664E+02 3.53547E+00 5.80655E+03-6.03688E+02-1.31492E+02
 -1       873-2.53642E+04-1.15168E+04 6.18490E+01-2.48429E+04 5.67527E+02-2.86431E+00
 -1       874-3.32060E+04-1.30964E+04-9.37282E+02-2.44527E+04 5.31662E+02-4.80512E+02
 -1       875 1.53270E+03-1.56042E+03 7.86621E+01-2.25550E+02-9.31855E+01-7.64958E+01
 -1       876 9.55386E+04 9.93731E+03 2.22050E+03-1.83788E+04 1.10418E+03 7.97126E+02
 -1       877 7.39942E+04 1.13378E+04 8.31473E+02-1.97084E+04 1.77083E+03-9.11462E+01
 -1       878-7.50243E+04 2.86084E+03 1.00723E+02 1.99426E+04-2.60331E+02-2.69918E+02
 -1       879 1.28509E+04 7.27152E+03 1.28291E+02-2.74128E+04 2.21331E+02-1.64784E+01
 -1       880 8.72545E+03 5.45933E+03 1.90019E+02-2.80335E+04 3.59785E+02 1.10899E+02
 -1       881-2.12503E+04-3.12541E+04-5.49173E+02-3.18287E+04 5.32101E+01-7.30722E+02
 -1       882-8.19157E+03-8.56276E+03-9.22586E+01-3.51974E+04-9.40516E+02-9.20601E+02
 -1       883-4.19071E+02 8.09015E+01 1.27742E+02-3.63550E+04-9.75349E+02 6.62355E+01
 -1       884 5.82039E+02-1.53196E+03-1.26371E+02 1.61065E+03-1.70936E+02-2.65356E+01
 -1       885-8.01573E+03-1.62055E+04 1.45432E+03-1.84567E+04-2.52711E+03-9.20125E+02
 -1       886-6.45143E+03-1.32755E+04 4.09179E+02-1.55455E+04-1.30249E+03-3.03279E+02
 -1       887-1.66882E+04-1.37383E+04 4.53556E+01-1.94890E+04 4.31691E+01 3.11394E+02
 -1       888-1.11085E+04-8.11946E+03 2.15707E+02-1.73180E+04 5.23507E+02 5.01918E+02
 -1       889 8.43779E+04 5.13918E+03-7.56539E+02 4.52650E+04-2.73326E+03-1.27341E+03
 -1       890-1.47954E+04-1.79044E+04 1.98639E+02-3.31252E+04-7.71621E+02-1.34630E+03
 -1       891-9.38612E+02-5.06154E+02-1.34181E+01 5.66526E+03-3.75420E+02 3.39808E+02
 -1       892-3.90848E+03 7.76278E+02 1.62675E+02 5.57443E+03-6.77591E+02 4.07864E+02
 -1       893-3.38296E+03 1.22040E+03 1.92618E+02 5.01645E+03-5.64702E+02 4.63655E+02
 -1       894-9.29487E+04 1.07728E+03-3.99608E+02 1.36557E+04 9.46703E+02-3.33301E+02
 -1       895-9.87620E+04 2.11389E+03-2.16478E+02 1.29042E+04 8.09207E+02-5.86565E+02
 -1       896 1.93758E+04 3.45538E+04 4.00307E+02-2.34265E+04 2.79948E+03 2.02937E+03
 -1       897-1.02223E+05 4.34058E+03 3.55759E+02 6.08868E+03 1.28047E+03-5.33835E+02
 -1       898 1.02114E+05-5.20992E+03 2.13210E+02 1.53907E+03 1.31021E+03 4.63771E+02
 -1       899 9.98661E+04-4.16536E+03-6.16505E+02 5.89956E+03 1.59836E+03 7.93186E+02
 -1       900 7.04979E+04 2.52357E+04 2.69179E+02-2.85684E+04-1.53758E+03-7.80516E+02
 -1       901 9.90873E+04-2.78253E+03-4.46316E+02 9.46309E+03 9.19715E+02 5.93361E+02
 -1       902-9.17559E+04-7.79420E+03-2.12881E+03-1.78800E+04 1.37110E+03 6.29333E+01
 -1       903-7.14658E+04-1.06494E+04-8.77327E+02-1.98449E+04 1.56117E+03 2.70281E+02
 -1       904 7.33654E+04-3.44921E+03-7.39663E+01 2.05088E+04 5.10775E+01 4.34768E+02
 -1       905 7.58098E+04-2.85387E+03 5.78827E+01 1.83826E+04 3.08851E+02 5.42073E+02
 -1       906-8.56377E+04 6.79693E+03 4.31044E+02-1.89152E+04 1.87031E+03-4.20531E+01
 -1       907-9.42311E+04 6.51451E+03-3.23889E+02-1.31734E+04 1.04892E+03-3.15380E+02
 -1       908-7.07062E+04 3.39201E+03-1.62435E+02-2.70941E+04 4.07195E+02 3.32441E+01
 -1       909 1.00948E+05-4.63001E+03-6.51168E+02-6.03905E+03 1.91568E+03 3.37844E+02
 -1       910 9.35191E+04-6.11655E+03 2.97328E+02-1.26988E+04 1.65791E+03 1.54668E+01
 -1       911-9.19138E+03-2.28908E+03-1.33088E+03-1.00302E+04-1.43152E+03-5.06811E+03
 -1       912-1.38603E+04-6.39063E+03-7.42796E+01-1.91773E+04-6.79610E+03-6.51793E+03
 -1       913 5.61497E+04 2.54815E+04 4.19485E+02-2.81718E+04-5.61497E+02-8.11819E+02
 -1       914 3.66648E+03-2.85120E+03-2.07899E+02 3.00281E+03-9.81499E+02-1.33519E+02
 -1       915 1.00526E+03-1.77837E+03-4.64706E+01 8.17215E+02-2.89210E+02 9.12236E+01
 -1       916-4.24749E+03-6.79933E+03 2.17531E+02-9.92613E+03-3.97208E+02 8.30811E+01
 -1       917 1.11050E+04-6.32682E+03 7.74446E+02-1.28105E+04-2.80505E+03 5.75258E+03
 -1       918-5.14059E+02 1.87105E+03 3.24545E+01 1.41561E+03-9.34657E+01 1.23431E+02
 -1       919 5.78404E+04 1.43778E+04 1.92903E+03-2.25003E+04 9.94603E+02 5.83101E+02
 -1       920 4.47348E+04 1.39331E+04 4.01166E+02-2.29352E+04 1.26125E+03 4.05130E+02
 -1       921-5.23038E+03-1.13459E+04 5.13002E+01-1.25741E+04-7.73081E+02-4.32904E+01
 -1       922 2.50276E+04 6.01507E+03-3.99172E+02-2.19091E+04-1.16836E+03 6.22116E+01
 -1       923 4.96965E+02 3.94926E+03 2.73862E+02-2.30960E+03-8.34132E+02 1.20198E+02
 -1       924-1.67314E+03-5.93628E+02 8.36021E+01 2.97659E+03-9.24594E+01 1.42186E+02
 -1       925 1.53135E+04 1.86231E+04-4.70933E+02-3.38584E+04-1.03097E+03 1.43391E+03
 -1       926 2.13301E+04 3.16681E+04 3.82780E+02-3.20680E+04-1.00060E+02 6.68619E+02
 -1       927-7.69782E+04-4.92248E+03 3.67729E+03 4.55568E+04-4.14980E+03 3.43376E+03
 -1       928-2.68274E+04-3.99361E+04-4.96580E+02-2.49303E+04 1.90382E+03-2.37468E+03
 -1       929 8.30329E+04-1.65716E+03 1.57724E+02 1.57406E+04 4.85759E+02 5.99146E+02
 -1       930 1.39499E+04 7.09345E+03-3.92788E+02-1.23686E+04-1.70885E+03 2.17229E+02
 -1       931 1.17794E+05 9.56457E+02 1.30989E+03-9.19762E+03 2.15243E+03 2.91484E+02
 -1       932 3.40581E+03-4.13504E+02 3.43305E+02 5.71559E+03-1.15545E+03-2.04828E+01
 -1       933 2.30999E+04 2.04235E+04-1.54211E+02-2.07588E+04-8.40086E+00-5.26276E+02
 -1       934 5.75325E+03 3.02584E+04-6.97806E+02-2.44831E+04 2.26787E+03 3.26438E+02
 -1       935 1.28950E+04-1.67788E+02-2.48907E+02-1.91400E+04-4.60362E+03 4.02553E+03
 -1       936 9.56750E+03 4.10806E+03-1.01504E+03-1.85721E+04-4.47017E+03 2.60316E+03
 -1       937 5.62961E+03 6.93221E+03 1.07287E+02-1.51159E+04 5.00136E+02-3.81986E+02
 -1       938-1.00805E+05 3.82620E+03 3.15125E+02 9.05826E+03 9.87259E+02-5.38762E+02
 -1       939-5.55718E+04-2.29543E+04-6.95631E+01-2.58678E+04-4.64715E+02 4.28246E+02
 -1       940-6.56227E+04-2.72887E+04 2.59199E+02-3.16883E+04-1.15687E+03 7.25519E+02
 -1       941 2.02117E+03-3.73383E+02 1.08808E+02-2.05608E+03-2.05195E+02-2.00520E+02
 -1       942-5.79229E+03-2.90749E+04 4.40912E+02-2.39176E+04 2.35979E+03-7.78752E+02
 -1       943 1.14770E+04-2.26580E+04-2.45855E+02-2.48656E+04 2.78102E+03-3.88875E+02
 -1       944 5.36363E+03 5.86978E+03-3.22620E+01-1.03452E+04-6.52973E+02-2.13113E+02
 -1       945 6.28437E+03 6.76611E+03-8.41107E+02-1.39934E+04-1.67832E+03 3.23008E+02
 -1       946-7.28653E+04-1.87714E+04-5.11175E+02-2.99956E+04-1.57941E+03 1.15988E+03
 -1       947 6.43474E+03-1.40465E+03-1.07936E+02 4.38539E+03-6.00148E+02-5.69621E+02
 -1       948-2.48897E+04-3.86920E+04-4.81568E+02-2.30640E+04 1.94244E+03-2.17151E+03
 -1       949-1.74887E+04-3.48637E+04-7.38027E+02-2.12098E+04 2.17359E+03-1.83992E+03
 -1       950-5.54289E+04-4.08994E+03-1.78349E+02-3.32043E+04-1.94478E+02-5.71444E+02
 -1       951-4.63442E+04 3.65725E+03 1.46169E+02-3.26519E+04 5.76838E+02-4.01188E+02
 -1       952 9.30904E+04-1.63662E+03-3.93849E+01 1.32905E+04 1.08365E+03 3.16128E+02
 -1       953 3.92454E+03 2.32270E+03 5.39135E+01-2.88562E+04 3.22495E+02 2.78348E+01
 -1       954-6.38171E+04 2.80770E+03-5.36691E+02 2.54469E+04-2.88130E+02-3.47836E+01
 -1       955-1.06127E+04-6.90691E+03-2.15258E+02-1.20138E+04-1.68467E+03-2.22352E+01
 -1       956 4.16592E+02-1.09991E+03-2.23367E+01 2.66763E+03-1.05398E+02 1.64329E+02
 -1       957 3.59375E+03 6.62094E+02 4.66341E+01 5.18187E+03-3.21911E+02-2.70835E+02
 -1       958 2.70972E+04 3.65551E+04-2.64297E+02-2.72846E+04 4.33571E+02 1.61726E+03
 -1       959 2.93892E+04 4.02931E+04 3.13348E+02-2.42132E+04 1.00769E+03 2.40333E+03
 -1       960-3.18585E+04-2.10398E+04-2.13561E+02-2.43934E+04-5.81896E+01 6.33302E+02
 -1       961-3.98585E+04-2.19244E+04 2.42576E+02-2.54066E+04-4.57848E+01 1.34625E+03
 -1       962 2.43796E+03 5.98553E+02-6.86274E+01 4.15439E+03-4.01875E+02-2.96943E+02
 -1       963 6.96556E+04 1.53661E+04-7.10987E+01-3.15994E+04-1.55495E+03-3.44234E+02
 -1       964-1.65837E+04-3.47611E+04 3.77105E+02-2.36965E+04 1.87161E+03-6.90333E+02
 -1       965-1.77916E+04-9.04003E+03-1.36383E+02-2.64426E+04 3.95698E+02-1.52131E+02
 -1       966-1.18943E+02 1.42378E+03 1.42445E+01-1.53594E+04 5.89784E+02-6.49194E+01
 -1       967 1.01099E+04 1.17914E+04 4.24227E+01-1.57915E+04 4.15615E+02-4.39403E+02
 -1       968-2.39866E+04-1.83336E+04-8.24621E+01-2.21175E+04 1.70184E+02 3.58243E+02
 -1       969-1.00621E+05 2.55583E+03 3.64364E+02 1.03734E+04 8.74861E+02-8.61977E+02
 -1       970 2.17508E+04 6.25433E+03-6.30581E+02-1.82619E+04-1.96943E+03-8.17238E+01
 -1       971 4.65129E+04-2.58655E+03-3.62180E+02-3.32280E+04 4.08444E+02 1.09743E+03
 -1       972 5.46323E+04 4.23076E+03-1.39430E+02-3.37915E+04-5.44494E+02 7.99732E+02
 -1       973-8.58056E+04 1.22780E+03-1.10912E+02 1.49977E+04 7.97291E+02-6.10214E+02
 -1       974-9.09511E+04 8.10595E+02 9.00815E+01 1.43940E+04 7.76726E+02-3.36713E+02
 -1       975-5.67126E+04 7.47785E+02-2.83287E+02-2.81294E+04 3.12152E+02 5.11813E+02
 -1       976 7.57328E+04 2.46070E+04-5.69501E+01-2.99053E+04-1.25450E+03-1.12768E+02
 -1       977 7.03342E+04-3.39856E+03-1.93573E+01-2.67643E+04 4.54927E+02-8.61977E+01
 -1       978 7.71682E+04-5.28797E+03-1.64016E+02-2.41644E+04 1.50049E+03 1.21387E+02
 -1       979-1.41576E+03-1.02540E+03-3.96642E+01 4.82552E+03-4.55449E+02 1.55428E+02
 -1       980-2.02448E+03-7.38956E+02 1.51201E+02 4.97611E+03-4.02076E+02 2.84229E+02
 -1       981 1.78425E+04 3.49646E+04 7.52088E+01-2.45364E+04 2.30121E+03 8.07678E+02
 -1       982 2.78400E+04 4.00496E+04 4.03596E+02-2.44976E+04 1.74696E+03 1.53589E+03
 -1       983 5.99089E+04-9.96324E+02 1.12530E+02-2.73516E+04-1.56098E+02-2.90487E+02
 -1       984-4.52306E+03 4.71073E+01-9.61768E+00 5.32795E+03-4.51760E+02 4.15748E+02
 -1       985 4.65344E+04 1.18059E+03 1.68644E+02-2.69678E+04-2.98907E+02-6.58038E+01
 -1       986-3.41811E+02-7.35277E+02-1.65092E+02 4.02489E+03-6.72115E+02 2.89724E+02
 -1       987-6.90016E+04 3.73148E+03 9.65647E+01 2.22787E+04-2.04760E+02-4.44599E+02
 -1       988-7.63691E+04 5.29941E+03 4.53549E+02-2.48106E+04 1.37199E+03-1.57716E+02
 -1       989 6.33542E+04 2.63070E+04 5.40629E+02-2.92156E+04-1.17428E+03-4.98821E+02
 -1       990-6.37432E+04-3.01107E+03-4.93442E+02 3.54819E+04-3.02400E+03 2.46229E+03
 -1       991 2.76684E+03 2.08855E+03-2.64502E+02-4.99325E+03-3.55064E+02-5.57618E+01
 -1       992 7.89852E+03 1.03688E+04-7.47492E+01-3.49262E+04-8.40974E+02 9.56808E+02
 -1       993 1.64856E+04 1.65917E+04 2.17497E+02-1.82916E+04 4.37671E+01-3.17339E+02
 -1       994-3.60499E+03-2.67362E+03-1.47329E+02-2.87953E+04 1.10895E+02-1.12523E+02
 -1       995-3.30217E-01-4.61008E+02-3.44930E+01-2.91265E+04 1.17486E+02-1.23223E+01
 -1       996 7.70036E+03 9.18178E+03-9.45958E+02-1.62765E+04-3.34101E+03 1.42501E+03
 -1       997 2.31633E+03-6.94360E+03-4.69543E+02-7.64806E+03-6.26807E+02 9.20721E+02
 -1       998-5.77511E+03-3.83538E+03 1.66477E+02-1.53899E+04 3.35099E+02 1.73951E+02
 -1       999 4.66914E+04 2.40392E+04-5.76034E+02-2.73154E+04-4.63329E+02-1.75294E+03
 -1      1000 3.92376E+04 2.13938E+04 1.78040E+02-2.37834E+04-1.79437E+02-8.05751E+02
 -1      1001-5.65279E+04-1.48512E+04-2.27110E+03-2.18432E+04 1.45583E+03-3.32029E+02
 -1      1002-4.24431E+04-1.39669E+04-1.87552E+03-2.35076E+04 7.01521E+02-7.62496E+02
 -1      1003-1.14626E+05-8.76238E+03-2.01119E+03 5.09952E+04-2.90490E+03 2.64435E+03
 -1      1004-3.69048E+03 1.36485E+03 1.08957E+01 3.61375E+03-9.84751E+02 1.14953E+02
 -1      1005-5.75855E+04-5.50892E+02-2.97934E+02 2.80479E+04-4.99608E+02 2.35614E+02
 -1      1006 1.16164E+03 1.09474E+03-1.31641E+02 3.09369E+03-2.09101E+02-1.22683E+01
 -1      1007 2.10083E+04-1.76005E+04-6.11146E+02-2.77591E+04 1.30516E+03 4.66229E+02
 -1      1008-7.45083E+03-5.12735E+03 1.95619E+01-2.85959E+04 1.31480E+02-2.24718E+02
 -1      1009-1.13537E+05 2.89728E+03-2.32457E+03-5.81995E+03 9.13153E+02 1.58858E+03
 -1      1010-2.70066E+04-3.61874E+04-5.35816E+02-2.76066E+04 8.69547E+02-1.42489E+03
 -1      1011 7.04359E+04 1.91689E+04 6.85481E+02-2.93252E+04-1.83569E+03-3.38708E+02
 -1      1012-8.97757E+03-1.09485E+04 1.77295E+03-2.06146E+04-4.53714E+03-3.22682E+03
 -1      1013-5.47844E+02-4.33339E+03-4.12129E+02-2.62468E+03-1.06240E+03 1.47451E+02
 -1      1014-4.00176E+03-4.54707E+03 5.58423E+02-6.78339E+03-1.02238E+03-3.79458E+02
 -1      1015-1.58267E+03 1.53003E+03 5.80009E+01-2.09211E+02-1.27974E+02 1.06715E+02
 -1      1016-2.87472E+04-3.96055E+04-9.93633E+02-2.56294E+04 7.35417E+02-1.32075E+03
 -1      1017 2.91398E+03-2.75196E+03-5.15372E+02 8.65509E+02-9.10706E+02-8.20253E+01
 -1      1018-7.25776E+04-2.43125E+04 3.79803E+02-2.80448E+04-1.85630E+03 1.17044E+03
 -1      1019-7.30685E+04-2.10680E+04-4.09675E+02-2.80164E+04-1.99310E+03 8.37943E+02
 -1      1020 3.56386E+04 1.42676E+04 1.19662E+03-2.41505E+04 6.16726E+02 4.44231E+02
 -1      1021 2.61217E+04 1.14704E+04 3.15876E+02-2.48736E+04 5.84574E+02 1.06471E+02
 -1      1022 2.02508E+04 1.02581E+04 8.45903E+02-2.61983E+04 3.80839E+02 2.83119E+02
 -1      1023 2.14038E+04 3.88627E+04-9.33792E+02-2.49433E+04 2.86327E+03 1.06003E+03
 -1      1024 8.55080E+04-6.88351E+03-8.94601E+02-1.85577E+04 1.65077E+03-3.78461E+01
 -1      1025-4.73062E+04-2.38263E+04 1.56496E+02-2.70048E+04-6.02285E+02 1.48246E+03
 -1      1026-7.20894E+04-2.52103E+04 6.07573E+02-3.01520E+04-1.07592E+03 5.81686E+02
 -1      1027 1.69569E+03-1.49283E+03-3.92304E+00 7.74497E+01-1.68270E+02 2.65294E+01
 -1      1028 7.22896E+04 2.18625E+04 1.06518E+03-2.82140E+04-2.51617E+03-5.57905E+02
 -1      1029 2.38298E+03 4.58813E+03 1.55340E+01-6.89989E+03-1.02784E+03 3.18825E+02
 -1      1030-1.63346E+03 2.51423E+03 8.09074E+02 1.27271E+03-1.13460E+03-4.54666E+01
 -1      1031 6.03615E+04-2.17268E+03 3.98532E+02 2.51218E+04-5.52454E+02-2.07330E+02
 -1      1032-8.24222E+04 1.56911E+03-4.89825E+01 1.64474E+04 3.71756E+02-5.72665E+02
 -1      1033 6.34023E+02 1.37325E+03-1.31615E+02 2.46637E+03-1.17679E+02 3.70880E+01
 -1      1034-1.84668E+03 1.12209E+03 2.80595E+01-8.82478E+02-1.32224E+02 1.44898E+02
 -1      1035-2.37552E+03 5.81911E+02 4.92372E+01-2.07298E+03-1.10359E+02 2.48299E+02
 -1      1036 4.88805E+02-1.33117E+03 1.50340E+02 1.92726E+03-1.82846E+02 2.95579E+01
 -1      1037-1.17858E+04-6.93144E+03-4.74403E+02-2.76978E+04 1.83845E+02-3.16634E+02
 -1      1038 6.87829E+04-4.26989E+03-3.34781E+02 2.19483E+04-4.11794E+01 2.86977E+02
 -1      1039-5.54748E+04-1.55552E+03 5.04084E+02 3.03096E+04-1.00319E+03 5.87900E+02
 -1      1040 3.74349E+02 1.49819E+03 4.10735E+01 2.27707E+03-7.60536E+01 8.08325E+01
 -1      1041 2.47823E+04 3.47715E+04-9.58130E+01-2.91873E+04 3.15195E+02 1.69595E+03
 -1      1042-1.26603E+03-6.17819E+02-1.70647E+02 3.44665E+03-3.21338E+02 2.34383E+02
 -1      1043 1.04985E+05-4.83845E+03-1.70012E+03-1.48811E+03 1.87521E+03 2.96122E+02
 -1      1044-1.29577E+03 2.07626E+03 2.28467E+01 5.16904E+02-5.07462E+01 2.69037E+02
 -1      1045 6.81932E+04 1.23937E+03-6.32686E+02 3.64618E+04-1.90943E+03-1.52171E+03
 -1      1046 5.51737E+04 1.96437E+02 3.53213E+02 2.71411E+04-7.40808E+02 3.76560E+02
 -1      1047 1.42031E+05-6.88164E+03 3.15874E+03 1.17639E+04-7.26738E+01-3.79776E+03
 -1      1048 3.54876E+03 2.71846E+03 1.58932E+02-7.02785E+03-5.91717E+02-6.71321E+01
 -1      1049-1.02015E+05 4.56712E+03-6.04694E+01-2.52528E+03 1.40519E+03-3.71802E+02
 -1      1050-1.05662E+05 5.72610E+03 3.69689E+02 2.59666E+03 1.82566E+03-4.92550E+02
 -1      1051 1.01234E+05-1.66548E+03 1.52461E+02 1.08847E+04 5.39979E+02 7.11899E+02
 -1      1052-1.01470E+05 6.16598E+03 3.16033E+01-7.09252E+03 1.55293E+03-5.89344E+02
 -1      1053 1.21323E+03 1.09502E+03-1.15565E+02 2.70625E+03-1.36830E+02-4.05690E+00
 -1      1054 2.65963E+03 7.05614E+02-4.61857E+00 3.49604E+03-2.81809E+02-8.68660E+01
 -1      1055 2.47209E+03 6.65243E+02 3.07111E+01 3.65000E+03-1.73686E+02-2.06609E+02
 -1      1056-1.15483E+04 2.28303E+04 1.16986E+03-2.58420E+04 3.00077E+03 5.98801E+01
 -1      1057-1.81083E+03-1.63606E+02 9.34382E+00-2.96066E+03-5.44502E+01 3.29057E+02
 -1      1058 8.74936E+04-1.04202E+03 2.16334E+02 1.51657E+04 6.10125E+02 2.78450E+02
 -1      1059 9.25357E+04-9.57662E+02-1.04633E+02 1.34869E+04 8.24026E+02 4.34303E+02
 -1      1060-2.44004E+04-3.46552E+04-3.29576E+02-2.88125E+04 3.70019E+02-1.85836E+03
 -1      1061 8.04722E+04-1.77135E+03 4.56333E+01 1.69350E+04 2.55207E+02 5.29611E+02
 -1      1062 5.18696E+04 1.98032E+03-9.73331E+01 3.03185E+04-9.55871E+02-3.12711E+01
 -1      1063 2.16642E+03-8.92501E+02-1.02656E+02-1.57607E+03-3.09449E+02-2.21183E+01
 -1      1064-2.20805E+02 1.56918E+03-1.65699E+01 1.73782E+03-1.98328E+02 7.44598E+01
 -1      1065 3.39324E+04-9.94437E+03-1.36411E+03-3.07511E+04 1.38791E+03 9.19625E+02
 -1      1066-9.83627E+01-1.16117E+03-8.28517E+01 2.20391E+03-8.76335E+01 1.85653E+02
 -1      1067 3.05912E+04 2.03803E+04-3.24798E+01-2.25639E+04-1.76708E+02-5.03516E+02
 -1      1068 2.50188E+03 3.45047E+02-1.48422E+02-3.51110E+03-3.12673E+02-1.02883E+02
 -1      1069-1.10810E+03 1.72992E+03-3.24517E+01 7.58256E+02-1.83055E+02 4.14431E+01
 -1      1070 1.00668E+03-1.58615E+03-1.14199E+02 9.84427E+02-1.75180E+02 6.18205E+01
 -1      1071 5.09445E+04 1.61651E+02 2.34511E+01-3.57461E+04-2.08578E+02 4.23479E+02
 -1      1072 4.89178E+04-5.94880E+03-2.18924E+02-3.49719E+04 7.27390E+02-1.93062E+02
 -1      1073-5.21471E+04-3.07352E+02-7.85404E+01-3.55074E+04-1.33944E+02 4.48889E+01
 -1      1074 5.19030E+04 7.68200E+03 3.37096E+02-3.45876E+04-1.11654E+03 5.73309E+02
 -1      1075 4.70641E+04 3.59211E+03-8.03264E+01-3.42004E+04-8.51505E+02 2.26649E+02
 -1      1076-5.65615E+04-1.72304E+04 8.78011E+00-1.73528E+04-1.55092E+03 9.12058E+02
 -1      1077-7.45788E+04-1.25517E+03 1.22503E+02-1.32643E+04 1.37215E+03 1.57396E+03
 -1      1078-9.30922E+04 4.27438E+03-6.58198E+02-5.18305E+03 7.99355E+02 1.37396E+03
 -1      1079 5.22574E+04 7.57815E+02 3.06824E+02-3.42239E+04-1.40308E+02 2.67818E+01
 -1      1080 5.65706E+04-2.14303E+03 2.27454E+02-3.43975E+04 6.71475E+02 1.56944E+02
 -1      1081-1.46624E+04-6.26838E+03 2.08295E+02-3.53921E+03-1.64681E+03 5.81069E+02
 -1      1082-1.39342E+04-2.91400E+03 4.07784E+02-1.91092E+04-2.47779E+03-3.87922E+03
 -1      1083-1.22442E+04-5.74574E+03 1.35313E+02-2.07693E+04-1.51431E+03-2.01760E+03
 -1      1084-4.86686E+04-1.52163E+04-4.32892E+02-1.89899E+04-1.07724E+02 9.46417E+02
 -1      1085-4.26429E+04-1.46021E+04-8.68996E+00-2.09940E+04-8.59071E+01 1.02993E+03
 -1      1086-6.14929E+04 5.82710E+03 3.01728E+02-3.28739E+04 1.33805E+03-1.91017E+02
 -1      1087-5.63330E+04 3.58165E+03-8.17530E+01-3.56562E+04 8.47783E+02-2.11902E+02
 -1      1088 7.35905E+04-5.02963E+03 1.18300E+01 2.11513E+04 3.54197E+02-3.50000E+02
 -1      1089 7.52903E+04-6.30095E+03-1.08667E+02 2.28709E+04 4.26152E+01-3.93891E+02
 -1      1090-5.07844E+04 1.28177E+02 2.18406E+02-3.70890E+04 4.83281E+01-5.50896E+02
 -1      1091 3.02931E+04 1.05769E+04 3.98588E+02-1.90529E+04-1.40335E+03-3.49459E+02
 -1      1092 2.08542E+04 9.00530E+03 4.88402E+01-1.21703E+04-1.79967E+03-7.27331E+01
 -1      1093 4.87456E+04 1.64052E+04-3.17173E+02-1.92642E+04-9.52048E+02-1.20790E+03
 -1      1094 5.51733E+04 1.84731E+04-4.83669E+02-1.94077E+04-1.15253E+03-4.35142E+02
 -1      1095 9.23748E+03 1.32649E+03 3.21096E+02 4.47373E+03-1.04611E+03-3.46444E+02
 -1      1096 8.99777E+03 2.16213E+03 4.68514E+02 3.51016E+03-1.04848E+03-1.34132E+02
 -1      1097-1.36478E+04-8.46921E+03-1.14944E+02-2.90850E+04 2.83078E+02 6.46202E+01
 -1      1098-1.05925E+05 1.20622E+04 5.14713E+02 1.04325E+04 1.64808E+02 2.71981E+03
 -1      1099-2.50967E+04-1.09653E+04-2.75080E+02-1.35973E+04-1.33265E+03 7.25634E+01
 -1      1100 1.34090E+04 5.64583E+02-7.54737E+02-1.79382E+04-1.22740E+03 1.20238E+03
 -1      1101 1.42301E+04-2.99597E+03-4.70657E+02-1.83868E+04-1.65042E+03 2.88612E+03
 -1      1102-7.41338E+04 3.37709E+03 1.97073E+02 1.96080E+04 4.69187E+02-1.79977E+02
 -1      1103 2.14692E+04 1.05009E+04-2.10618E+02-2.68961E+04 4.81821E+02-5.07003E+02
 -1      1104 2.94344E+04 1.14051E+04 3.35590E+02-2.54589E+04 5.10374E+02-3.15918E+02
 -1      1105 7.76798E+04-3.10894E+03 5.86696E+02 1.23441E+04 1.33377E+03-2.87988E+02
 -1      1106 9.97993E+03 1.50619E+03-7.68725E+01-1.28890E+04-6.11064E+02 3.22414E+02
 -1      1107 1.20279E+04 1.46079E+03-2.76790E+02-1.62662E+04-1.22870E+03 8.57324E+02
 -1      1108-5.07720E+04 6.28879E+03 1.91582E+02-3.58659E+04 1.30093E+03-6.68847E+02
 -1      1109-4.75676E+04 1.36519E+04 3.36642E+02-3.19973E+04 2.04311E+03-2.14048E+02
 -1      1110 1.91683E+04 2.28282E+04-1.95614E+02-1.63218E+04 1.16409E+03 1.98475E+03
 -1      1111 1.87850E+04 2.73251E+04-6.07797E+02-1.41217E+04 9.54130E+02 1.78208E+03
 -1      1112-1.62285E+04-9.86914E+03-2.83768E+01-3.42412E+04-1.95564E+01-9.07251E+02
 -1      1113-1.07836E+04-5.13410E+03-2.94741E+02-3.82622E+04-7.17773E+02-7.04785E+02
 -1      1114 7.66684E+04-1.75891E+03-4.42941E+02 1.58248E+04 1.19534E+03-2.84444E+02
 -1      1115 5.10380E+04 1.01157E+04-4.12710E+02-2.20975E+04 9.81750E+02-8.52330E+02
 -1      1116 3.94031E+04 1.08961E+04-2.92213E+02-2.28844E+04 1.10343E+03-7.66047E+02
 -1      1117-7.52174E+03-3.29775E+03 7.02781E+01-1.10104E+04-4.74355E+02 8.30044E+01
 -1      1118 7.86108E+03-2.16046E+02-1.03737E+02 5.59599E+03-3.68951E+02-2.70094E+02
 -1      1119 7.16683E+04-1.12318E+04-5.09146E+02-1.98374E+04 1.94086E+03-4.09592E+01
 -1      1120 4.44660E+04-1.86351E+04-2.50192E+02-2.48900E+04 2.44420E+03 5.63069E+02
 -1      1121 6.38772E+04-1.04239E+04-7.82267E+02-2.63513E+04 8.33806E+02 4.11111E+02
 -1      1122 1.29135E+04 3.94074E+03 5.30014E+02 1.20473E+03-1.06795E+03-3.23402E+02
 -1      1123 1.59673E+04 5.80786E+03 3.03570E+02-2.84824E+03-9.25680E+02-1.97012E+02
 -1      1124 7.89054E+04-1.12953E+04-1.91297E+02-7.33582E+03 1.36382E+03-2.91765E+01
 -1      1125 7.34937E+04-1.25062E+04 2.76878E+02-1.31549E+04 1.98445E+03-5.57943E+02
 -1      1126-3.26310E+04-1.19526E+04-7.30515E+02-2.21252E+04-9.41767E+02 2.48538E+02
 -1      1127 3.33894E+03 2.43798E+03-2.28291E+01-4.06874E+04-7.44825E+02 3.99444E+02
 -1      1128 4.16548E+04 8.13803E+03 1.84611E+02-3.06417E+04-1.43032E+03 4.26317E+02
 -1      1129 5.14167E+04 1.23152E+04 9.27476E+02-3.18155E+04-1.09197E+03 1.67196E+02
 -1      1130 1.44303E+04 8.42831E+03 5.99279E+01-2.90049E+04 2.88690E+02-2.22625E+02
 -1      1131 9.11812E+04-1.95334E+03 9.05361E+02-8.84677E+03 5.84323E+02-1.57130E+03
 -1      1132-7.40437E+04 1.13485E+04 9.52016E+02-1.39591E+04 9.59282E+02 2.42053E+02
 -1      1133-6.93093E+04 1.17192E+04 5.41587E+01-2.07268E+04 2.55960E+03 1.82052E+02
 -1      1134-1.91548E+04-1.33327E+04-1.82211E+02-2.77327E+04 1.00191E+02-1.37100E+03
 -1      1135-3.63967E+04-1.04126E+04 9.55128E+02-2.63700E+04-1.39371E+03 1.95075E+02
 -1      1136-4.91633E+04-1.13905E+04-5.36056E+02-3.23780E+04-2.28665E+03-4.39807E+02
 -1      1137-4.03842E+04-7.18088E+03 4.86373E+01-3.19082E+04-1.55928E+03-1.59850E+02
 -1      1138-4.97903E+04-6.55244E+03 5.40350E+02-3.61145E+04-7.97236E+02-1.51536E+02
 -1      1139-4.47821E+04-4.04866E+03 1.07352E+02-3.37539E+04-7.25087E+02-2.17613E+02
 -1      1140-3.12095E+04-1.01798E+04 2.91336E+02-2.13046E+04-2.00660E+01 4.59169E+02
 -1      1141-1.01018E+04-5.47116E+03-1.57726E+02-1.74259E+04-6.58452E+02-2.67070E+02
 -1      1142-1.09354E+04-7.47407E+03 6.90218E+02-2.00047E+04-9.85038E+02-9.16674E+02
 -1      1143 2.17314E+04 1.86004E+04-7.26847E+02-2.31670E+04 2.33447E+02 1.35152E+03
 -1      1144-7.70916E+04 7.84071E+03 3.09059E+02 2.58733E+04-4.09358E+02 4.58663E+02
 -1      1145-5.28615E+04-1.57927E+04-3.32705E+02-1.76628E+04-1.11358E+03 1.26148E+03
 -1      1146-1.00737E+04-1.69757E+03-6.05403E+01-1.92630E+04 3.80556E+02 9.02907E+01
 -1      1147 5.13354E+04 1.79108E+04 4.87634E+02-2.19494E+04-2.69231E+03-7.92139E+02
 -1      1148 3.57746E+04 1.45309E+04-1.14386E+02-1.50633E+04-1.98113E+03-3.80185E+02
 -1      1149-7.74998E+04 1.10054E+03 2.52278E+02 1.69958E+04 1.11966E+03-3.02609E+01
 -1      1150-7.58508E+04 1.64271E+03 2.16955E+02 1.84699E+04 3.90678E+02-2.09673E+02
 -1      1151-8.60621E+03-3.08082E+04-9.19916E+02-1.12469E+04 1.59799E+03-2.07702E+03
 -1      1152 7.33422E+04-2.29172E+03-1.15415E+02 1.91114E+04 5.56345E+02 1.94298E+02
 -1      1153 7.32879E+04-2.19307E+03-4.83628E+02 1.79276E+04 8.65371E+02-4.41267E+02
 -1      1154 7.72796E+04-1.03582E+04-5.94112E+02-9.91787E+02 1.44305E+03-7.50497E+02
 -1      1155-4.46151E+04 1.82981E+04 4.62825E+02-2.61851E+04 2.51538E+03-5.37312E+02
 -1      1156-8.42398E+04 8.94045E+03 4.11130E+02-5.76290E+03 1.50860E+03 3.52008E+02
 -1      1157 3.02133E+04 9.93648E+03-1.76557E+02-1.92104E+04-1.53272E+01-5.33447E+02
 -1      1158 3.64081E+04 1.21465E+04 2.65112E+02-1.89671E+04 7.16223E+01-1.14441E+03
 -1      1159-5.19360E+03 2.83133E+04 6.87155E+01-1.33011E+04 2.74990E+03 8.72279E+02
 -1      1160-7.87581E+04 7.44618E+03 4.64744E+02 4.70404E+03 1.22313E+03 2.55327E+02
 -1      1161-7.85150E+04 8.89792E+03 6.33402E+02-2.22058E+03 1.01575E+03 3.29442E+02
 -1      1162-3.67779E+04-1.09805E+04 2.20207E+02-2.06976E+04 2.50922E+02 1.39160E+03
 -1      1163-1.38837E+04-5.11956E+03-5.65895E+02 4.51942E+02-1.72468E+03 1.05928E+03
 -1      1164-7.83480E+04 5.92591E+03 5.20949E+02 8.55457E+03 1.81433E+03 2.91757E+02
 -1      1165-5.18849E+04-1.76511E+04 4.90364E+02-1.77961E+04-1.86241E+03 7.56324E+02
 -1      1166-5.65886E+04-1.87475E+04 6.51525E+02-1.64203E+04-1.92689E+03 7.47846E+02
 -1      1167-9.52370E+02 1.56616E+03 6.70305E+01 3.28371E+03-2.95521E+02-5.30745E+01
 -1      1168-2.79185E+03 1.82450E+03 1.77309E+02 3.72233E+03-3.77636E+02-1.78532E+02
 -1      1169-7.55736E+04 6.64307E+03 1.60195E+02 2.29188E+04-2.67707E+01 2.05634E+02
 -1      1170 6.50580E+03-2.05823E+03-5.57587E+01 5.43204E+03-5.98049E+02-5.13464E+01
 -1      1171 6.74078E+03-1.20350E+03 1.30156E+02 5.89850E+03-3.97949E+02 7.17521E+01
 -1      1172 5.53610E+03-2.21433E+03 1.36373E+02 4.77028E+03-5.30375E+02-1.00264E+02
 -1      1173 6.06023E+04-6.15533E+03 3.50834E+02-3.29733E+04 1.03819E+03 6.31870E+01
 -1      1174 4.27675E+04 1.42489E+04 1.75724E+02-1.91012E+04-3.46526E+02-1.27092E+03
 -1      1175 4.97723E+04-1.16564E+04-9.35327E+02-3.10413E+04 1.63669E+03 2.38432E+02
 -1      1176 3.68204E+04 1.17917E+04 6.86237E+02-2.58619E+04-1.22153E+03 1.21386E+02
 -1      1177-4.98821E+04-1.65991E+04 1.14373E+02-2.71803E+04-2.10291E+03 4.46880E+02
 -1      1178-7.43909E+04 4.54436E+03 1.48358E+02 2.11323E+04 2.12787E+02 2.16718E+02
 -1      1179-2.06545E+04-2.35800E+04 5.54441E+01-1.75706E+04 6.33917E+02-1.64243E+03
 -1      1180-2.18082E+04-1.87824E+04 4.84130E+02-2.28963E+04 3.62434E+02-9.87282E+02
 -1      1181-2.70807E+04-1.08007E+04-2.53973E+02-2.56371E+04 4.20981E+02 1.09787E+02
 -1      1182-1.97019E+04-1.00426E+04-3.38872E+02-2.73069E+04 4.42309E+02 1.36728E+02
 -1      1183 7.75071E+04-7.43972E+03 8.12048E+01 4.93213E+03 1.16238E+03-1.86401E+01
 -1      1184 5.47730E+04 1.77331E+04-7.03581E+02-1.88370E+04-1.66396E+03-7.06743E+02
 -1      1185 5.21282E+03-1.97243E+03-2.09043E+02 3.28023E+03-2.93971E+02 7.51471E+01
 -1      1186 7.83854E+04-1.12353E+03-6.32664E+02 1.45992E+04 1.49306E+03-1.98400E+02
 -1      1187 4.97926E+03-1.77106E+03 9.13529E+01 4.57932E+03-4.73796E+02-1.67744E+02
 -1      1188-4.76428E+03-2.62816E+03 1.77438E+02-4.05640E+04-6.78569E+02-2.82095E+02
 -1      1189 1.92601E+04 1.35320E+04 2.58035E+02-2.81721E+04-2.44840E+01 1.44043E+03
 -1      1190 6.06993E+03-2.85516E+04 3.56694E+02-1.27582E+04 2.37430E+03-7.92528E+02
 -1      1191 5.01021E+04 1.68633E+04 6.54917E+02-2.70890E+04-2.10411E+03-4.18015E+02
 -1      1192 1.93956E+04 8.24613E+03 7.78629E+02-7.51211E+03-1.60502E+03-2.78060E+02
 -1      1193 1.44154E+04-2.85721E+04 1.66126E+03-1.48304E+04 2.40784E+03-8.53290E+02
 -1      1194 7.82880E+04-5.13970E+03-8.93333E+02 9.33074E+03 1.70768E+03-1.24837E+02
 -1      1195-6.64812E+02-7.33421E+02-1.67148E+02-3.21539E+04 6.41238E+01-2.78988E+01
 -1      1196 8.47441E+03 8.16345E+02 5.00033E+02-1.00080E+04-7.12268E+02 1.09558E+02
 -1      1197 1.20754E+04-7.29959E+03 3.58880E+02-1.39076E+04 3.83027E+02 3.39188E+03
 -1      1198 5.25412E+03 3.11472E+04 2.92289E+02-1.15422E+04 1.95654E+03 7.66202E+02
 -1      1199-7.93674E+04 4.49415E+03-8.60930E+02 1.17787E+04 1.47878E+03-2.79618E+02
 -1      1200-6.34316E+04-6.81586E+03-2.17447E+02-1.77111E+04 1.27274E+03 1.42705E+03
 -1      1201-1.25460E+04 2.92442E+04-1.48200E+03-1.49032E+04 2.89569E+03 9.02217E+02
 -1      1202 7.28284E+04-3.88199E+03-4.05288E+02 1.95226E+04 6.69051E+02-7.49081E+01
 -1      1203-7.62665E+04 2.00194E+03 1.11052E+02 1.83812E+04 8.55536E+02-3.33476E+02
 -1      1204 6.27690E+04 7.28912E+03 2.14675E+02-1.87881E+04 1.21959E+03-9.95007E+02
 -1      1205 7.43942E+04-1.36652E+03-1.41558E+02 1.70105E+04 7.66013E+02-3.32832E+02
 -1      1206 9.57985E+03 6.23786E+03 2.96153E+01-3.00063E+04 2.30300E+02-2.49541E+02
 -1      1207 7.66426E+04-6.78752E+03-1.48190E+02 2.65664E+04-1.95128E+02-2.79259E+02
 -1      1208-4.75493E+04-1.64927E+04 3.76550E+02-2.09194E+04-1.66219E+03 9.10955E+02
 -1      1209-1.85300E+04-9.11017E+03-5.04718E+02-7.77625E+03-1.98504E+03 4.57279E+02
 -1      1210-7.97788E+04 9.92607E+02-5.84929E+02 1.59759E+04 1.29080E+03 4.39314E+02
 -1      1211 1.48771E+04 3.33729E+04-4.76464E+02-1.48312E+04 9.92265E+02 7.60279E+02
 -1      1212-8.06514E+04 1.33507E+03 2.26310E+02 1.43032E+04 1.43494E+03 2.13533E+02
 -1      1213-6.47760E+04 9.89581E+03 5.19233E+02-2.77035E+04 8.12906E+02-1.00999E+02
 -1      1214 1.02704E+05-1.17818E+04 9.13127E+02 8.78254E+03 1.44236E+02-2.33664E+03
 -1      1215-3.02627E+04 2.29470E+04-3.44631E+02-2.07170E+04 2.12305E+03 6.06995E+02
 -1      1216 5.52972E+04 1.73314E+04 2.11224E+02-1.80831E+04-1.90448E+03-1.06203E+03
 -1      1217 7.61350E+03-6.38511E+03-9.56423E+02-9.77590E+03 1.97467E+03 1.12834E+03
 -1      1218 2.57097E+03-1.64514E+03-1.71304E+02 2.87531E+03-2.70997E+02 1.83956E+02
 -1      1219 5.22745E+03 4.02040E+03 5.01330E+01-3.12498E+04 1.94623E+02-6.88025E+01
 -1      1220-4.08540E+03-1.60973E+03-6.87922E+02-9.90626E+03 1.06586E+03-1.91892E+03
 -1      1221 1.70518E+03 1.32418E+03-1.71266E+02-3.17082E+04 2.87504E+02-1.54995E+02
 -1      1222-1.68912E+04-4.65254E+03-2.54042E+02-2.03857E+04 1.92353E+02 1.68711E+02
 -1      1223 9.40982E+03 4.61357E+03 3.45195E+02-1.79157E+04 4.71884E+02-2.82806E+02
 -1      1224 1.58791E+04 6.63435E+03 2.92333E+02-1.82967E+04 2.34998E+02-2.61779E+02
 -1      1225 2.38451E+04 7.37482E+03 1.19384E+02-1.86706E+04 2.19885E+02-5.28699E+02
 -1      1226-1.06647E+04-1.20253E+03 6.99458E+01-1.37420E+04-5.38702E+02-2.87832E+03
 -1      1227-8.49825E+03-7.92138E+02 1.38966E+02 4.84860E+03-1.02144E+03 3.05557E+02
 -1      1228-7.64636E+03 9.73783E+00 2.89398E+02 5.79166E+03-1.35117E+03 2.70793E+02
 -1      1229 1.03397E+04 6.32742E+03 2.34813E+02-3.88717E+04-7.69334E+02 7.33459E+02
 -1      1230-4.40285E+03-3.30584E+03-7.11901E+01-3.11511E+04 2.02520E+02 1.29525E+02
 -1      1231-5.02823E+04-1.06211E+04-3.60941E+02-2.17180E+04 1.00190E+03 7.53421E+02
 -1      1232-1.01632E+04-2.63202E+03-5.15404E+02 2.89604E+03-8.82594E+02 6.28918E+02
 -1      1233-4.79816E+03 1.50843E+03-2.43737E+02 5.51524E+03-3.54330E+02 5.74860E+01
 -1      1234-5.75728E+03 1.42552E+03-4.96983E+01 5.62671E+03-8.34602E+02-8.26768E+00
 -1      1235-8.24312E+03-5.36965E+03 7.77470E+01-1.43919E+04-4.35245E+02-3.16530E+02
 -1      1236 1.64026E+04 1.04271E+04-1.72643E+02-3.46697E+04-2.54626E+02 1.01643E+03
 -1      1237-3.17107E+03 1.76278E+03-1.97244E+00 4.36043E+03-2.94532E+02 1.76131E+01
 -1      1238 5.72935E+04 1.94591E+04-2.22513E+02-1.72480E+04-1.73392E+03-6.75791E+02
 -1      1239 7.46419E+04 3.61391E+03 8.06367E+02-1.50533E+04 6.92705E+02-3.94813E+02
 -1      1240-4.99217E+03 2.04514E+03 2.95850E+02 5.24294E+03-4.79260E+02-4.74294E+01
 -1      1241 2.93651E+04-2.30910E+04 2.49841E+02-1.83769E+04 2.47122E+03-7.32986E+02
 -1      1242-3.79298E+04-1.08258E+04 1.03477E+02-2.39080E+04 3.55666E+02 5.05064E+02
 -1      1243-3.92371E+03 3.91154E+01-4.42881E+00-1.82251E+04 6.61590E+02-5.14469E+01
 -1      1244-8.56590E+03-6.20187E+03-3.07253E+00-3.03640E+04 4.52936E+02 1.30244E+02
 -1      1245-1.95785E+04-2.84272E+04-2.93194E+02-1.51370E+04 1.24542E+03-1.35266E+03
 -1      1246 2.93900E+03 2.42673E+03 4.64076E+01-1.77946E+04 5.04166E+02-1.22264E+02
 -1      1247-1.32575E+04-3.18166E+04 2.33227E+02-1.34096E+04 1.80968E+03-1.94489E+03
 -1      1248-2.46619E+04-6.08770E+03 5.35772E+01-2.06807E+04 2.56502E+02 4.28476E+02
 -1      1249-6.78783E+03-1.12945E+03-3.03096E+02-8.21059E+03-2.92905E+02 1.99379E+02
 -1      1250-3.27482E+04-2.41803E+03 1.96966E+02-1.74180E+04 4.65646E+01 7.11497E+02
 -1      1251-3.76694E+04-4.82984E+03 4.56826E+02-1.61862E+04-2.41977E+02 5.71840E+02
 -1      1252 1.41381E+04 4.14817E+03-3.76360E+02-3.11691E+04-7.85129E+01 7.91371E+02
 -1      1253 1.17063E+04 2.26098E+03 7.82507E+01-3.76094E+04-5.16879E+02 8.21094E+02
 -1      1254-3.24040E+04-1.37674E+04 3.74109E+02-8.39114E+03-2.38014E+03 3.85157E+02
 -1      1255-2.94707E+04-8.31288E+03 3.47940E+02-3.91752E+03-1.62311E+03 2.72773E+02
 -1      1256 5.95930E+04 1.84777E+03-2.33816E+02-1.34910E+04 2.91838E+02 1.70158E+02
 -1      1257 5.28759E+04 5.70820E+03 5.31693E+02-1.84506E+04 8.61205E+02-7.56809E+02
 -1      1258 2.84009E+04-2.17658E+04 1.64680E+03-6.93319E+03 1.86962E+03-1.69695E+02
 -1      1259 5.49898E+04-1.53577E+04 2.26694E+03-5.60693E+03 1.28981E+03-1.03143E+03
 -1      1260 5.72833E+04-1.44282E+04 7.56968E+02 2.06246E+03 1.94208E+03-1.14339E+03
 -1      1261 6.39087E+04-4.57766E+03-5.66597E+02 1.35118E+04 1.43789E+03-6.27115E+02
 -1      1262 1.51633E+04-7.03326E+03 4.58402E+02-1.58386E+04-6.74868E+01 2.24910E+03
 -1      1263 1.60589E+04-3.92666E+03-5.94317E+02-1.76844E+04-6.23518E+02 1.11143E+03
 -1      1264 4.38553E+04 9.81449E+03-4.69104E+02-1.23177E+04-1.07008E+03 7.70720E+01
 -1      1265 4.06560E+04 7.36868E+03 1.56240E+02-1.28771E+04-5.08163E+02-5.58431E+02
 -1      1266-4.30153E+04-1.13774E+04 1.10636E+03-8.35473E+03-1.45625E+03-1.12414E+02
 -1      1267-4.22483E+04-1.28561E+04 1.49036E+02-9.41858E+03-2.13679E+03 7.56171E+02
 -1      1268-3.03521E+04-9.24170E+03 2.96187E+02-2.41401E+04 3.82978E+02 6.29131E+02
 -1      1269-6.63514E+04 2.11383E+03-3.42581E+02 1.68097E+04 1.05575E+03 5.53943E+02
 -1      1270-6.60030E+04 2.32595E+03-4.18956E+02 1.55355E+04 9.99298E+02 4.26389E+02
 -1      1271-6.33505E+04 5.31364E+03 7.87442E+02 1.37063E+04 1.33077E+03 2.48401E+02
 -1      1272-3.49763E+04-1.37351E+04 4.21661E+02-1.27874E+04-2.78239E+03 1.50084E+02
 -1      1273-2.06371E+04-9.46092E+03-2.33632E+02-2.68400E+04 2.49642E+02 2.95650E+02
 -1      1274-1.48377E+04-8.94192E+03 2.66154E+02-2.95551E+04 6.25671E+01 3.98665E+02
 -1      1275-4.48979E+04-1.02044E+04-1.74192E+02-9.01010E+03-7.90190E+02 3.27151E+02
 -1      1276 4.01326E+04-2.05697E+04 1.11747E+03-1.11184E+04 2.90090E+03-1.41659E+03
 -1      1277 6.24615E+04-1.37321E+04 2.04865E+03-1.06645E+04 1.09851E+03-1.32218E+03
 -1      1278 3.70234E+04 5.70391E+03-2.52370E+02-1.45935E+04-3.06036E+02-6.51226E+02
 -1      1279 3.19015E+04 3.12767E+03-1.87038E+01-1.55081E+04 5.31471E+01-8.68202E+02
 -1      1280 1.73629E+04 6.52770E+02 7.27702E+02 3.61518E+03-7.36659E+02-4.58953E+02
 -1      1281-5.30082E+03-3.39134E+02-5.05234E+01-5.32273E+03-2.17303E+02 2.44033E+02
 -1      1282 6.33748E+04-2.14029E+03-2.29932E+02 1.73750E+04 5.95809E+02-4.86432E+01
 -1      1283-1.49368E+04-5.69959E+02 4.12800E+02-2.01758E+04-2.97112E+02-1.39520E+03
 -1      1284-1.31629E+04 1.45653E+02 5.44009E+02-1.79383E+04-5.75084E+01-1.79882E+03
 -1      1285 2.95120E+04 8.55330E+03 2.01713E+01-3.82428E+03-1.18026E+03-4.81067E+02
 -1      1286 2.30920E+04 5.24559E+03-1.19520E+02 7.07450E+02-1.13312E+03-4.75075E+02
 -1      1287-2.58054E+04-6.68427E+03-5.99190E+02-2.14080E+02-1.30048E+03 1.18942E+03
 -1      1288 1.51254E+04 1.63869E+03 6.49103E+01-1.84045E+04 6.13194E+02-2.46276E+02
 -1      1289 2.13687E+04 2.06102E+03 3.29066E+02-1.78679E+04 3.64983E+02-2.59165E+02
 -1      1290 1.58205E+04-2.15836E+04 1.97254E+02-2.22799E+03 1.31749E+03 5.65867E+01
 -1      1291 5.93082E+04-2.18395E+03 3.75466E+02 1.66734E+04 8.93294E+02-1.40888E+02
 -1      1292-1.26257E+04-6.36283E+03-1.75063E+02-2.16926E+04 2.38963E+02-7.42565E+02
 -1      1293-7.68351E+03-5.47536E+02 5.75790E+02-1.31899E+04 5.98763E+02-4.30908E+02
 -1      1294 3.18890E+04 1.32572E+04-5.19331E+02-7.86471E+03-2.10870E+03-4.39747E+02
 -1      1295-5.68806E+04 1.38656E+04-8.14054E+02 2.12629E+03 1.54624E+03 5.64793E+02
 -1      1296-5.58922E+04 1.61735E+04-1.32171E+03-5.90010E+03 7.48682E+02 7.69122E+02
 -1      1297-3.94157E+04 2.11161E+04-1.79240E+03-1.24657E+04 3.40981E+03 1.44796E+03
 -1      1298 4.51620E+04 1.26860E+04 1.48793E+02-9.86171E+03-1.23112E+03-1.95404E+02
 -1      1299 3.37799E+04 6.33475E+03-1.44841E+02-2.30314E+03-7.86157E+02-5.84091E+02
 -1      1300 2.85313E+03 2.83830E+03 7.57070E+01-3.39879E+04 7.44953E+01-1.60822E+02
 -1      1301 6.21082E+03 5.48667E+03-2.42030E+02-3.31782E+04-4.03171E+00-1.96453E+02
 -1      1302-7.06810E+03 2.52753E+03 2.27784E+02 2.11579E+03-3.23705E+02-7.97679E+01
 -1      1303-8.39208E+03 2.60821E+03 1.56983E+02 3.03320E+03-5.02671E+02 6.44716E+01
 -1      1304-1.16682E+04-1.78056E+03-1.09985E+02-3.65871E+04-3.02871E+02-6.55554E+02
 -1      1305-7.10017E+03-7.80191E+02 9.50038E+01-4.08181E+04-5.41514E+02-1.77437E+02
 -1      1306 3.20799E+04 9.20059E+03-3.32761E+02-2.33458E+04 4.85821E+02-8.76555E+02
 -1      1307 2.17953E+04 9.59266E+03 1.66804E+02-2.66995E+04 2.90095E+02-4.50658E+02
 -1      1308-2.22045E+04-1.42574E+03-2.75141E+02-2.03976E+04 3.02095E+02 3.07819E+02
 -1      1309-2.82745E+04-1.40442E+03-8.37516E+01-1.89586E+04 1.85703E+02 4.25975E+02
 -1      1310 6.39772E+03 5.69459E+02-9.14265E+01-6.88745E+03-3.10030E+02-9.76862E+00
 -1      1311-5.07144E+04-5.16641E+03 3.51634E+02-1.76728E+04 6.71959E+02 1.42127E+03
 -1      1312 4.64232E+04 1.09623E+04-6.77396E+02-1.09148E+04-1.09805E+03-4.62200E+02
 -1      1313-4.38028E+04-8.04676E+03 2.00787E+02-1.19540E+04-8.50221E+02 3.54567E+02
 -1      1314 1.55982E+04-1.64277E+02 1.88211E+02 4.50758E+03-7.71021E+02-1.36714E+02
 -1      1315 1.49015E+04-1.80400E+03-2.01988E+02 5.11508E+03-5.19184E+02-3.29932E+02
 -1      1316-8.22781E+02 1.00872E+03 6.65265E+01-1.95482E+04 7.14008E+02-6.16308E+01
 -1      1317 6.81971E+03 1.42831E+03 2.05544E+01-1.92315E+04 5.40075E+02-2.36346E+02
 -1      1318 8.81840E+03-3.00815E+03-8.02747E+01 1.52294E+03-1.64116E+02-1.18854E+01
 -1      1319 1.07855E+04-3.26500E+03-1.68941E+02 2.29582E+03-6.51372E+01-2.72591E+02
 -1      1320-6.56922E+04 2.85012E+03-6.63336E+01 1.76806E+04 7.14390E+02-5.38724E+02
 -1      1321-6.57178E+04 1.82258E+03 1.49503E+02 1.75731E+04 3.06628E+02 1.58880E+02
 -1      1322 2.73417E+04 1.90710E+03 2.27217E+02-1.67343E+04 1.74634E+02-5.22880E+02
 -1      1323-4.20740E+03-2.02961E+04 5.54175E+02-5.38008E+03 1.26178E+03-8.74398E+02
 -1      1324 4.22078E+03 1.89956E+04-7.94520E+02-5.63632E+03 1.20793E+03 8.81004E+02
 -1      1325-6.55376E+04 3.44757E+03 1.87019E+02 1.73401E+04 5.10900E+02-1.43375E+02
 -1      1326 7.27023E+04-7.19966E+03 1.24440E+02 1.86223E+04 1.29960E+02-5.08213E+02
 -1      1327 1.07265E+04-1.37552E+03 6.85001E+01-9.20797E+03-2.63855E+02 1.47429E+02
 -1      1328-7.57579E+04 4.27188E+03 2.71376E+02-4.26436E+03 4.15303E+02 1.69153E+03
 -1      1329-6.12052E+04-1.25252E+03 1.46322E+02-1.13859E+04 8.95762E+02 1.01235E+03
 -1      1330 1.28727E+04 6.35443E+03 3.51824E+02-2.20022E+04 3.24660E+02 1.23088E+03
 -1      1331 1.11422E+04 9.43989E+03-5.68684E+01-1.49213E+04 7.64664E+02 1.51844E+03
 -1      1332-1.08855E+04-9.75061E+03 4.61758E+02-1.46125E+04 4.19702E+02-1.06033E+03
 -1      1333-3.99223E+04-8.30598E+03-6.32071E+02-2.14813E+04 3.90823E+02 7.34742E+02
 -1      1334-8.72263E+03-6.36674E+03 9.74601E+01-3.16960E+04 7.58286E+01 2.14410E+02
 -1      1335-5.63260E+03-5.09736E+03 1.88277E+01-3.28048E+04 4.24073E+02 3.18028E+01
 -1      1336 6.20505E+04-3.09102E+03-1.95545E+02 1.59546E+04 1.07479E+03-3.56078E+02
 -1      1337 1.59182E+04-3.92976E+03 1.13807E+02-1.67502E+04-4.96541E+02 7.57289E+02
 -1      1338-1.44503E+04 2.33118E+04 1.68652E+02-2.94023E+03 1.36789E+03 1.03246E+03
 -1      1339-4.12385E+03 2.24637E+04 5.33806E+02-3.48262E+03 1.76136E+03 6.00933E+02
 -1      1340-6.14740E+04 6.86142E+03-7.50381E+00 1.09878E+04 1.66318E+03 3.81208E+02
 -1      1341-7.40984E+03-1.40035E+04 6.28753E+02-8.62967E+03 6.67664E+02-7.16092E+02
 -1      1342-6.08385E+04 1.02070E+04 4.97993E+02 5.93647E+03 1.22749E+03 1.93289E+02
 -1      1343 9.26327E+04-9.27644E+03 1.43163E+01 3.48081E+03 6.17895E+02-1.55998E+03
 -1      1344 9.47396E+04-1.26827E+04-4.58391E+02 1.86694E+04-3.34486E+02-9.87074E+02
 -1      1345 4.04318E+03-2.19751E+04 9.76923E+02-3.57226E+03 1.71758E+03-3.26263E+02
 -1      1346 4.39957E+04 1.40805E+04-5.77239E+02-1.02794E+04-1.85283E+03-7.33973E+02
 -1      1347 1.05544E+05-1.04958E+04-1.76072E+02 2.84418E+04-2.20510E+03-1.63539E+03
 -1      1348 8.94844E+04-9.14775E+03-2.95785E+02 2.93191E+04-3.84247E+02-1.45999E+03
 -1      1349-1.32462E+04-6.79522E+02-2.61230E+00-1.70560E+04-2.03381E+02-3.58086E+02
 -1      1350-1.32841E+04-1.64471E+03 2.45416E+02-1.92530E+04-2.53459E+02-3.38115E+02
 -1      1351-1.14644E+04 2.58871E+03-1.65701E+01 3.96022E+03-3.45598E+02 2.71513E+02
 -1      1352-1.33931E+04 2.29820E+03-5.10883E+02 4.60279E+03-3.50074E+02 4.66383E+02
 -1      1353-3.96959E+02 3.61893E+02 7.84883E+01-4.28684E+04-5.69249E+02-3.75577E+01
 -1      1354 6.49331E+04-3.25665E+03-2.10639E+02 1.75045E+04 4.20194E+02-1.61016E+02
 -1      1355 2.11910E+04 3.29038E+03 5.65928E+02 2.43484E+03-8.90152E+02-1.77029E+02
 -1      1356-8.54235E+03 1.23679E+02 1.50220E+01-2.04366E+04 5.37449E+02 3.57642E+01
 -1      1357-1.61816E+04-2.08255E+02-1.46409E+02-2.05889E+04 5.30575E+02 1.32013E+02
 -1      1358 6.08909E+04-7.31879E+03 1.31515E+02 1.17214E+04 1.36787E+03-6.09375E+02
 -1      1359 5.98657E+04-3.66669E+03-1.01082E+02 1.55918E+04 1.08399E+03-5.24177E+02
 -1      1360 7.83177E+04-8.50453E+03 3.02855E+02 2.00155E+04-3.82930E+00-7.84001E+02
 -1      1361-2.09575E+04-3.35474E+03-3.05809E+02 2.02558E+03-9.60906E+02 4.79627E+02
 -1      1362-8.91276E+04 1.10808E+04 1.35601E+03 6.62730E+03 1.00273E+02 1.29914E+03
 -1      1363-6.11314E+04 1.62157E+04 1.02500E+02-1.07053E+04 1.29673E+03 1.98931E+02
 -1      1364 8.26052E+03 1.46954E+04-3.47620E+02-9.63308E+03 1.18966E+03 3.10059E+02
 -1      1365 6.85754E+04-4.53065E+03 2.56184E+01 1.74920E+04 3.73327E+02-1.46256E+02
 -1      1366-1.06245E+04 2.64786E+03 8.47729E+01 3.10627E+03-3.14318E+02 2.16712E+02
 -1      1367-3.08035E+04 2.17872E+04-1.57940E+03-6.22964E+03 1.90699E+03 2.29967E+01
 -1      1368 1.25929E+04-2.53443E+03-2.78674E+01 3.08837E+03-1.81136E+02-1.74661E+02
 -1      1369-4.17063E+04-7.88790E+03-1.38866E+02-1.42259E+04-6.37120E+02 6.52093E+02
 -1      1370 1.51628E+04 8.92571E+03-3.10169E+02-2.95063E+04 5.16828E+01-4.59520E+02
 -1      1371 4.28959E+04 7.57357E+03 2.12483E+02-2.00192E+04 6.60528E+02-6.77003E+02
 -1      1372-1.39526E+04-3.85625E+03 4.78880E+02-3.04480E+04 2.70731E+01-5.35773E+02
 -1      1373 2.15839E+02 4.83992E+01-6.80580E+00-3.44698E+04 3.48207E+01 1.40734E+01
 -1      1374-2.88342E+03-3.08335E+03-7.75493E+01-3.39426E+04 1.12393E+02 4.08337E+01
 -1      1375-9.35219E+04 6.26329E+03 5.64723E+02 3.18351E+04-1.07316E+03 1.73098E+03
 -1      1376-1.86641E+04-8.02639E+02 5.57307E+02 3.80332E+03-1.02262E+03 3.67894E+02
 -1      1377-1.43931E+04 9.58297E+02-2.28866E+02 4.17126E+03-7.55565E+02 3.10788E+02
 -1      1378-7.37134E+04 6.53649E+03-7.68985E+01 1.81960E+04 3.59156E+02-6.45844E+01
 -1      1379-7.81471E+04 8.70431E+03-2.77105E+02 1.79115E+04 7.04182E+01 2.39426E+02
 -1      1380 6.03632E+04-1.04243E+04-4.88950E+02 6.62518E+03 9.98478E+02-1.21942E+02
 -1      1381 5.35299E+04-1.71357E+04 1.43478E+03-1.60406E+04 2.03121E+03-1.09314E+03
 -1      1382 7.78468E+04-2.91155E+03 1.41958E+02-5.47083E+03 8.64009E+02-1.08059E+03
 -1      1383 7.12199E+04-4.55308E+03-3.46522E+02 3.03157E+04-8.08150E+02-6.63925E+02
 -1      1384-6.89620E+04 5.34173E+03 4.12258E+02 1.75145E+04 2.90960E+02-1.85998E+01
 -1      1385-7.40226E+04 5.06340E+03 2.75565E+02 3.11196E+04-3.34226E+02 1.04596E+03
 -1      1386 5.51864E+02-2.80081E+03 4.13064E+02-1.25882E+04 8.56555E+02-1.56541E+02
 -1      1387-5.36377E+04 1.86220E+04-2.15255E+02-1.83009E+04 2.10441E+03 5.54946E+02
 -1      1388 4.98903E+03 9.39554E+02-7.10272E+01-4.16069E+04-5.93347E+02 3.16075E+02
 -1      1389-1.44652E+04-2.25726E+03 3.24840E+02-2.10180E+04-4.45049E+02-8.84990E+02
 -1      1390 1.04831E+04 7.56441E+03 2.04286E+02-3.12992E+04 2.16276E+01-1.91757E+02
 -1      1391-8.89895E+04 1.03028E+04 2.67024E+02 2.00032E+04-5.87512E+02 2.17843E+03
 -1      1392 1.10753E+04-7.47274E+03 7.11204E+02-1.24741E+04 8.16237E+02 1.60546E+03
 -1      1393-1.11296E+04-7.44546E+02 5.21013E+02-1.38653E+04-3.80306E+02-2.77408E+02
 -1      1394-9.85119E+03 1.19779E+02 1.05844E+02-1.06277E+04-4.28068E+02 2.02112E+01
 -1      1395 1.35086E+04-2.12068E+03-3.97591E+02 3.78398E+03-5.16629E+02-2.58637E+01
 -1      1396 1.44850E+04-1.81849E+03 2.39193E+01-1.50056E+04-4.08106E+02 3.55127E+02
 -1      1397-9.43314E+03 1.00514E+03-2.41727E+02-8.14329E+03-1.09766E+02-1.44865E+00
 -1      1398 1.27895E+04-2.31910E+03 6.83367E+01-1.21068E+04-5.65956E+02 3.61394E+02
 -1      1399-3.64380E+03 1.81540E+03-4.11748E+01 2.26123E+03-2.67626E+02-4.57997E+01
 -1      1400 4.92335E+04-8.95875E+03-1.02709E+03 1.13728E+04 1.84772E+03-1.55069E+03
 -1      1401 4.52992E+04-5.64208E+03-8.01499E+01 1.35660E+04 9.28694E+02-1.03732E+03
 -1      1402 6.44269E+04-4.84498E+03-2.05147E+02 7.74233E+03 2.83070E+02-2.18145E+02
 -1      1403 7.46106E+04-7.75544E+03-6.54466E+02 1.21369E+04 4.24802E+02-3.95654E+02
 -1      1404 7.47865E+04-6.71742E+03-9.21030E+02 4.43095E+03 3.65106E+02-8.77675E+02
 -1      1405 7.12352E+03-1.89260E+03-5.60897E+01-4.28748E+03-2.72203E+02-4.47470E+01
 -1      1406 3.88749E+03-1.59901E+03 7.86793E+01-1.68519E+03-2.47326E+02-5.27691E+01
 -1      1407 6.85419E+03-2.38836E+03-2.28888E+02-2.55053E+03-3.05839E+02 3.73071E+00
 -1      1408 2.62577E+03-1.80271E+03 1.82017E+01 1.58997E+03-1.55727E+02 3.22717E+01
 -1      1409 5.40303E+03-1.99722E+03 4.28915E+01 1.41197E+03-2.36914E+02-1.14954E+02
 -1      1410 6.96333E+03-2.59681E+03 2.88575E+01-1.50334E+02-2.97300E+02-3.38242E+01
 -1      1411-1.47930E+03 1.62263E+03-1.75666E+02 2.24223E+03-1.81555E+02 3.68768E+01
 -1      1412-5.76062E+03 2.18607E+03 1.79517E+01 4.75420E+02-2.59997E+02 8.69577E+01
 -1      1413-8.11128E+04 1.00804E+04 6.17177E+02 1.08343E+04-3.22900E+01 8.69022E+02
 -1      1414 7.66697E+03-8.82955E+03-4.99832E+02 7.56192E+02 7.28291E+02-4.72398E+02
 -1      1415 1.20593E+04-1.29248E+04 2.98265E+02 2.17146E+03 1.42263E+03-2.25945E+02
 -1      1416 2.01962E+04-7.48965E+03-1.63675E+02 6.10961E+03 7.56476E+02-2.57785E+02
 -1      1417 4.73689E+04 3.25869E+03-2.77540E+02-1.36356E+04-8.30781E+01-5.28053E+02
 -1      1418-2.99143E+03-3.63107E+03 2.11368E+01-3.55942E+04 1.08676E+02 8.31527E+01
 -1      1419 2.73553E+04-3.97076E+03-1.82712E+01-1.08233E+04-9.62004E+01-2.57916E+02
 -1      1420 2.88652E+04-1.81353E+03 1.58482E+01-1.33945E+04 1.32139E+01-6.47198E+02
 -1      1421 2.58980E+04-4.55978E+03 5.33184E+01-1.36952E+04 1.66663E+02-4.09869E+02
 -1      1422 1.74819E+03-6.61716E+02-1.29897E+02-1.78593E+04 7.43713E+02-1.51139E+02
 -1      1423-3.90001E+03 3.14464E+02 9.47315E+01-1.68882E+04 7.19021E+02-1.32461E+02
 -1      1424 3.56099E+03-2.31276E+03 1.88039E+02-1.54115E+04 6.61003E+02-4.88582E+01
 -1      1425 9.39947E+03-2.65822E+03-2.13754E+02-1.76242E+04 6.71969E+02 5.65895E+01
 -1      1426 1.06254E+04-3.94280E+03 1.86765E+02-1.64797E+04 4.57441E+02 1.10299E+02
 -1      1427 9.25805E+03-5.77929E+03-7.21653E+01-1.42133E+04 3.86164E+02 1.35030E+02
 -1      1428-2.31653E+04-2.33665E+02-3.83414E+01 1.46196E+03-2.25033E+02 2.55853E+02
 -1      1429-2.97457E+04 1.97959E+01 2.83575E+01-2.42376E+03-6.77237E+02 3.01064E+02
 -1      1430-2.95838E+04-1.95111E+03 3.52671E+02-6.62086E+02-9.48255E+02 4.82129E+02
 -1      1431 7.11768E+03-1.43370E+03-1.57415E+02-3.30287E+04-1.98607E+02 2.56018E+02
 -1      1432 3.99561E+04-1.48937E+04-9.31619E+02 2.69010E+03 1.20987E+03-4.17462E+02
 -1      1433 2.32376E+04 7.71947E+03-5.71188E+01-2.42951E+04 1.36012E+02-3.53524E+02
 -1      1434 1.60379E+04 8.28288E+03-8.51624E+01-2.75255E+04 2.72845E+02-2.09689E+02
 -1      1435 1.71718E+04 7.10874E+03 6.55261E+02-2.42024E+04-3.84297E+00-1.45068E+02
 -1      1436 9.97839E+03 7.60917E+03-1.36878E+02-3.14567E+04 2.86546E+01-1.57745E+02
 -1      1437 6.20662E+03 6.00601E+03-1.54409E+02-3.39566E+04 2.55541E+02-2.71130E+02
 -1      1438-4.00557E+03 1.02569E+03 2.55917E+01-2.54303E+03-1.10293E+02 1.32102E+02
 -1      1439 4.96917E+03 6.21648E+03-2.52413E+01-3.41719E+04-4.22615E+01-7.38852E+01
 -1      1440 2.86771E+03 4.90068E+03-1.65104E+02-3.60608E+04 1.10341E+02-3.76770E+00
 -1      1441-5.77892E+01 4.48134E+03 7.44118E+01-3.74365E+04-1.85313E+02-2.06637E+02
 -1      1442 2.41449E+04-1.43444E+02 5.25711E+02 1.58416E+03-8.59778E+02-4.58795E+02
 -1      1443-8.60970E+03 1.21894E+03 2.78614E+02-1.60399E+04 6.69549E+02-5.18949E+02
 -1      1444-1.27229E+04 3.59643E+03 4.30405E+01 8.25500E+01-3.22009E+02 2.11710E+02
 -1      1445-8.63627E+03 3.32926E+03-8.05159E+01 1.59939E+02-3.70063E+02 1.79727E+02
 -1      1446 1.01515E+03 1.21214E+03-9.39531E+00-3.65192E+04 1.54395E+02 1.59255E+01
 -1      1447-9.12313E+02-1.33088E+03 1.80294E+02-3.66647E+04 2.75616E+02 9.47230E+01
 -1      1448 2.59932E+02 4.52247E+02-1.55538E+02-3.93026E+04 2.64101E+01 5.94066E+01
 -1      1449-1.35966E+04 1.96767E+03-9.58838E+01-2.05620E+04 5.81769E+02-5.01360E+00
 -1      1450-2.20042E+04-8.04318E+03-6.41317E+01-2.51217E+04 4.04928E+02 3.43036E+02
 -1      1451 1.95545E+04-1.53551E+03 9.81287E+01-1.75728E+04 3.52849E+02-1.65611E+01
 -1      1452 1.18238E+04-9.45109E+02 7.48095E+01-1.85483E+04 6.89291E+02-9.29420E+01
 -1      1453-1.60348E+04 7.75068E+02 1.42253E+02-2.00093E+04 8.94756E+01-3.51610E+02
 -1      1454-6.13613E+04 4.59075E+03 1.22067E+02 1.16347E+04 4.49687E+02 2.68639E+02
 -1      1455 4.65974E+03-6.43853E+02-3.83193E+01-3.76263E+03-2.12947E+02-1.37935E+02
 -1      1456 2.00207E+04-2.21145E+03 8.76593E+01 1.79697E+03-4.84356E+02-3.37586E+02
 -1      1457 2.13207E+04-1.42162E+03 2.74006E+02 2.63558E+03-5.24565E+02-3.81342E+02
 -1      1458 2.59434E+04-1.87678E+03 1.09545E+02 1.40087E+02-4.44980E+02-3.66848E+02
 -1      1459-1.83729E+04 2.93749E+03-5.81230E+02 1.70568E+03-6.46937E+02 2.71078E+02
 -1      1460-2.18996E+04 1.53164E+03-6.05657E+02 1.91752E+03-5.82757E+02 3.01737E+02
 -1      1461 3.80309E+04 5.73760E+03 2.16516E+02-4.60946E+03-9.86429E+02-3.71154E+02
 -1      1462 9.78072E+03-3.66029E+03 1.06393E+02-5.86026E+01-2.62997E+02-1.25614E+02
 -1      1463-6.98480E+04 7.84124E+03 1.13679E+02 1.14435E+04 4.76790E+02-2.51492E+02
 -1      1464-6.01687E+04 3.55201E+03-2.60579E+02 3.13945E+03 4.36170E+02 4.10071E+02
 -1      1465 1.82544E+04-5.29611E+03-1.26218E+02-1.51267E+04 1.51664E+02 2.26404E+02
 -1      1466 1.81283E+04-6.21379E+03-2.58808E+02-1.61598E+04-9.70244E+01 3.33047E+02
 -1      1467 1.42856E+04-3.94348E+03 3.25027E+01-4.93060E+01-1.72614E+02 8.31414E+01
 -1      1468-2.97560E+04-6.85165E+03-3.38230E+02-2.11173E+04 4.99102E+02 1.01761E+03
 -1      1469 1.49431E+03-6.01848E+03-4.81964E+02-7.45060E+03 6.03940E+02-4.34314E+02
 -1      1470-2.24939E+04 1.63625E+04 1.48023E+02 3.26380E+03 2.16822E+03 1.19370E+03
 -1      1471-1.42067E+04 1.35545E+04 8.95392E+02 2.13416E+03 9.80249E+02 1.03469E+03
 -1      1472-2.83022E+04 1.10617E+04 1.28760E+02 7.49042E+03 1.15236E+03 1.33923E+03
 -1      1473-9.84204E+03-7.41069E+03 2.60833E+02-3.16564E+04 2.16987E+02 6.47054E+01
 -1      1474 2.84994E+04 2.98919E+03 7.57745E+02 7.55646E+02-6.06792E+02-2.53902E+02
 -1      1475-5.89868E+04 1.84945E+03 1.13294E+02-5.65965E+03 3.13319E+02 5.47548E+01
 -1      1476 1.69661E+04-3.99846E+03-1.42550E+02 4.11040E+02-4.11405E+02 2.18612E+01
 -1      1477-1.95928E+03 1.60884E+03-6.42677E+01 1.33319E+03-1.14402E+02 5.94806E+00
 -1      1478-1.49776E+04-8.57715E+03 1.62440E+02-2.82678E+04 2.91089E+02 2.09314E+02
 -1      1479-1.40123E+04-7.29548E+03-4.65544E+02-2.62262E+04 1.74975E+02 3.90944E+02
 -1      1480-6.60204E+03 9.68959E+03-9.35274E+01-1.39908E+03 8.88032E+02 2.78117E+02
 -1      1481-2.01313E+03 5.44552E+03 7.71773E+01-7.90513E+03 5.93228E+02 4.37484E+02
 -1      1482-1.67067E+04 5.06731E+03 1.43937E+02 2.14291E+03 8.90051E+02 1.34962E+03
 -1      1483-1.53570E+04 3.67075E+03 8.58333E+01 1.99263E+02-1.68418E+02 1.73458E+02
 -1      1484-2.91961E+04 1.98947E+03-1.90014E+02-1.58634E+04-7.94717E+01 5.25498E+02
 -1      1485-3.83877E+04-4.56165E+03-7.61268E+01-1.80248E+04 1.20763E+02 5.97363E+02
 -1      1486-3.09461E+04-4.03484E+03-2.36087E+01-1.50995E+04 3.61217E+02 3.29110E+02
 -1      1487-4.54881E+04-2.56855E+03-3.22772E+02-1.08407E+04 3.70317E+02 4.91149E+02
 -1      1488-4.28044E+04-2.51620E+02-3.13987E+01-4.86958E+03 5.51991E+02 1.29192E+02
 -1      1489 8.81342E+02 1.55920E+03 6.83706E+02-1.50266E+04 5.45648E+02 1.37014E+03
 -1      1490-3.78324E+04 1.66457E+04 5.12235E+02 1.20728E+03 7.84476E+02 1.03377E+02
 -1      1491 1.98092E+04-3.46806E+03-1.37885E+02 6.89343E+02-3.31402E+02-9.37831E+01
 -1      1492 6.42392E+03-1.11945E+03-7.09789E+01-3.95363E+04-4.17583E+02 5.47997E+02
 -1      1493 8.49223E+04-9.73055E+03 4.62116E+01 2.34612E+04-1.97550E+02-9.88381E+02
 -1      1494 8.41719E+04-1.02973E+04-3.85750E+02 1.34679E+04-3.32067E+01-1.15367E+03
 -1      1495 3.24870E+04 2.48924E+02-6.07683E+00-1.21099E+04-2.00353E+02-5.62321E+02
 -1      1496 3.69854E+04 3.15890E+03 4.59780E+01-6.81058E+03-2.56333E+02-4.75332E+02
 -1      1497 3.42471E+04 7.56994E+02 5.39621E+01-8.64719E+03-3.35242E+02-3.21083E+02
 -1      1498 3.08877E+04-1.22580E+03-9.80503E+00-3.37851E+03-1.44011E+02-4.48991E+02
 -1      1499-3.21358E+04 1.04595E+03-6.49110E+01-1.36453E+04-1.53265E+02 1.76106E+02
 -1      1500-3.51410E+04-7.36607E+02 9.55024E-01-1.00666E+04-1.92534E+02 7.27668E+01
 -1      1501-1.71295E+04 3.66802E+03-1.91482E+01 9.28567E+02-1.72441E+02 2.53638E+02
 -1      1502 6.51632E+04-5.79112E+03-2.36273E+02 1.24440E+04 3.84329E+02-1.28770E+02
 -1      1503-5.65070E+04 2.48853E+03-7.15766E+01 1.60716E+04 4.96411E+02 3.43798E+02
 -1      1504-5.30308E+04 2.84872E+03-2.85685E+02 1.53138E+04 3.90197E+02 1.56703E+02
 -1      1505-5.49461E+04 2.48933E+03-1.09064E+01 1.47706E+04 3.93690E+02 4.03696E+02
 -1      1506-5.88226E+03-6.10236E+03 1.20067E+02-3.40134E+04 2.71800E+02 1.48314E+02
 -1      1507 4.63324E+04-1.96076E+02 5.38905E+01-5.87920E+03 2.41124E+02 6.86908E+01
 -1      1508 3.08873E+04 3.77359E+03 7.77053E+01-1.21359E+04 2.35993E+02-1.79261E+02
 -1      1509-7.49231E+03 1.22075E+03 4.11197E+01-5.36678E+03-1.58410E+02-1.28822E+01
 -1      1510-1.59862E+04 2.09449E+03 1.24263E+02-1.59302E+04 2.67849E+01 1.12953E+01
 -1      1511-1.74752E+04 3.50603E+03 1.54624E+02-1.99501E+04 4.52315E+02-1.14071E+02
 -1      1512-2.01708E+04 1.57618E+03 8.94335E+00-2.05797E+04 2.72998E+02-1.55465E+01
 -1      1513-2.21207E+04 3.89989E+03 1.61508E+02-1.81796E+04 1.75464E+02 1.12100E+02
 -1      1514-2.52151E+04 2.01927E+03-3.25364E+01-1.84836E+04 5.23980E+01 1.33862E+02
 -1      1515-2.57613E+04 3.84774E+03-1.44519E+00-1.56099E+04 1.20398E+02 6.40673E+02
 -1      1516 5.04826E+04-3.56358E+03-7.46770E+01 1.39363E+04 1.09830E+03-3.09816E+02
 -1      1517-5.06538E+04 4.77473E+03 9.88560E+02 1.33983E+04 1.20364E+03 8.13730E+02
 -1      1518-4.79284E+04 6.14934E+03 5.64137E+02 1.15500E+04 6.62011E+02 6.10517E+02
 -1      1519 1.35126E+04-6.29082E+03-3.43196E+02-1.55637E+04 3.29869E+02 1.07386E+02
 -1      1520 2.63232E+03-3.27344E+02 3.21433E+01-1.84762E+04 6.88358E+02-1.19097E+02
 -1      1521-3.80256E+02 1.29877E+03-6.35569E+01-4.09441E+04-2.94084E+02-6.54378E+00
 -1      1522 1.13122E+03-1.40776E+03-3.63339E+00-4.04259E+04-2.98928E+02 1.02128E+02
 -1      1523 1.16457E+03-3.52227E+02-7.25337E+01-4.22892E+04-3.68007E+02 2.33496E+02
 -1      1524-3.25413E+04-5.39135E+03-6.49729E+02-2.79593E+03-6.37830E+02 4.30011E+02
 -1      1525 3.26445E+04 1.31579E+03 4.39282E+02-1.83854E+03-7.66386E+02-1.02054E+02
 -1      1526 4.17632E+04-1.12434E+04-6.77784E+02 8.40258E+03 1.52644E+03-7.59497E+02
 -1      1527 3.15612E+04-9.24863E+03 4.74399E+02 9.01539E+03 1.33362E+03-9.22599E+02
 -1      1528 2.22669E+03-2.73129E+03-4.74271E+02-3.93648E+04-2.92970E+02 2.65706E+02
 -1      1529 2.95461E+03-4.03178E+03-3.63572E+02-3.53547E+04-7.49195E+01 7.67633E+02
 -1      1530-3.86301E+04-4.63585E+03-2.08240E+01-4.86358E+03-8.06045E+02 2.66828E+02
 -1      1531 1.65976E+04-6.60886E+03-7.12234E+02-1.62344E+04 1.00138E+02 6.39523E+02
 -1      1532 5.89074E+04-3.43379E+03 2.29218E+01 1.11848E+04 6.30497E+02-9.08145E+01
 -1      1533 5.27943E+04-2.84903E+03-1.34058E+02 3.88612E+03 4.43127E+02-8.38056E+01
 -1      1534 5.34006E+04-2.47532E+03-2.99524E+02 1.26126E+04 3.46918E+02-9.34993E+01
 -1      1535 3.37793E+04 6.25728E+03-5.40230E+02-1.82381E+04 3.41412E+02-6.39509E+02
 -1      1536 5.12153E+03 6.33620E+03 4.59017E+02-2.87421E+04 2.13203E+02-6.19132E+02
 -1      1537 2.03142E+03 4.03486E+03-3.44271E+02-2.45269E+04 7.23809E+01-4.43343E+02
 -1      1538 1.44008E+04 4.62143E+03-6.24592E+01-1.87372E+04 1.46631E+02-1.10450E+03
 -1      1539-1.61551E+04 1.82454E+03-7.38697E+01-1.82349E+04-1.84914E+02-2.78082E+02
 -1      1540 1.38635E+04-4.10356E+03-1.14099E+02 3.88795E+02 4.71722E+02-4.82900E+02
 -1      1541 1.00506E+04-6.83690E+02-2.35891E+02-8.56196E+03 2.18524E+02-3.48295E+02
 -1      1542-6.71235E+03 1.70797E+03-2.68582E+00-3.85817E+04-2.55911E+02-4.21329E+02
 -1      1543-7.13995E+03 1.39130E+03 6.64967E+01-3.15389E+04-9.04946E+01-2.34470E+02
 -1      1544-2.14373E+03 4.33660E+03-1.93295E+02-3.36172E+04-1.73404E+01-4.10187E+02
 -1      1545 2.25733E+04-4.33269E+03 1.21979E+02-2.57252E+03-2.42352E+02-1.84382E+02
 -1      1546 1.95138E+04-5.16994E+03 3.54787E+01-2.78097E+03-2.85225E+02-1.80168E+02
 -1      1547-2.98255E+03 1.02697E+03 9.04213E+01-4.19610E+04-3.35188E+02-4.37154E+01
 -1      1548-2.97011E+03-4.78747E+03-1.89627E+02-3.61628E+04 8.39644E+01 8.29180E+01
 -1      1549-5.64577E+02-2.25344E+03-9.86181E+01-3.83062E+04 4.10499E+01 5.50139E+01
 -1      1550-1.78612E+04 4.52533E+03 3.31493E+01-2.76330E+03-2.48944E+02 3.62440E+02
 -1      1551-1.41942E+04 3.67624E+03 1.61067E+01-1.91361E+04 3.83667E+02-4.43999E+02
 -1      1552-1.33163E+04 2.36439E+03 3.14234E+02-1.87073E+04 3.15671E+02-9.22519E+02
 -1      1553-1.07129E+04 2.29954E+03-1.73699E+02-1.81509E+04 7.13355E+02-3.92507E+02
 -1      1554-1.00675E+04 2.82993E+03 8.97873E+01-1.85743E+03-3.12614E+02 1.95086E+02
 -1      1555-5.66148E+03 2.30849E+03-1.06393E+02-5.24623E+02-2.94042E+02 1.94431E+02
 -1      1556-4.28051E+04 1.17361E+04 5.02411E+02 7.62381E+03 8.76397E+02 7.44347E+02
 -1      1557 2.23652E+04-1.48494E+04 7.41158E+00 4.58616E+03 1.97628E+03-5.73127E+02
 -1      1558 6.07711E+04-3.25225E+03 6.03206E+01 1.52213E+03 3.47838E+02 1.42660E+02
 -1      1559 5.95048E+04-1.81288E+03-1.50268E+02-6.44355E+03 3.32508E+02-1.38563E+02
 -1      1560-6.65661E+03-2.39215E+02 3.53125E+02-2.27153E+04-9.99206E+01-2.04944E+02
 -1      1561-3.41101E+03-2.76869E+03-2.69185E+02-1.46690E+04 4.35964E+02-1.03093E+03
 -1      1562 3.49772E+03 1.59935E+03-1.28472E+02-1.72426E+04 1.51280E+02-8.27029E+02
 -1      1563 3.49334E+04-5.40980E+03 6.28750E+02 1.05624E+04 7.06940E+02-1.07553E+02
 -1      1564 8.41124E+03-1.87017E+03-7.17983E+01-6.44391E+03-2.40413E+02 4.48753E+01
 -1      1565 1.07518E+04-3.02317E+03 7.51434E+01-5.40856E+03-2.16023E+02-1.07914E+02
 -1      1566 2.52962E+04-2.08170E+03-2.57038E+02-1.59191E+04 3.23839E+02-2.56661E+02
 -1      1567 1.48693E+04-3.64477E+03 6.73566E+01-1.05917E+04-2.55336E+02 1.63442E+02
 -1      1568 1.32712E+04-3.82641E+03-5.17312E+00-7.86003E+03-3.91621E+02 6.89329E+01
 -1      1569 1.84933E+04-5.32674E+03-8.84881E+01-9.82221E+03-1.90708E+02 2.10916E+02
 -1      1570-1.36032E+04-5.16100E+03 3.27098E+01-2.06014E+04 9.62441E+01 6.66603E+02
 -1      1571-1.03315E+03-4.19483E+03 3.36904E+02-2.68361E+04-1.44527E+02 4.58714E+02
 -1      1572-7.16167E+03-6.25343E+03 1.70801E+02-2.78092E+04 1.59479E+02 7.57481E+01
 -1      1573-2.87350E+03 2.86772E+03 1.35460E+02-3.97026E+04-2.42266E+02-4.58570E+01
 -1      1574-2.39748E+04 4.29460E+03-1.01669E+01-7.00437E+03-1.08191E+02 2.81112E+02
 -1      1575-1.84325E+04 4.42078E+03 8.15794E+01-6.76129E+03-2.97603E+02 1.42775E+02
 -1      1576 2.83260E+04-2.87960E+03 3.53929E+02 6.08562E+03 6.49718E+02 5.22921E+01
 -1      1577 4.38375E+04-3.25733E+03-3.29474E+02 1.28339E+04 8.34995E+02-1.66779E+02
 -1      1578 4.02703E+04-1.69192E+03-2.45611E+02 7.38338E+03 5.22388E+02-4.44796E+02
 -1      1579 3.60276E+04 1.61403E+02 4.76956E+02-2.03579E+03 4.29317E+02-2.19163E+02
 -1      1580 2.20354E+04-4.76242E+03-2.09609E+01-1.55263E+04 3.34675E+02-1.81956E+02
 -1      1581-2.14065E+04 3.76810E+03-1.75250E+02-2.74689E+03-2.03056E+02 4.39105E+02
 -1      1582-1.60012E+04 1.80213E+03 3.43991E+00-2.00174E+04 3.06911E+02-6.99586E+02
 -1      1583 4.31679E+03-1.83696E+02 1.08213E+02-2.36429E+04-1.05615E+02 3.86133E+02
 -1      1584-4.75313E+04 2.16151E+03-7.46660E+01 7.15783E+03 6.15735E+02 8.23064E+02
 -1      1585-4.65565E+04 1.89590E+03 2.48193E+01 1.28454E+03 5.25297E+02 2.30819E+01
 -1      1586 1.23463E+04-7.36673E+03 1.35085E+01-1.37003E+04 2.11975E+02 3.69701E+02
 -1      1587-1.11010E+04 2.86878E+03-2.05047E+02-1.98818E+04 4.43020E+02-1.71204E+02
 -1      1588-7.22615E+03 1.84531E+03 1.69404E+01-1.88181E+04 8.25724E+02-2.03652E+02
 -1      1589-4.20916E+03 1.06043E+03-2.18336E+02-1.92099E+04 6.19801E+02 1.42140E+01
 -1      1590-2.13992E+04-6.24793E+03-2.77366E+02-2.15798E+04 2.93076E+02 6.84537E+02
 -1      1591 2.55124E+04-3.10699E+03-1.34039E+01-1.58630E+03-3.08646E+02-5.37068E+02
 -1      1592 2.85736E+04-3.27728E+03-2.06494E+01-6.07534E+03-2.49073E+02-2.47170E+02
 -1      1593 1.66203E+04-4.34006E+03-1.03385E+02-1.24308E+04-1.16860E+02 1.52360E+02
 -1      1594 2.03087E+04-6.32394E+03 9.82721E+01-1.26474E+04 4.52016E+01-6.91378E+01
 -1      1595-1.16596E+04 2.65888E+03-2.17193E+02-6.86805E+03-3.71156E+01-6.75317E+00
 -1      1596 6.06457E+03-4.52948E+03 3.27505E+02-1.35216E+04 5.00611E+02 3.97821E+02
 -1      1597-1.85274E+03-1.01810E+03 4.15508E+02-1.42518E+04 6.50250E+02-3.27910E+01
 -1      1598-6.05775E+04 3.06721E+03 5.17213E+02 1.44778E+04 5.45531E+02 4.72841E+02
 -1      1599 8.97691E+01-3.87906E+03-2.07186E+00-3.76388E+04 5.75898E-01 2.44854E+02
 -1      1600-2.29990E+03-5.59491E+03 9.84020E+01-3.32942E+04 5.91987E+01 2.46887E+02
 -1      1601-7.28672E+04 6.59122E+03 7.36816E+02 4.69861E+03-1.66877E+01 7.19074E+02
 -1      1602-5.17082E+04 3.58041E+03-3.64444E+02 1.48030E+04 1.19773E+03 4.99349E+02
 -1      1603 3.27723E+03-1.75392E+03-5.71866E+01 6.94781E+02-2.13633E+02 6.11428E+00
 -1      1604-4.22453E+04 3.55132E+03 1.74342E+02 1.18351E+04 7.29871E+02 8.90809E+02
 -1      1605-2.15194E+04 7.93864E+03 2.93565E+02 6.31035E+03 1.25101E+03 6.91682E+02
 -1      1606 3.17039E+03 3.60104E+03-8.86672E+01-3.56653E+04 1.00288E+02-1.00695E+02
 -1      1607-2.64285E+04 1.90834E+03-1.69088E+02-2.09475E+03-3.83240E+02 1.32004E+02
 -1      1608-4.00509E+04 4.36754E+03 9.23417E+02 1.17811E+04 7.66959E+02 5.74320E+02
 -1      1609-2.21296E+04 2.96315E+03-3.66936E+02-7.66564E+02-5.05911E+02 3.98504E+02
 -1      1610-2.61360E+04 3.24258E+03 1.81724E+02-5.25751E+03-3.35545E+02-2.30820E+01
 -1      1611-3.17053E+04 8.32641E+02-5.48251E+01-5.39683E+03-3.73284E+02 5.13152E+01
 -1      1612-3.63633E+04-1.43693E+03-2.13921E+02-7.02130E+03-4.01304E+02 2.82850E+02
 -1      1613-1.44358E+04 1.90815E+03 2.34637E+02-1.27245E+04-2.76496E+02-7.21993E+01
 -1      1614-1.24922E+04 1.86923E+03-1.74954E+02-9.76875E+03-1.26683E+02-5.05936E+01
 -1      1615 5.23975E+04-2.14401E+03-1.03975E+02 1.46560E+04 3.07693E+02 5.81678E+01
 -1      1616-1.85688E+04 3.97070E+03-5.45973E+01-1.39961E+04-1.83203E+02 2.75339E+02
 -1      1617-2.15365E+04 4.18261E+03-6.66637E+01-1.21846E+04-1.46236E+02 5.11256E+02
 -1      1618-1.64360E+04 3.23993E+03 1.20207E+00-1.02649E+04-2.45603E+02-7.75525E+01
 -1      1619 1.15755E+03 3.18366E+03-2.36135E+00-3.80760E+04-7.41269E+01 3.82073E+01
 -1      1620 1.61520E+04-4.02794E+03-5.42024E+01-1.68575E+04 5.85297E+02-1.88777E+02
 -1      1621 1.79209E+04-6.62950E+03-1.91355E+02-1.58247E+04 4.33364E+02 9.75284E+01
 -1      1622 1.83857E+04 2.00621E+03 1.83036E+01-9.74827E+03 4.74449E+02-6.72761E+02
 -1      1623 9.71157E+03 7.36688E+03-7.15352E+01-2.95696E+04-7.67978E+01-1.50910E+02
 -1      1624-2.99672E+04 4.40961E+03 8.69858E+02 7.68819E+03 1.51851E+03 1.45619E+03
 -1      1625-2.14194E+04 4.54835E+03-2.72251E+01-1.61759E+04 1.67822E+02 3.98685E+02
 -1      1626-1.86335E+04 3.52716E+03 4.84399E+01-1.74445E+04 5.65800E+00-2.49505E+02
 -1      1627-1.95488E+04 4.17572E+03 7.85070E+01-1.88216E+04 1.53007E+02-1.15764E+02
 -1      1628-1.76092E+04 3.09180E+03 1.64733E+01-1.91496E+04 1.50747E+02-2.57154E+02
 -1      1629-2.75217E+04 3.41400E+03-1.47379E+02-1.25564E+04-9.21905E+01 3.11971E+02
 -1      1630-3.61623E+04 7.98484E+03 8.16852E+01 1.02166E+04 9.33943E+02 3.12601E+02
 -1      1631 2.25550E+04-5.54532E+03 1.65695E+01-1.08082E+04-9.41747E+01-3.19620E+02
 -1      1632 2.47153E+04-5.11605E+03-6.20588E+01-6.40380E+03-2.01642E+01-2.75726E+02
 -1      1633 2.22994E+04-6.00241E+03 9.00344E+01-1.43869E+04 1.67627E+02-2.61704E+00
 -1      1634 1.90569E+04-5.94356E+03-6.28986E+01-1.58402E+04 3.97325E+02 6.43468E+01
 -1      1635 2.00958E+04-6.20822E+03 6.46638E+01-1.51170E+04 2.27318E+02 2.49811E+02
 -1      1636 3.50992E+03 6.27222E+03 2.58174E+02-3.34532E+04 1.52907E+02-4.01045E+00
 -1      1637-6.29325E+03 1.30098E+03 1.86637E+02-3.60554E+03-1.96286E+02 7.82744E+00
 -1      1638-9.43522E+03 2.13757E+03-4.46110E+01-4.53575E+03-2.56750E+02-8.55493E+01
 -1      1639-5.77434E+03 1.90244E+03 2.24733E+02-1.95206E+03-2.87196E+02 3.70261E+01
 -1      1640-1.39071E+04 8.46389E+02-4.44784E+02-6.90331E+03 4.02543E+02 7.40186E+02
 -1      1641-4.43675E+03-6.23863E+03-2.54465E+02-3.40254E+04 1.69782E+02 1.47295E+02
 -1      1642-8.43584E+03-7.19060E+03-2.03679E+02-3.09246E+04 6.05517E+01 6.90021E+00
 -1      1643-6.93149E+03-2.58426E+03 1.39635E+02-1.68620E+04-3.54070E+00 6.43958E+02
 -1      1644-3.20122E+04 1.48865E+03-6.67377E+01 3.01192E+03 7.31730E+02 4.08851E+02
 -1      1645-3.35644E+04-1.92971E+01-3.60608E+02-1.60796E+03 8.15961E+02 6.19310E+02
 -1      1646-3.03844E+04 2.41269E+03-1.40696E+02-8.14007E+03-2.16806E+02 3.16154E+02
 -1      1647-1.56084E+04 3.04283E+03 3.22721E+01-1.98075E+04 3.79858E+02-2.43802E+02
 -1      1648 2.51784E+04 6.35289E+03-4.56982E+01-1.84975E+04-5.89328E+01-8.21414E+02
 -1      1649 2.51642E+04-9.28318E+02 2.90368E+02 7.00139E+02 4.24078E+02-3.48968E+02
 -1      1650 4.72879E+04-1.73432E+03 7.92086E+01 6.09782E+03 6.77981E+02 9.62068E+01
 -1      1651-2.27697E+04-2.48694E+03-2.68101E+01-1.16664E+04 6.23967E+01 3.01480E+02
 -1      1652 2.83022E+04-4.80810E+02 2.64997E+02-7.16696E+01-2.53423E+02-2.66970E+02
 -1      1653 1.49792E+04-4.65905E+03-1.46539E+01-2.94304E+03-3.15193E+02-8.05609E+01
 -1      1654 1.09707E+04-3.58448E+03 1.29435E+02-1.88513E+03-3.28405E+02 4.59536E+01
 -1      1655 1.09357E+04-3.23369E+03-2.10693E+01-3.62620E+03-2.22039E+02-1.01770E+02
 -1      1656-1.39604E+04 2.86945E+03-1.12404E+02-1.95579E+04 5.30738E+02-2.96113E+02
 -1      1657-1.35870E+04 3.41701E+03 1.74620E+02-5.49083E+03-3.42498E+02 1.53063E+01
 -1      1658-1.36660E+04 3.91829E+03 1.29996E+02-2.79252E+03-3.24865E+02 2.24807E+02
 -1      1659-3.57041E+03 1.48598E+03 1.03402E+02-1.08527E+03-9.21437E+01 1.56053E+02
 -1      1660 1.96346E+04-5.54683E+03-1.97336E+02-6.48088E+03-1.83007E+02-1.01425E+01
 -1      1661 1.54417E+04-4.54558E+03-1.57734E+02-6.08741E+03-2.38979E+02 2.58368E+00
 -1      1662 6.84748E+03-2.71018E+03 1.04288E+02-1.27732E+03-2.23945E+02-7.52304E+01
 -1      1663-2.87133E+03 1.84081E+03 3.44758E+01 2.06480E+02-2.04452E+02 1.14418E+02
 -1      1664-8.56613E+03 2.74819E+03 3.81227E+01-2.80442E+03-4.72058E+02 8.37974E+00
 -1      1665 4.00230E+03-1.76303E+03-3.93503E+01-5.97625E+02-2.11457E+02 1.42939E+01
 -1      1666-1.69198E+04 3.71044E+03 3.12978E+01-1.99374E+04 2.27872E+02-2.84012E+02
 -1      1667 1.61659E+04-6.08530E+03 5.56043E+01-1.59179E+04 6.78267E+02 6.57121E+01
 -1      1668-4.39367E+04 2.21726E+03 2.68002E+02 1.01161E+04 4.74510E+02 8.55022E+02
 -1      1669-2.99420E+04 3.32270E+03 3.22935E+01 7.25370E+03 4.02932E+02 1.50438E+03
 -1      1670-2.10134E+04-6.55225E+03 3.24788E+03 1.43780E+04-1.55744E+03 2.55347E+02
 -1      1671-2.12007E+04-4.42639E+03 2.94746E+03 1.13267E+04-1.15329E+03-5.63591E+02
 -1      1672-2.01258E+04-4.87303E+03 3.34974E+03 1.13030E+04-2.62509E+02-7.88911E+02
 -1      1673-2.18257E+04-2.89250E+03 3.23142E+03 8.06402E+03 2.43540E+02-8.85203E+02
 -1      1674-1.17656E+04-1.13945E+04 5.52153E+03 1.38101E+04 7.69202E+02 2.53381E+02
 -1      1675-1.81529E+04-2.41628E+04 3.88694E+03 2.09176E+04 2.17634E+03-1.18378E+03
 -1      1676-1.77237E+04-1.56547E+04 7.54115E+03 2.11980E+04-3.97471E+02 3.82747E+02
 -1      1677-1.18651E+05-6.26331E+04-2.81031E+04 7.06027E+04 5.30254E+03-7.72728E+03
 -1      1678-1.56998E+04-6.31182E+03 2.89918E+03 1.28927E+04 1.68242E+03-3.48538E+02
 -1      1679-1.85059E+04-3.30272E+03 2.73916E+03 1.03905E+04 1.04121E+03 3.85434E+02
 -1      1680-6.90774E+04-7.36110E+04-3.07448E+04 6.78375E+04 4.22533E+03-6.55881E+03
 -1      1681-2.19483E+04-3.03623E+03 1.69420E+03 8.92295E+03 5.97063E+02 7.76755E+02
 -1      1682-2.18292E+04-2.70356E+03 3.01564E+03 8.10049E+03 3.08651E+02-8.95631E+01
 -1      1683-1.44751E+04-1.23936E+04 5.42813E+03 1.61283E+04-3.22695E+03 1.57969E+03
 -1      1684-2.04399E+04-2.62670E+04 4.46984E+03 3.26192E+04-1.25660E+03 5.16246E+02
 -1      1685-1.84853E+04-2.65559E+03 3.96541E+03 8.83578E+03 8.54553E+01-2.27913E+02
 -1      1686-1.60871E+04-4.72624E+03 6.18354E+03 1.30515E+04-1.11464E+02 2.15036E+02
 -1      1687-5.45846E+04-6.30989E+04-1.51962E+04 5.75322E+04-5.47974E+03 1.67894E+03
 -1      1688-7.29439E+04-6.74761E+04-2.20234E+04 6.53008E+04 3.77139E+02-1.39678E+03
 -1      1689-2.28221E+04-2.64315E+04 1.58402E+03 2.55400E+04 1.79436E+03-2.56622E+03
 -1      1690-1.73794E+04-1.01441E+04 5.58414E+03 1.70193E+04-3.06542E+02-7.04263E+02
 -1      1691-3.27768E+04-3.44094E+04 4.47287E+03 3.67832E+04-3.85802E+03 4.83396E+03
 -1      1692-2.31040E+04-3.28052E+03 2.29498E+03 9.12222E+03-1.35669E+02-1.96996E+03
 -1      1693-1.01357E+04-1.55161E+04 3.88675E+03 1.37843E+04 2.27728E+03-1.33216E+03
 -1      1694-8.53531E+03-3.23789E+04 6.37487E+03 1.96114E+04-1.64699E+03 6.19394E+02
 -1      1695-1.86712E+04-4.72266E+03 2.88866E+03 1.13997E+04 3.45754E+02 1.94517E+02
 -1      1696-1.03496E+05-3.00336E+04-8.56368E+02-4.59789E+04 1.81917E+03-8.04512E+02
 -1      1697-1.01156E+05-2.37042E+04-7.42882E+02-4.12747E+04 1.87304E+03-4.13666E+02
 -1      1698 7.90890E+04-1.62243E+03-1.38193E+02 1.06048E+04-5.17930E+02-5.67144E+02
 -1      1699 3.03266E+03-1.22512E+04-7.45768E+02-2.63667E+04-1.47761E+03-2.33419E+03
 -1      1700-1.70641E+04-3.14588E+04 7.87013E+01-2.36340E+04-9.83089E+02-7.26661E+02
 -1      1701-2.39943E+04-3.85896E+04-7.40426E+01-2.86559E+04-1.12808E+03-8.79217E+02
 -1      1702-1.01022E+05-1.69626E+04-9.26561E+02-3.77283E+04 1.68225E+03 6.76298E+02
 -1      1703 1.57013E+03 4.49637E+03 6.54368E+01-2.87268E+03-4.92505E+01-8.72299E+01
 -1      1704 9.64647E+04-1.94249E+03 9.39870E+02-1.64301E+04-1.38042E+03 1.51172E+03
 -1      1705 8.49222E+04-1.06758E+03 1.73934E+02-1.75539E+04-8.78866E+02 1.98421E+03
 -1      1706 9.52307E+03 1.70585E+03-3.40547E+02-1.35862E+04 1.03650E+03 1.58066E+03
 -1      1707 2.16993E+04 2.18110E+03-1.01251E+02-1.65918E+04 2.27524E+02 1.64772E+03
 -1      1708-1.09388E+05 2.28449E+03-3.53539E+02-1.23551E+04-1.24560E+03-1.62029E+03
 -1      1709-1.50276E+05-3.37949E+04-2.71726E+04 5.72375E+04 3.47099E+03 4.24625E+03
 -1      1710-1.67573E+05-1.55311E+04-2.17425E+04 1.66000E+03-2.18668E+03 1.19428E+04
 -1      1711 2.78897E+04 8.65753E+03 9.11193E+01 1.89417E+04 1.08197E+03 2.06567E+02
 -1      1712 3.30212E+04 1.50384E+04 5.61122E+02 2.66198E+04 2.91425E+03 1.06042E+03
 -1      1713 2.75804E+04 1.21310E+04 4.10208E+03-2.37944E+04-6.01809E+02-2.80455E+03
 -1      1714 2.05006E+04 9.25283E+03 3.03550E+03-2.51870E+04-5.61881E+02-2.25749E+03
 -1      1715-1.59244E+04-4.55584E+04-1.36502E+01-3.09792E+04 1.20768E+03 1.13246E+03
 -1      1716-1.02354E+04-3.03040E+04-3.31169E+02-2.78519E+04 1.98173E+03 7.45617E+02
 -1      1717 2.01161E+04 1.95252E+04 2.67191E+02-2.93644E+04-2.38821E+03 1.77210E+03
 -1      1718-2.20639E+03 1.22930E+04 1.01181E+03-2.58435E+04-1.21552E+03 2.30930E+03
 -1      1719 1.09612E+05-1.35946E+03 3.78354E+02-1.21397E+04-1.55079E+03 9.58539E+02
 -1      1720 1.14434E+05-3.46769E+03 1.01547E+03-9.76394E+03-1.49911E+03 8.05874E+02
 -1      1721 5.00608E+04-7.67583E+02 1.39790E+02 1.27685E+04 3.55054E+02-3.65306E+02
 -1      1722 3.95336E+04 4.69468E+02-3.08548E+02 1.52028E+04 7.53595E+02 5.61817E+02
 -1      1723-1.15858E+04 3.04362E+01-2.03244E+02 1.91872E+03 6.60698E+02-1.03466E+01
 -1      1724 9.42301E+04 3.44215E+04 7.12839E+02-4.81352E+04 4.89069E+02 7.52181E+02
 -1      1725 1.02368E+05 3.02112E+04 1.51992E+03-4.58126E+04 2.11057E+03 6.78952E+02
 -1      1726 8.98646E+03 2.83226E+04 9.97972E+02-2.67504E+04 1.63988E+03-1.01515E+03
 -1      1727 3.80411E+04 2.80845E+04 1.18579E+03-3.59847E+04-2.29671E+03 1.36111E+03
 -1      1728-2.75207E+04-1.28993E+04-4.80338E+03-2.34522E+04-1.08925E+03 3.13530E+03
 -1      1729-6.51831E+03-1.43806E+04 1.63120E+01-1.57309E+04-1.29604E+03-1.04588E+02
 -1      1730-1.72047E+03-3.38878E+03 3.36836E+02-1.30142E+04-1.34230E+03-3.77080E+01
 -1      1731-1.25863E+03-4.05688E+03-4.39585E+01-2.45137E+03 3.42817E+01-1.21304E+02
 -1      1732-1.34061E+03-5.71642E+03 3.66146E+01-3.19473E+03-1.16705E+02-1.07845E+02
 -1      1733 1.80660E+03 6.86829E+03 7.52430E+01-3.73444E+03 1.31547E+02 1.62015E+02
 -1      1734-1.08413E+05-3.56808E+01-1.48182E+02 6.12239E+03-1.04448E+03-5.33241E+01
 -1      1735-1.01247E+05 5.15105E-01-7.47197E+01 6.97139E+03-9.67709E+02-6.97329E+00
 -1      1736-9.27486E+03-5.08291E+03-2.14030E+03-2.68463E+04-6.79514E+02 1.33915E+03
 -1      1737 1.62248E+05 3.09790E+04 3.77446E+04-1.20686E+04-4.60746E+02-1.21475E+04
 -1      1738 1.01001E+05 2.56341E+04 2.07719E+04-2.09598E+04-8.26191E+02-1.10454E+04
 -1      1739-3.60933E+04-6.36645E+04-1.69836E+03-4.08842E+04 4.67544E+01 9.72458E+02
 -1      1740 1.62776E+05 3.74472E+04 3.11377E+04 5.27941E+04 1.23593E+03-5.60262E+03
 -1      1741 8.28295E+03 3.69504E+04-2.61096E+03-2.23083E+04 5.47991E+03-8.51068E+02
 -1      1742 4.37813E+04 6.50778E+04 5.28570E+02-4.61773E+04-8.45492E+02-2.82816E+03
 -1      1743 3.69913E+04 6.45758E+04 8.31309E+02-4.24456E+04-5.68186E+02-1.83091E+03
 -1      1744-3.44190E+03-2.75191E+04 6.11359E+02-1.26184E+04 1.16067E+03-3.13775E+02
 -1      1745 5.03456E+04 1.70773E+04-1.53000E+03 4.19958E+04 6.41790E+03 8.04194E+02
 -1      1746 1.32195E+03 2.29886E+03-6.99022E+02-1.16163E+04 1.56113E+03 1.28583E+03
 -1      1747-1.36725E+04 1.80923E+03-5.22985E+02-2.69848E+03 8.80990E+02 1.00658E+03
 -1      1748-1.08781E+04 2.01756E+03-7.51174E+02-4.93784E+03 1.09693E+03 7.59679E+02
 -1      1749-1.28040E+04 2.36245E+02-4.65414E+02 1.95354E+03 7.49008E+02 3.66516E+02
 -1      1750-7.44730E+04-6.48967E+03-7.46208E+01-2.83771E+04 9.66793E+02 2.24600E+03
 -1      1751-8.81134E+04-1.15069E+04-7.72419E+02-3.33822E+04 8.34516E+02 1.87064E+03
 -1      1752-9.62537E+04 2.77600E+03-7.39860E+02-1.65399E+04-1.21190E+03-1.60563E+03
 -1      1753-8.48702E+04 8.94860E+02-4.99595E+02-1.78378E+04-1.10155E+03-1.73359E+03
 -1      1754 2.72638E+03 1.40712E+04 1.99200E+02-7.73489E+03 4.95692E+02 2.56334E+02
 -1      1755 3.20930E+03 1.95617E+04-1.32422E+02-1.03377E+04 1.07284E+03 2.06705E+02
 -1      1756-7.90121E+03 1.63342E+03-2.00438E+02-7.31939E+03 1.22269E+03 8.86664E+02
 -1      1757 1.75282E+03 1.19239E+03 4.12623E+02-2.79496E+04-3.40349E+02-3.11954E+02
 -1      1758-1.80354E+03-1.36014E+03-3.00819E+02-2.82164E+04-2.98755E+02 1.19981E+02
 -1      1759-5.14878E+03-2.73786E+03-8.53550E+02-2.76422E+04-5.28510E+02 6.41580E+02
 -1      1760-8.76027E+04 7.84877E+02-1.28875E+02 8.24446E+03-5.03814E+02-4.75911E+01
 -1      1761-9.29246E+04 4.56718E+02-3.19472E+02 8.13245E+03-6.03200E+02 7.83572E+00
 -1      1762-1.14867E+05 4.71782E+02-3.08947E+02 5.33944E+03-9.75898E+02-2.49156E+02
 -1      1763 1.23486E+03 2.36360E+03 1.30575E+02-1.66790E+03-5.56814E+01-1.30329E+02
 -1      1764 3.60891E+04 1.02864E+03-1.33375E+02-1.89440E+04 1.54284E+02 1.98215E+03
 -1      1765 1.99751E+04-1.57127E+03 7.92859E+03-2.84421E+04 7.80237E+03-1.62195E+04
 -1      1766-3.86025E+03-1.57487E+04-9.67867E+03-1.67281E+04 1.53717E+04 1.22361E+04
 -1      1767 1.87987E+03 4.11713E+01 1.99380E+01 9.09631E+02-4.18564E+01-1.42117E+02
 -1      1768 1.22222E+05-1.02596E+03 4.47304E+02 3.19425E+03-1.25646E+03 6.98346E+02
 -1      1769-1.12339E+03-4.32109E+02 5.56036E+01-6.08692E+02-2.98559E-01-1.30487E+02
 -1      1770-1.17048E+05 2.40152E+03-3.58924E+02-8.96678E+03-1.52200E+03-9.19016E+02
 -1      1771 1.40584E+04-4.07137E+02-2.98589E+01 1.69889E+03 1.08304E+03-1.95760E+01
 -1      1772 1.59382E+04-6.34139E+02 4.11589E+02 8.75411E+02 1.33124E+03-1.40466E+02
 -1      1773-2.07891E+04-2.60898E+03 2.05667E+02-1.73199E+04 4.94699E+02-1.84707E+03
 -1      1774-8.19599E+03-1.71360E+03 3.26461E+02-1.42267E+04 1.13242E+03-1.36247E+03
 -1      1775-8.66014E+04-3.93151E+04-4.57267E+02-4.93526E+04 9.58021E+02-1.21963E+03
 -1      1776 1.26656E+04-2.21057E+03 4.70594E+02-4.94850E+03 9.75685E+02-7.52102E+02
 -1      1777 1.04546E+04-1.45935E+03 2.36586E+02-7.19660E+03 1.37920E+03-8.33547E+02
 -1      1778-4.04109E+04-3.59416E+02-4.17086E+02 1.46377E+04 1.08877E+03-3.38289E+02
 -1      1779-3.29949E+04-3.93553E+03 1.00923E+03 1.69703E+04 1.36578E+03-2.75570E+02
 -1      1780 1.01290E+05 2.39177E+02 5.08164E+02 6.36702E+03-5.29221E+02-8.32528E+01
 -1      1781 2.16100E+03 6.87062E+03-2.64566E+02-1.34077E+04-1.01354E+03 2.06211E+02
 -1      1782 7.39129E+02 2.13691E+02 5.54767E+01 7.22499E+02-5.02886E+01-1.33060E+02
 -1      1783 6.47819E+01 5.17876E+01-1.03794E+01 4.86119E+02 3.16722E+01-1.95872E+02
 -1      1784-3.45684E+04-4.40829E+04 2.81213E+02-3.59991E+04-5.06467E+02-1.03875E+03
 -1      1785-3.30250E+04-1.30830E+04 9.11141E+02 2.88877E+04 3.95755E+03-2.15649E+03
 -1      1786-2.34819E+04-8.62123E+03 7.27165E+02 1.70915E+04 1.98740E+03-5.76022E+02
 -1      1787-4.42337E+04-4.09911E+04-1.42863E+03-3.87260E+04-1.07880E+03 1.35231E+03
 -1      1788-5.02861E+04-5.39432E+04-8.85704E+02-4.67220E+04-1.21844E+03 1.51215E+03
 -1      1789 4.80354E+03 2.58493E+03 9.57993E+02-2.79590E+04-2.38613E+02-6.29814E+02
 -1      1790 9.85703E+03 5.58963E+03 1.88825E+03-2.68130E+04-5.87250E+02-1.24296E+03
 -1      1791-5.10570E+03-3.66467E+04 1.55930E+03-1.66248E+04 2.08014E+03-2.16567E+02
 -1      1792 5.16123E+04 4.28439E+04 5.65649E+02-4.29571E+04-2.59657E+03-1.95842E+02
 -1      1793-4.78000E+04-5.96405E+04-5.49130E+02-4.73168E+04-2.73144E+03 3.22297E+03
 -1      1794-5.27313E+04-5.59406E+01-3.58143E+02-2.07226E+04-1.12982E+02-2.16509E+03
 -1      1795-2.92626E+04 6.46968E+03-7.30793E+01-2.89952E+04-9.48461E+02 2.26702E+03
 -1      1796 7.21761E+04-1.23702E+03-1.08918E+02 1.05478E+04-1.40400E+02-1.75382E+02
 -1      1797-7.96549E+04 1.07266E+03-2.25470E+02 1.00925E+04-3.68087E+02 8.24583E+01
 -1      1798-7.22057E+04 1.09348E+03-1.67625E+02 1.05374E+04-1.29888E+02 2.91537E+02
 -1      1799 1.05452E+05-6.77625E+02 3.81933E+02 6.48025E+03-1.04638E+03 2.63775E+01
 -1      1800 3.46814E+04 4.80059E+03-8.61529E+02 1.78094E+04 9.99104E+02 4.07916E+02
 -1      1801 1.18719E+05-4.39878E+02 3.59489E+02 4.07981E+03-1.38637E+03-1.24277E+02
 -1      1802-1.17022E+05 1.43769E+03-4.60301E+02 4.58024E+03-7.02867E+02-1.67435E+02
 -1      1803-1.22719E+05 1.18335E+03-5.21833E+02 3.01406E+03-1.17602E+03-2.54985E+02
 -1      1804 2.23322E+04 5.98060E+04 4.21545E+02-3.60382E+04 6.39231E+02-2.03352E+03
 -1      1805 2.47976E+03 7.61648E-01-5.52432E+01 9.33002E+02 6.73316E+01-1.20465E+02
 -1      1806 1.25080E+03 7.27064E+02 3.79514E+01-9.20881E+02-5.57743E+01 1.21795E+02
 -1      1807-3.98379E+03-5.32988E+01-3.78494E+01 8.78419E+02 1.91882E+01 1.19486E+02
 -1      1808-1.81767E+03 1.59999E+02 8.62020E+01 8.25629E+02 3.48165E+01 1.10286E+02
 -1      1809-1.06211E+03-1.94799E+03-1.12365E+02-1.63296E+03 4.36654E+01 1.43155E+01
 -1      1810-9.98120E+02-9.56224E+02-7.77329E+01-9.13432E+02-3.79552E+01 2.27861E+00
 -1      1811-9.33172E+02-3.31497E+02 6.52531E+01-5.96497E+02-4.14076E+01-4.85421E+01
 -1      1812-1.95998E+04-9.04709E+03-3.19503E+03-2.48907E+04-9.14445E+02 2.03523E+03
 -1      1813-1.19021E+05 3.70842E+03-6.27836E+02-2.27122E+03-1.41471E+03-2.48750E+02
 -1      1814-1.22436E+05 1.86647E+03-9.91995E+02-5.34616E+03-1.30359E+03-5.92467E+02
 -1      1815-6.71085E+03-4.62292E+04 3.38404E+03-2.13634E+04 6.30511E+03 1.08518E+03
 -1      1816-9.88104E+03-4.29369E+04 5.36351E+03-2.98338E+04 1.14312E+04 6.21021E+03
 -1      1817-4.66086E+04-4.29493E+04 1.96891E+02-4.02913E+04-6.73610E+01-1.12375E+03
 -1      1818-4.96235E+04-1.86734E+04-9.69213E+03-2.14582E+04-1.66899E+03 5.23890E+03
 -1      1819 1.66445E+04 3.40309E+04 1.66452E+02-2.31601E+04-1.59086E+03 6.72057E+02
 -1      1820-3.69960E+04-1.46835E+04-8.15101E+03-2.28655E+04-5.63686E+02 4.52856E+03
 -1      1821-8.01209E+04-2.27748E+04-1.35885E+04-2.11572E+04-1.86101E+03 7.54432E+03
 -1      1822-4.95277E+04 1.12267E+03 2.22839E+02 1.29601E+04 4.87232E+02 4.42938E+02
 -1      1823-1.05780E+05-2.45469E+04-1.73608E+04-2.05098E+04-3.38655E+03 9.85350E+03
 -1      1824-4.81440E+04-3.53488E+03 1.07879E+03 3.13701E+04 2.41634E+03-2.32236E+03
 -1      1825-6.22032E+04 1.97964E+03 2.17095E+02 1.25540E+04 3.75226E+02 4.22772E+02
 -1      1826-4.23964E+04-6.42281E+04-5.88518E+02-4.53032E+04-1.05288E+03 2.59618E+03
 -1      1827 6.34149E+04 1.91256E+04 9.92405E+03-2.12008E+04-1.35165E+03-6.20687E+03
 -1      1828 7.86921E+04 2.15474E+04 1.32023E+04-2.05180E+04-1.58901E+03-8.68224E+03
 -1      1829 1.33958E+04 3.82512E+04-6.09503E+03-3.03256E+04 1.07695E+04-3.33008E+03
 -1      1830 1.47847E+03 1.25544E+03 7.81918E+01-1.28607E+03-6.20545E+01 2.53110E+02
 -1      1831 1.41474E+03 1.45907E+03-4.25983E+01-1.45614E+03-1.11580E+02 1.64784E+02
 -1      1832 3.03014E+04 6.58905E+04 2.69106E+02-4.01902E+04 9.51627E+01-2.10378E+03
 -1      1833-6.15692E+04-1.93638E+04-9.88868E+03-2.19346E+04-1.28026E+03 5.36322E+03
 -1      1834 5.68933E+04 4.45153E+04-3.59041E+02-4.37399E+04 1.72143E+02 2.31885E+03
 -1      1835 4.54546E+04 4.18984E+04-4.54713E+02-3.84649E+04-3.38002E+02 1.98397E+03
 -1      1836-2.41521E+03-1.85653E+04 1.74233E+02-8.51321E+03 4.64965E+02-2.15894E+01
 -1      1837 6.81968E+04 4.32616E+04 3.79156E+02-4.75151E+04 1.77538E+02 1.70447E+03
 -1      1838-1.37623E+04-6.59480E+03-2.86890E+03-2.65338E+04-2.66054E+02 1.57327E+03
 -1      1839-1.06083E+04-2.34656E+04 1.15523E+02-1.86825E+04-1.01568E+03-3.77079E+02
 -1      1840-7.02019E+04 1.17057E+03-1.66274E+02-1.96691E+04 3.18460E+01-1.99781E+03
 -1      1841 8.61211E+04-1.21996E+03-8.85710E+01 9.33043E+03-6.03359E+02-4.28451E+02
 -1      1842 9.22258E+04-1.11038E+03 3.07530E+02 8.55349E+03-5.11872E+02-5.84279E+02
 -1      1843 1.16943E+03 3.80387E+01 2.82452E+01 8.57593E+02-4.91104E+01-1.55049E+02
 -1      1844 1.06546E+05 2.31186E+04 1.48185E+03-4.14719E+04 1.51483E+03-7.11451E+02
 -1      1845-5.59481E+03-1.19030E+02-1.56188E+01 1.54629E+03 2.88409E+02 2.79361E+02
 -1      1846-3.78041E+03-2.19913E+02-1.12073E+02 1.33603E+03 3.53975E+02 2.21033E+02
 -1      1847 8.17406E+03 4.23256E+02 5.07050E+02 2.27167E+03 5.51667E+02-2.73540E+02
 -1      1848 7.23279E+03 1.41518E+02 8.11804E+01 1.56627E+03 4.04868E+02-1.39396E+02
 -1      1849 1.06206E+04-4.49516E+02 2.31096E+02 2.57612E+03 3.96452E+02-1.32454E+02
 -1      1850-9.88376E+03-1.39607E+02-7.86848E+01 2.17549E+03 4.34986E+02 3.52812E+02
 -1      1851 1.50239E+04 4.60271E+04 5.62408E+02-3.06179E+04 1.53363E+03-7.65563E+02
 -1      1852 1.19263E+05-3.23395E+03 8.74237E+02-6.07545E+03-7.30885E+02 5.32333E+02
 -1      1853 7.09707E+04-1.04661E+03 1.91891E+02-1.93535E+04 1.13445E+01 2.26530E+03
 -1      1854-1.56445E+04 1.21585E+03-2.14916E+02-6.26233E+02 7.33488E+02 6.11646E+02
 -1      1855-1.73880E+04 5.48921E+02-2.69310E+02 8.75800E+02 4.72392E+02 4.62997E+02
 -1      1856-4.53586E+04-3.58372E+04-1.95963E+03-3.90407E+04-2.11230E+03 2.28810E+02
 -1      1857-5.71195E+04-4.46087E+04 5.17527E+02-4.54896E+04 5.97498E+02-2.22297E+03
 -1      1858 3.70735E+03 2.64339E+04-5.23800E+02-1.30018E+04 2.68271E+03-3.47978E+02
 -1      1859-3.42716E+04-1.12512E+03 8.46248E+01-1.71196E+04-5.06721E+01-2.90529E+03
 -1      1860-5.20786E+04 1.55156E+02-4.34528E+02-2.64657E+04-2.75707E+02 2.63205E+03
 -1      1861 4.85258E+03 2.78813E+02 1.58981E+02 1.12117E+03 1.26336E+02-1.65654E+02
 -1      1862-3.93784E+03-1.08400E+04-3.91191E+01-2.57409E+04 2.12240E+03 3.57506E+02
 -1      1863 1.41406E+04 6.84298E+03 2.40600E+03-2.61587E+04-5.57364E+02-1.67876E+03
 -1      1864 9.93156E+03 2.38997E+04 3.31606E+02-1.78567E+04-1.35589E+03 4.16057E+02
 -1      1865-5.26587E+04-1.60206E+04 1.16220E+03 4.49747E+04 7.81186E+03-2.38842E+03
 -1      1866 7.14931E+02-2.83653E+03 6.34917E+02-1.17986E+04 1.72942E+03-1.13172E+03
 -1      1867 1.13745E+05-4.38937E+02 1.45238E+02 5.40028E+03-9.81510E+02 2.50090E+02
 -1      1868 1.23346E+05-2.10531E+03 3.39369E+02 6.64307E+02-1.22847E+03 8.08504E+02
 -1      1869 1.17762E+05-4.10536E+03 6.16696E+02-2.31898E+03-1.40129E+03 3.33045E+02
 -1      1870 4.70168E+04-1.45929E+03-3.27235E+02-2.59635E+04 4.30110E+01-2.30149E+03
 -1      1871-1.49679E+03 4.93083E+01 5.40599E+01 5.64307E+02 7.47975E+01 1.63283E+02
 -1      1872 6.16134E+03 1.56795E+04-3.61273E+02-1.58964E+04-1.06864E+03 3.58341E+02
 -1      1873 3.49648E+04 4.06880E+04 3.95411E+02-3.35258E+04-2.53671E+02 3.91615E+02
 -1      1874-1.26123E+04-4.34847E+04 2.13826E+03-2.63547E+04 1.73716E+04 1.10573E+04
 -1      1875 5.13064E+04 8.39412E+02 1.93141E+02-1.89332E+04-6.95188E+01 2.42044E+03
 -1      1876 3.83377E+04 3.52269E+04 1.45649E+03-3.69886E+04-1.53264E+03-5.54151E+01
 -1      1877-1.23994E+05 1.38003E+03-8.17967E+02 8.42767E+02-1.45925E+03-8.33093E+02
 -1      1878-6.64460E+03-1.88155E+02-1.27836E+02 1.93417E+03 3.33434E+02 2.53900E+02
 -1      1879 1.94535E+04-7.89057E+02 7.58635E+02-3.25864E+02 8.83534E+02-7.14202E+02
 -1      1880 4.38577E+03 1.13124E+04-1.73851E+02-2.63799E+04 1.70097E+03-4.89296E+02
 -1      1881-1.90293E+03-1.35531E+04 2.24673E+02-6.41077E+03 9.46790E+01-1.71475E+02
 -1      1882-1.72259E+03-8.68382E+03 2.40561E+01-4.88360E+03-2.82124E+01-1.90518E+02
 -1      1883 4.75515E+04 1.67565E+04 8.45761E+03-2.20628E+04-1.52059E+03-4.80066E+03
 -1      1884 2.47247E+04 4.04115E+04 3.12909E+02-2.90319E+04-9.48360E+02 1.07689E+03
 -1      1885-2.20090E+04-5.74047E+04 2.29982E+02-3.55092E+04 1.05634E+03 1.69420E+03
 -1      1886-2.92397E+04-6.33057E+04-6.56118E+02-3.91022E+04 1.13166E+01 1.62131E+03
 -1      1887 4.56801E+04 5.74775E+04 5.64348E+02-4.48338E+04-1.64720E+03-1.61503E+03
 -1      1888 5.25574E+04 5.41597E+04 6.19176E+02-4.86191E+04-1.70860E+03-1.67840E+03
 -1      1889 9.88894E+04 1.71446E+04 1.08088E+02-3.85757E+04 2.25814E+03-1.50986E+03
 -1      1890 8.92836E+04 1.04813E+04-4.18336E+01-3.13330E+04 1.56878E+03-2.09676E+03
 -1      1891-9.49964E+04-3.46727E+04-1.16241E+03-4.75002E+04 4.06995E+02-7.89019E+02
 -1      1892 1.14050E+04 3.04695E+02 1.47647E+02 2.50328E+03 3.49768E+02-3.33570E+02
 -1      1893-1.67563E+04-2.01936E+04-4.02452E+02-2.92805E+04-2.23118E+03-1.35166E+03
 -1      1894-2.97534E+04-2.78417E+04-1.36499E+03-3.35948E+04-2.64309E+03-8.13287E+02
 -1      1895 3.68407E+04 1.42430E+04 6.89868E+03-2.24770E+04-7.86164E+02-4.41196E+03
 -1      1896 1.93169E+04 3.49900E+04-8.06026E+03-3.54073E+04 1.87792E+04-1.12253E+04
 -1      1897 6.25543E+04-1.78179E+03-1.37338E+02 1.25166E+04 3.15815E+02-3.54986E+02
 -1      1898 6.91422E+04 5.89913E+03 1.24361E+03-2.83976E+04 1.26954E+03-2.04589E+03
 -1      1899-2.22729E+02 9.74185E+01-1.11857E+01 3.62327E+02-6.42701E+01 1.26633E+02
 -1      1900-1.41721E+01 9.39157E-01-2.48047E+01 2.17749E+02-1.29848E+02 1.80613E+02
 -1      1901 1.41386E+03 6.16527E+02-2.42578E+01-7.31508E+02-1.31016E+01 1.81742E+02
 -1      1902-7.52687E+02 7.89037E+00-6.93743E+01 5.37834E+02-5.04684E+01 1.21143E+02
 -1      1903 5.43380E+02 2.00118E+02-4.43376E+01-1.40637E+02 7.43788E+00 1.86468E+02
 -1      1904 6.26985E+03-1.11379E+01 1.45519E+02 1.36746E+03 1.30134E+02-3.92398E+02
 -1      1905-5.56241E+01 3.02099E+02 5.50327E+01 3.65663E+02-5.26122E+01-1.09953E+02
 -1      1906-7.06983E+04-4.39316E+04-9.11063E+02-4.80024E+04-2.64541E+02-1.96827E+03
 -1      1907 1.90210E+04-1.65799E+03 2.86170E+00-2.30932E+03 3.85472E+02-1.13224E+03
 -1      1908-6.05748E+02 5.12425E+01-9.27766E+00-1.39567E+02-5.14990E+01-5.15608E+01
 -1      1909 8.38363E+04 3.80857E+04 1.57208E+02-4.84538E+04 6.49571E+02 9.77839E+02
 -1      1910 3.39266E+03-1.24691E+02-7.25767E+01 1.03629E+03 9.44909E+01-8.81051E+01
 -1      1911 2.93064E+04-6.21737E+03-3.24474E+02-2.78423E+04-7.67595E+02-2.10449E+03
 -1      1912 1.87226E+03 9.26654E+03-2.14153E+02-4.91474E+03 5.87395E+01 2.97370E+02
 -1      1913 2.21332E+03 1.92993E+02-4.25268E+00-5.15427E+02-8.51178E+01 1.47013E+02
 -1      1914 1.24809E+04 1.28250E+04 9.19264E+01-2.18895E+04-5.38114E+02 3.59385E+02
 -1      1915-3.63292E+04-3.69750E+03 4.51571E+02-3.10048E+04 6.36434E+02-1.74610E+03
 -1      1916-2.52204E+04-5.51394E+03-5.82397E+00-2.61692E+04 4.79887E+02-1.22869E+03
 -1      1917 1.02106E+05 1.59963E+03 4.08820E+03 4.07483E+04 3.49607E+03 4.76531E+03
 -1      1918 3.30068E+03 2.66810E+03 7.59055E+01-3.74085E+03-4.12168E+01-5.85091E+01
 -1      1919-2.57447E+03-3.01719E+03-3.45892E+02-3.14846E+03 1.61990E+02-1.41038E+02
 -1      1920-8.34121E+02 5.41041E+01 1.46496E+02 2.52602E+03 4.02572E+02-3.14255E+02
 -1      1921 8.09221E+02 2.01170E+02 7.96775E+01 2.37979E+03 4.47675E+01-1.41323E+02
 -1      1922-6.76717E+04 3.42658E+03-1.07626E+02-3.12361E+04-3.86281E+02-1.37595E+03
 -1      1923-5.56889E+04 1.77326E+03 5.64497E+01-3.31866E+04-3.89777E+02-1.56462E+03
 -1      1924 1.01980E+05-3.63960E+03-6.00421E+02 2.50019E+03-8.66980E+02 3.30772E+02
 -1      1925 1.00605E+05-3.90399E+03-5.35351E+02-1.13217E+03-1.22916E+03 7.87253E+02
 -1      1926-9.29336E+04 7.09635E+03 1.19140E+03-1.80110E+04-1.02223E+03-1.05118E+03
 -1      1927-6.58033E+03 2.52024E+04-7.03233E+02-3.05902E+04-3.34102E+03-4.26437E+02
 -1      1928-1.73337E+04 1.98202E+04 1.77360E+02-3.25317E+04-9.18856E+02 3.88824E+02
 -1      1929-2.85504E+03-5.53638E+03 3.68412E+01-5.39447E+03 4.26226E+01-3.23820E+01
 -1      1930-6.49801E+04 4.39236E+03 7.08077E+01 2.08704E+04 3.81600E+02-2.36435E+02
 -1      1931-6.95561E+04 3.65708E+03 1.20383E+02 1.71386E+04 1.15130E+02 2.02175E+02
 -1      1932 7.80791E+04 2.16012E+04-1.18413E+02-3.40937E+04 1.09043E+03 6.26045E+01
 -1      1933 7.61957E+04 2.51402E+04 1.04021E+03-3.23917E+04 1.62954E+03 6.29239E+02
 -1      1934-4.45000E+04-2.74063E+04-2.87428E+02-3.09820E+04-2.31081E+01-7.22275E+02
 -1      1935-3.63601E+04-2.79728E+04-2.58437E+02-3.02261E+04-2.94068E+02-5.88929E+02
 -1      1936 7.17179E+02 7.16513E+02-3.74831E+01-1.78237E+04 4.74844E+03 1.65002E+03
 -1      1937 1.92051E+04-6.70050E+03-1.06045E+03-1.90273E+04 7.18994E+02-5.39327E+03
 -1      1938 1.58834E+03-2.26538E+02 4.54200E+01 1.94688E+03 1.56459E+02 2.51187E+02
 -1      1939 9.35396E+02-3.77191E+01 1.13618E+02 2.14723E+03 2.14024E+02 3.47549E+02
 -1      1940-8.81084E+02-6.89089E+01 8.22907E+00 1.82139E+03 2.19684E+02-1.36464E+02
 -1      1941-2.86697E+04-4.22710E+04 2.40728E+02-2.87471E+04-1.68389E+03 1.96993E+03
 -1      1942-2.51032E+04-3.94824E+04-1.23769E+03-2.61859E+04-9.94472E+02 1.45939E+03
 -1      1943-2.14864E+03-4.56299E+03-3.00978E+02-6.04393E+03 1.40916E+03-9.30190E+02
 -1      1944-6.17624E+03-5.65120E+03 2.87601E+02-1.06582E+04 1.33093E+03-7.16619E+02
 -1      1945 1.44763E+04 6.59883E+03 4.27628E+02-1.64825E+04 1.29036E+03 1.20920E+03
 -1      1946-9.88274E+03-5.83611E+03-6.54021E+02-2.93605E+04-6.83906E+02-2.10582E+01
 -1      1947 1.26400E+03-6.01156E+02 1.29409E+02 2.72249E+03 3.68687E+02-2.47172E+02
 -1      1948-3.52229E+02-3.15091E+02 2.50762E+02 3.17729E+03 6.52947E+02-2.70501E+02
 -1      1949 2.93446E+04 4.29651E+04 1.00885E+03-2.75193E+04-1.52909E+03-1.54853E+03
 -1      1950 6.40099E+03 7.97185E+03-9.60255E+01-2.02668E+04-3.11297E+02 2.36351E+02
 -1      1951-3.12579E+04-4.35934E+04 1.13753E+03-2.91195E+04-1.73643E+03 1.85918E+03
 -1      1952 3.41936E+03 1.73405E+03 1.26859E+02-2.58056E+03-6.72543E+01 1.25797E+02
 -1      1953-6.31507E+04-1.09622E+04-4.52725E+02-3.82517E+04 1.15060E+03 7.41660E+02
 -1      1954-7.08006E+04-1.78126E+04-3.30538E+02-3.80268E+04 1.14475E+03 6.22867E+02
 -1      1955-6.79614E+04-6.98223E+02 4.09346E+02 3.75759E+04 2.84802E+03-2.40277E+03
 -1      1956 1.63710E+04 2.11138E+04-1.98388E+03-2.85773E+04 3.82350E+03-1.63336E+03
 -1      1957 1.19860E+04 2.03580E+04-6.20254E+02-2.50697E+04 1.27003E+03-7.15088E+02
 -1      1958-1.01053E+04-2.40196E+04-2.62247E+02-2.30347E+04 9.03256E+02-7.91380E+01
 -1      1959-1.25393E+04-3.06667E+04 1.34762E+03-2.68650E+04 1.84276E+03 3.86807E+02
 -1      1960 9.69496E+03 6.00309E+03 3.06658E+02-2.94237E+04-9.32162E+02 8.48556E+01
 -1      1961-6.89219E+04-2.99546E+04 6.78472E+02-3.46547E+04 1.29385E+03-5.64344E+02
 -1      1962-6.11186E+04-2.86181E+04 7.62818E+02-3.31951E+04 5.39197E+02-1.09988E+03
 -1      1963 7.16146E+04 1.62531E+04-4.36019E+02-3.56898E+04 1.08711E+03-4.94976E+02
 -1      1964-2.77515E+04-2.07509E+04 2.40152E+01-2.71589E+04-9.05059E+02-8.21349E+02
 -1      1965 5.42144E+04 3.42437E+03-4.44754E+01-3.77405E+04 4.09121E+01-7.43636E+02
 -1      1966 8.85366E+04 7.89703E+03 3.26191E+03-2.07739E+04-1.94196E+03 5.06455E+02
 -1      1967 6.50910E+04 8.78813E+03 1.38801E+03-2.17923E+04-2.01659E+03 4.54490E+02
 -1      1968-3.11644E+02-7.00304E+01 3.68416E+01 1.39963E+03 9.68025E+01-6.14669E+01
 -1      1969 3.85869E+02-1.96068E+02-2.58300E+02 1.12450E+03 3.42590E+01 2.95322E+01
 -1      1970-2.60119E+03-1.80181E+03-4.43492E+01-2.49039E+03-5.94258E+00 1.01543E+01
 -1      1971 1.34156E+03 2.66346E+02 1.26952E+02 5.65462E+02 1.22959E+02 6.81292E+01
 -1      1972 8.77339E+04-1.26302E+03 1.74815E+02 1.05042E+04-8.34332E+02 4.07426E+02
 -1      1973 8.25631E+04-1.59998E+03-2.44051E+02 1.22831E+04-5.55511E+02 3.93913E+02
 -1      1974-9.25034E+04 1.83325E+03 1.96407E+02 9.46386E+03-7.98935E+02-3.38684E+02
 -1      1975-9.65825E+04 2.65203E+03 4.42095E+01 7.42527E+03-7.52317E+02-3.74284E+02
 -1      1976-1.90695E+03-4.56237E+02-1.02664E+02-7.56916E+02 1.68625E+01-3.79301E+01
 -1      1977 8.95705E+04-2.48090E+03-4.35458E+02 9.18499E+03-1.35987E+03 1.64506E+02
 -1      1978 9.79572E+04-2.04512E+03 1.32932E+02 7.22943E+03-8.26262E+02 1.71222E+02
 -1      1979-5.74659E+02-3.23792E+03 8.66420E+00-2.53669E+03 1.22081E+03-7.23933E+02
 -1      1980-3.04326E+03-4.48882E+03-1.13654E+02-4.64007E+03 1.99994E+02-2.77863E+02
 -1      1981-3.81696E+03-1.07995E+04 5.20935E+00-1.01441E+04-1.30152E+02-1.87096E+02
 -1      1982-5.34602E+03-1.41181E+04-4.41678E+01-1.35144E+04 4.14365E+01-2.78275E+02
 -1      1983 9.65410E+03 1.74611E+04 7.92626E+01-1.98752E+04 8.25123E+02-3.82460E+01
 -1      1984 8.23803E+03 1.32849E+04 1.04051E+02-1.55407E+04-3.12988E+01 9.62247E+01
 -1      1985 1.42912E+03-1.34221E+02 8.37191E+01 9.82533E+02 9.86314E+01 1.83621E+02
 -1      1986-2.19168E+04-9.77331E+03-2.08989E+02-2.67686E+04-9.73242E+02-8.71718E+01
 -1      1987-8.25750E+04 1.44912E+03-7.13481E+01 1.23604E+04-8.92383E+02 6.91021E+01
 -1      1988 2.37273E+04 9.07096E+03-3.93265E+03-2.97258E+04 5.54696E+03-4.30005E+03
 -1      1989 5.12387E+04-1.36568E+03-9.22039E+01 2.38852E+04 1.49813E+03 5.05826E+02
 -1      1990-8.63622E+04 1.52877E+03 2.58664E+02 1.10533E+04-6.11516E+02-4.19784E+01
 -1      1991-2.98920E+04-1.16136E+04-1.10165E+03-2.58208E+04-8.99831E+02 4.93366E+02
 -1      1992-3.97743E+04-1.17708E+04-2.42620E+03-2.47685E+04-1.50064E+03 6.73725E+02
 -1      1993 2.79581E+04 3.79715E+04 2.63693E+01-3.28797E+04-7.89904E+01-1.57521E+03
 -1      1994 2.24200E+04 3.19889E+04 2.81652E+02-3.56023E+04 3.68940E+02-6.32549E+02
 -1      1995 2.41477E+03 1.21677E+02-1.58429E+02-2.46300E+02-5.06633E+01 8.08820E+01
 -1      1996 5.25834E+02-1.20821E+03 8.12731E+00 2.44603E+03 5.50266E+02-1.62936E+02
 -1      1997-3.90616E+03-7.94331E+03-6.15846E+01-7.92052E+03-1.00435E+02-1.10307E+02
 -1      1998 1.54247E+03-1.86223E+03-6.72244E+01 1.10899E+03 7.25294E+02-1.73413E+02
 -1      1999-1.33174E+03 1.56539E+03 1.40996E+02 1.39142E+03 2.82219E+02 5.87532E+02
 -1      2000 6.59061E+02 3.08415E+03 2.77539E+01-4.77290E+02 7.03187E+02 6.18612E+02
 -1      2001 2.09813E+04 3.78178E+04-3.22979E+02-2.74122E+04-1.66871E+03-1.36761E+02
 -1      2002-1.24716E+04-1.11670E+04-1.06422E+02-2.25788E+04-5.46362E+02-2.69047E+02
 -1      2003-1.91416E+04-1.80333E+04-1.45493E+02-2.40475E+04-6.38275E+02-2.82630E+02
 -1      2004 4.31073E+04 2.59487E+04-2.82008E+02-2.93423E+04-1.42798E+02 1.03104E+03
 -1      2005 5.10822E+04 2.89861E+04-6.24069E+02-3.17962E+04 2.38698E+02 1.19254E+03
 -1      2006 9.56051E+03 1.05881E+04-6.91307E+01-3.97976E+04 9.04926E+02-6.81602E+02
 -1      2007 6.01368E+02 1.94241E+02-6.92150E+01-4.06643E+04 1.23296E+03-1.48479E+02
 -1      2008-9.14375E+02-3.77431E+02 9.51043E+01-2.11491E+04-8.06450E+02 1.35825E+02
 -1      2009 1.62340E+04 8.67833E+03 2.84731E+02-2.79923E+04-5.40784E+02-1.36326E+02
 -1      2010 2.18664E+04 9.29469E+03 2.59981E+01-2.71314E+04-4.56907E+02 5.62425E+00
 -1      2011-7.25715E+04 3.29713E+03 8.08744E+01 1.57868E+04-4.00173E+02 2.17496E+02
 -1      2012-8.36830E+04 7.64659E+03-1.05363E+02-2.32193E+04-1.21126E+03-1.01131E+03
 -1      2013-7.07833E+03-3.18276E+04-5.49038E+02-2.81650E+04-2.20060E+03 7.44060E+01
 -1      2014 7.42844E+04-6.50880E+03-4.01302E+02-2.84390E+04-1.38555E+03 1.07348E+03
 -1      2015 5.51695E+04-1.35027E+03 2.01505E+02-3.30463E+04-4.49498E+02 1.76296E+03
 -1      2016 4.54468E+04 1.52612E+03-1.83989E+02-3.23199E+04 1.14728E+00 1.48703E+03
 -1      2017 6.77266E+04 2.77744E+04 3.37185E+02-3.24941E+04 7.82104E+02 1.09700E+03
 -1      2018 6.09348E+04 2.74852E+04-5.12927E+02-3.18792E+04 5.88845E+02 1.74046E+03
 -1      2019 7.45620E+04 2.86834E+04-6.90006E+02-3.39254E+04 8.63797E+02 5.20543E+02
 -1      2020 9.39857E+04-6.71811E+03-2.91971E+02-1.21603E+04-1.55076E+03 1.21951E+02
 -1      2021 9.72503E+04-6.35076E+03-5.58146E+02-6.16434E+03-1.38872E+03 2.05218E+02
 -1      2022 7.70856E+04 2.71640E+04 8.82644E+02-3.27301E+04 1.40322E+03 1.07480E+03
 -1      2023-3.02291E+03-2.50244E+03-4.78139E+01-3.03651E+04-1.01606E+03 8.19108E+00
 -1      2024 5.49432E+02 5.32691E+02-1.19256E+01-3.07391E+04-5.79790E+02-1.02455E+02
 -1      2025 1.89492E+04 1.89729E+04 1.81976E+02-2.29645E+04-3.27900E+02 1.49746E+02
 -1      2026-7.46604E+04 6.17569E+03 2.78303E+01-2.87471E+04-1.86571E+03-1.24286E+03
 -1      2027 4.45917E+04-3.95074E+03-4.30846E+02-3.83243E+04-5.50769E+02-5.66828E+02
 -1      2028 5.16309E+04 1.08757E+04 1.28575E+03-2.37594E+04-1.75595E+03 2.92506E+02
 -1      2029-2.70180E+03-1.42498E+03-6.52458E-01-2.01274E+03 5.76822E+01-4.52358E+01
 -1      2030-4.88453E+04-1.52939E+03 3.04700E+01-3.37008E+04-3.81810E+01-1.45279E+03
 -1      2031 3.52788E+04 2.26884E+04 5.60294E+01-2.66882E+04 4.06040E+01 6.60572E+02
 -1      2032 2.67024E+04 2.38498E+04-1.35397E+02-2.54671E+04-3.14335E+02 2.76688E+02
 -1      2033-5.22515E+04-2.76898E+04 4.88521E+02-3.19983E+04 7.52885E+02-8.00276E+02
 -1      2034-1.73002E+04-5.51571E+03 6.03115E+03-2.08484E+04 4.67254E+03 7.29437E+03
 -1      2035 3.46806E+03 4.12901E+03 4.88004E+02-4.50556E+03 1.45102E+02-2.37010E+02
 -1      2036 3.72900E+04 3.98009E+03 2.24241E+02-3.03497E+04 7.37480E+02 1.33856E+03
 -1      2037 2.14915E+03-2.82818E+02 2.89848E+01 1.32271E+03 1.72895E+02 1.65036E+02
 -1      2038 8.02855E+04-1.73072E+03-1.20868E+02 1.29131E+04-4.08333E+02 5.64061E+01
 -1      2039 1.64197E+04 1.87899E+04 4.03174E+02-3.80095E+04 5.30934E+02-1.02200E+03
 -1      2040-9.99043E+04 6.66852E+03 2.58875E+02-8.12458E+02-1.22315E+03-3.91644E+02
 -1      2041 6.96088E+04-3.45390E+03-2.05070E+01-3.01694E+04-3.45727E+02 1.49715E+03
 -1      2042 5.30765E+02 8.12950E+02 3.39345E+02 2.12482E+03 5.50103E+02 4.34573E+02
 -1      2043-3.37177E+02 2.08842E+02-1.18497E+02 2.53793E+03 1.59325E+02 2.96578E+02
 -1      2044 2.11529E+04 7.05277E+03 6.34013E+01-2.22056E+04 1.33505E+03 9.45003E+02
 -1      2045 2.92625E+04 1.09485E+04 8.60640E+02-2.63366E+04-6.73525E+02 1.15441E+02
 -1      2046 3.69395E+04 1.13139E+04 1.40943E+03-2.53816E+04-1.07431E+03 7.23958E+01
 -1      2047-1.64936E+04-1.89580E+04 5.54137E+01-3.78369E+04 6.67330E+02 1.23916E+03
 -1      2048-7.61156E+04-2.36388E+04 4.10502E+01-3.58873E+04 1.55603E+03-8.91916E+02
 -1      2049-1.62481E+04-8.68739E+03-7.35892E+02-2.79342E+04-9.72493E+02 5.42712E+01
 -1      2050-6.32911E+03-4.62740E+03-4.20193E+02-2.98624E+04-9.02593E+02-1.22989E+01
 -1      2051-9.89504E+04 3.83674E+03-4.99352E+01 5.73539E+03-1.07886E+03-2.81882E+02
 -1      2052 6.89163E+04-3.78603E+03-3.25782E+02 1.70785E+04 1.35554E+02-2.16792E+02
 -1      2053 6.50387E+04 8.42049E+01 6.90446E+02 3.39559E+04 2.40340E+03 2.53264E+03
 -1      2054-4.98134E+04-1.28411E+04-2.02559E+03-2.40165E+04-1.69051E+03 1.18879E+01
 -1      2055-6.78161E+03-6.03729E+03-1.63535E+02-2.13823E+04-4.29763E+02-6.80751E+01
 -1      2056 1.09020E+05-4.02090E+03 2.29553E+03-1.01991E+04-1.65837E+03 6.76372E+02
 -1      2057 1.70368E+04-1.91856E+04-1.79218E+02-3.25143E+04-1.60441E+03-1.28859E+03
 -1      2058 7.70620E+03-2.72835E+04-1.07363E+03-3.03207E+04-2.62242E+03-5.61498E+02
 -1      2059 6.86205E+03 5.41726E+03-4.71239E+02-7.31014E+03 1.53651E+03 7.48376E+02
 -1      2060 8.28539E+04-7.48953E+03-4.78119E+02-2.34325E+04-1.33841E+03 9.09274E+02
 -1      2061 9.03780E+04-6.34731E+03 4.27606E+02-1.75312E+04-1.75745E+03 7.29211E+02
 -1      2062 3.14508E+04-1.17885E+04-1.24435E+02-3.59627E+04-6.38781E+02-9.24261E+02
 -1      2063-7.60993E+04-2.82118E+04 1.07512E+02-3.18264E+04 1.41596E+03-5.23697E+02
 -1      2064-7.84490E+04-3.13733E+04 8.34596E+01-3.66165E+04 1.38040E+03-3.46602E+02
 -1      2065-7.53053E+04 2.52249E+03-1.24282E+01 1.45257E+04-4.31229E+02 2.37621E+02
 -1      2066-9.97260E+04 4.05619E+03-2.17152E+02 2.58292E+03-8.32158E+02-6.72943E+02
 -1      2067-2.11752E+04-3.65767E+04-6.14826E+02-2.70592E+04-1.35895E+03 3.48201E+02
 -1      2068 1.22428E+05-1.27155E+04 3.71855E+03 1.23068E+04 2.91589E+02 2.18696E+03
 -1      2069-5.55412E+04 9.20155E+02 2.08118E+02 2.65219E+04 1.24853E+03-1.37700E+03
 -1      2070-6.95458E+04 5.94157E+03-5.27591E+01 3.20218E+04 2.06371E+03-2.70962E+03
 -1      2071-7.95803E+04 1.98016E+03-8.68138E+01 1.27919E+04-6.64557E+02 1.36838E+02
 -1      2072 7.27340E+01 3.09700E+03 3.50293E+02-2.83128E+03 4.61109E+02 5.69844E+02
 -1      2073-5.43360E+04-3.93686E+03 5.16031E+02-3.91291E+04 3.84312E+02 1.06327E+03
 -1      2074-2.99645E+04-3.68538E+04 2.81493E+02-3.03721E+04-1.27284E+02 1.44078E+03
 -1      2075-2.77912E+04-3.53965E+04 3.22757E+02-3.25975E+04-2.23175E+02 1.48576E+03
 -1      2076-1.58474E+03-8.88704E+01-6.25814E+01 3.57690E+01-8.73381E+01-1.38120E+02
 -1      2077-2.12160E+04-7.50234E+03-8.32870E+02-2.31456E+04 1.42641E+03-8.49317E+02
 -1      2078-7.48820E+03-2.05777E+04-8.86758E+01-1.80152E+04-1.14694E+01-5.08376E+02
 -1      2079 2.74170E+04 5.52649E+03-2.13283E+02-2.63270E+04 3.57588E+02 1.38708E+03
 -1      2080 7.31659E+04-3.07229E+03-1.51083E+02 1.54345E+04-1.38837E+02-6.72949E+01
 -1      2081 8.02501E+03 5.74594E+03-3.09501E+02-1.09850E+04 9.86780E+02 7.35246E+02
 -1      2082-4.49217E+04 3.14847E+03-3.35342E+02-3.74583E+04-8.26639E+02 7.45292E+02
 -1      2083-3.13657E+04 1.15808E+04-1.13311E+03-3.61802E+04-9.51891E+02 5.27682E+02
 -1      2084-1.58702E+04-2.51773E+04 1.58819E+03-3.09528E+04 4.53103E+03 2.55025E+03
 -1      2085 3.38752E+04 4.34955E+04 7.81298E+02-2.91832E+04-1.07819E+03-1.70457E+03
 -1      2086 5.35419E+03 1.04286E+04-6.78197E+01-1.13337E+04-1.41045E+01 1.95044E+02
 -1      2087-5.94872E+04 4.34461E+03-2.51356E+02 2.27613E+04 6.76086E+02-4.87719E+02
 -1      2088-2.33709E+04-3.14620E+04-5.59225E+02-3.55976E+04 3.30828E+02 6.11936E+02
 -1      2089 5.75815E+04-3.23628E+03 6.61622E+02 2.21793E+04 7.50187E+02-1.13915E+02
 -1      2090 3.34574E+03 2.37421E+03-5.07462E+01-3.06640E+04-5.26450E+02-1.39584E+02
 -1      2091-9.74626E+04 5.79991E+03 4.13002E+02-6.12924E+03-1.49648E+03 1.80648E+02
 -1      2092-1.27654E+04-7.33323E+03-6.78529E+02-1.64783E+04 1.24102E+03-1.08436E+03
 -1      2093 7.38115E+03 3.31463E+04 3.97296E+01-2.90626E+04-2.97907E+03-5.39157E+02
 -1      2094-9.40572E+04 7.49390E+03-7.21912E+02-1.21549E+04-1.29714E+03-5.79861E+02
 -1      2095-1.15076E+05 1.43091E+04-6.63961E+02 1.20521E+04-1.52029E+02-1.17199E+03
 -1      2096-1.67161E+03-1.68385E+02-7.00114E+01 1.04359E+02 2.53743E+01-1.34863E+02
 -1      2097 6.54879E+03 4.83421E+03 1.83790E+02-2.99589E+04-7.14482E+02 5.08178E+01
 -1      2098 2.73010E+03 6.86310E+02 5.13849E+01-1.42851E+03-7.92085E+01 1.19714E+02
 -1      2099-8.92541E+03-8.98135E+03-1.44725E+02-3.97314E+04 9.69197E+02 9.00353E+02
 -1      2100-9.75150E+04 2.30569E+03-1.10050E+03 3.65844E+04 3.18622E+03-3.19453E+03
 -1      2101 3.93257E+02-3.41581E+03 3.53180E+01-1.56501E+02 9.04546E+02-5.75869E+02
 -1      2102-8.75498E+04-6.35429E+03-2.28820E+03-2.04027E+04-1.53844E+03-6.29025E+02
 -1      2103-1.09018E+05 2.84503E+03-2.93402E+03-1.09761E+04-1.79355E+03-4.02882E+03
 -1      2104 3.15899E+04 4.50837E+04 2.91298E+01-2.93961E+04-1.48223E+03-2.22272E+03
 -1      2105 3.06122E+04 3.92525E+04 4.43065E+02-2.95302E+04-1.21210E+03-2.37108E+03
 -1      2106 7.56631E+04-2.50674E+03-3.05407E+02 1.43026E+04-3.73386E+02 3.92650E+00
 -1      2107 2.32193E+03 1.44721E+02-8.00208E+01 2.57331E+03 4.13269E+02 2.94089E+02
 -1      2108 2.22065E+03 4.84556E+02-9.99540E+01-8.79888E+02-9.77785E+00 1.49064E+02
 -1      2109-6.33208E+04-6.69626E+03-1.32137E+02-2.09980E+04-1.27140E+03 1.40967E+02
 -1      2110-2.27771E+04-2.17873E+04 4.04564E+03-3.06121E+04 5.87005E+03 5.73428E+03
 -1      2111 9.60210E+04-3.10595E+03 4.30853E+02 5.53084E+03-2.13961E+03 7.84096E+02
 -1      2112-2.59980E+03-9.75196E+02-2.35190E+02-1.56725E+03 1.38774E+01 3.67045E+01
 -1      2113 6.47117E+04-4.01707E+03 8.18511E+01 2.00332E+04 4.82003E+02-2.17013E+02
 -1      2114 5.87538E+04 1.03410E+04 7.17618E+02-3.82834E+04 9.19207E+02-9.76966E+02
 -1      2115-7.64035E+04-2.54528E+04-4.14153E+02-3.26880E+04 2.01189E+03-6.99653E+02
 -1      2116-1.97073E+02-1.02805E+02-1.82927E+02 6.17961E+02-3.07713E+01-1.11268E+02
 -1      2117 7.14809E+04 1.85144E+03 1.26261E+03 4.00876E+04 4.46122E+03 3.26989E+03
 -1      2118 4.23235E+03 6.05511E+03 3.77719E+02-6.46896E+03 1.76353E+02-1.30168E+02
 -1      2119 2.32261E+04 3.75866E+04 8.10379E+02-2.69901E+04-2.04021E+03-1.92613E+03
 -1      2120 3.28955E+03 2.21311E+03 1.55336E+01-3.19297E+03-1.24884E+01 5.07704E+01
 -1      2121 5.18139E+04 3.81026E+02-3.99447E+02 2.72371E+04 1.60855E+03 1.25783E+03
 -1      2122-1.92641E+03-3.83149E+02-6.83261E+01-6.22166E+02-7.99077E+00-3.35116E+01
 -1      2123-1.01765E+03-1.27411E+02-1.50727E+02 8.30807E+02 2.10998E+01-7.99985E+01
 -1      2124-3.26247E+04-4.38504E+04-5.00295E+01-2.87600E+04-8.12304E+02 1.93723E+03
 -1      2125 3.00065E+03 1.26708E+03-5.57239E+01-2.05758E+03-1.22745E+02 2.01430E+02
 -1      2126 1.81961E+03 4.22619E+01-1.32414E+01 3.09708E+02-6.51893E+01 1.68042E+02
 -1      2127 4.20827E+03 8.76370E+03 7.42092E+01-8.22464E+03 4.20398E+02 1.34133E+02
 -1      2128 4.84884E+04-7.44690E+03-1.49572E+02-4.16819E+04-1.08892E+03 1.37835E+02
 -1      2129 5.50656E+04-3.59864E+03-1.59775E+02-4.14327E+04-4.45331E+02 5.50383E+02
 -1      2130 5.91053E+04-6.99526E+03-2.56796E+02-3.81709E+04-1.41458E+03 5.11518E+02
 -1      2131 4.17764E+04-1.96161E+04-1.13079E+03-3.07937E+04-1.70515E+03-5.33924E+02
 -1      2132 5.96929E+04 2.05262E+04 8.03454E+00-2.25682E+04 1.30383E+03 1.40132E+03
 -1      2133 5.88018E+04 2.01298E+04 5.57215E+01-2.30438E+04 1.10950E+03 9.57379E+02
 -1      2134-9.70555E+03 4.27845E+02-2.99726E+02 2.05192E+03 5.39749E+02-4.84444E+02
 -1      2135-8.69944E+03 5.56579E+02 2.45550E+01 1.86270E+03 3.22280E+02-6.25106E+02
 -1      2136-7.38502E+03-5.58227E+03-1.51874E+02-3.19506E+04-8.19048E+02-3.51180E+02
 -1      2137-3.83811E+03-4.03091E+03 5.54468E+01-3.34542E+04-7.59327E+02-1.54826E+02
 -1      2138 9.31536E+03-4.74110E+03-5.12938E+02-1.74900E+04-1.06119E+02-1.58817E+02
 -1      2139 2.15907E+04-2.63665E+03 8.44096E+00-2.19356E+04 5.51040E+02-1.26287E+03
 -1      2140 1.40780E+04 3.43589E+04 7.85357E+02-1.58354E+04-1.47606E+03-1.12230E+03
 -1      2141-4.56976E+02 3.18966E+04-2.32441E+02-1.74102E+04-2.50075E+03-1.52048E+03
 -1      2142-6.95318E+04 1.44421E+04-9.36753E+02-1.82783E+04-1.03988E+03-6.58565E+02
 -1      2143 1.76514E+04 4.17601E+03-1.36215E+02-1.47887E+03 4.78589E+02 3.74716E+02
 -1      2144 4.03352E+04 1.46951E+04 3.84358E+02-2.35723E+04-3.30070E+02 9.48928E+02
 -1      2145 4.63071E+04 1.83376E+04 1.01522E+02-2.40297E+04 3.83959E+01 3.93557E+02
 -1      2146 2.34790E+04 8.95482E+03 1.75924E+02-2.74963E+04-8.89284E+02 2.79771E+02
 -1      2147 3.33471E+04 8.77922E+03 2.41472E+02-2.57326E+04-1.03077E+03 9.52401E+02
 -1      2148 7.45479E+03 5.83075E+03-3.52184E+00-3.21185E+04-8.61782E+02 4.07165E+02
 -1      2149 1.16028E+04 7.23798E+03 1.05404E+02-3.06640E+04-6.01697E+02 1.61081E+02
 -1      2150 2.46542E+04 2.53870E+04 3.38892E+02-2.17657E+04-8.64020E+02-1.83826E+03
 -1      2151 2.64781E+04 2.31671E+04 2.50491E+02-2.68007E+04-4.29649E+02-1.18076E+03
 -1      2152 1.15472E+04 2.02305E+03 7.65365E+02 8.57906E+02 9.64469E+02 4.96232E+02
 -1      2153 1.94505E+04 9.52104E+03-9.16522E+02-2.67763E+04 8.72962E+02-4.33423E+02
 -1      2154-7.30589E+04 1.25541E+04-5.74236E+02-1.19950E+04-1.34179E+03 5.03927E+01
 -1      2155-5.58115E+03 4.21868E+02 9.71597E+01 6.22230E+02 1.60687E+02 2.06995E+01
 -1      2156-3.65660E+03 1.00375E+02 9.47544E+01 5.97670E+02 1.36056E+02 2.21430E+01
 -1      2157 4.91456E+04 6.47116E+03-1.10992E+02-4.20261E+04 7.05834E+02 8.58515E+01
 -1      2158 5.10093E+04 8.93056E+02-3.44363E+02-4.29951E+04 7.81535E+01-3.84099E+01
 -1      2159-4.53119E+04-4.00887E+03 4.00022E+02-3.89456E+04 3.94597E+02-3.32911E+02
 -1      2160-4.98816E+04 9.51217E+01 3.31220E+02-4.32444E+04 3.34473E+02-4.43231E+02
 -1      2161-5.06284E+04 3.06190E+02 7.21503E+02-4.09183E+04 7.69482E+01-4.43880E+02
 -1      2162-4.30195E+04-9.47321E+03 1.31175E+02-3.76878E+04 1.19467E+03-2.68988E+02
 -1      2163 9.78576E+04-1.45611E+04-6.02867E+02 4.58508E+03 6.21587E+01 2.45831E+03
 -1      2164-1.02959E+04 3.01432E+04-1.67158E+03-2.03020E+04-2.04145E+03-1.28559E+03
 -1      2165-2.58680E+04 2.51285E+04 1.08705E+02-2.49717E+04-1.90323E+03-6.57241E+02
 -1      2166-1.23425E+04-7.43919E+03-1.47441E+02-3.08206E+04-6.73543E+02-1.77743E+02
 -1      2167-5.48131E+03-1.78572E+03 1.14574E+03-1.76719E+04 6.29256E+02 2.03153E+03
 -1      2168 4.30807E+04 7.63224E+03 3.89912E+02-2.38752E+04-1.21477E+03 6.65202E+02
 -1      2169 7.66276E+04-6.01862E+03-1.57220E+01 4.16699E+03-1.65469E+03 4.08850E+02
 -1      2170 7.38511E+04-5.40199E+03 4.15099E+02 7.78597E+03-1.27378E+03 1.36598E+02
 -1      2171-2.31517E+04-2.43330E+04 3.34446E+02-2.04171E+04-9.17070E+02 1.51900E+03
 -1      2172-2.36124E+04-2.96488E+04 3.04747E+02-1.87566E+04-9.42228E+02 8.94335E+02
 -1      2173 2.92650E+04 1.17343E+04-2.38407E+01-1.90986E+04 9.90738E+02 5.40348E+02
 -1      2174 3.45132E+04 1.42940E+04 4.49395E+01-2.55387E+04 9.86845E+02 6.53386E+02
 -1      2175 3.62128E+03 3.04337E+03-3.00873E+01-3.32194E+04-7.76013E+02-2.79166E+01
 -1      2176 1.10119E+03 9.94331E+02 1.80871E+02-3.39868E+04-4.69552E+02 8.20988E+01
 -1      2177 3.90721E+04 1.16017E+04-4.98578E+02-3.28566E+04 1.02167E+03 5.54819E+02
 -1      2178 4.13856E+04 7.60936E+03 6.59169E+01-3.71004E+04 9.49474E+02 6.24085E+02
 -1      2179-1.05620E+03-1.11785E+03 4.65058E+02-3.37113E+04-8.80363E+02 3.54534E+01
 -1      2180-6.21161E+04-2.23560E+04 6.96138E+02-2.34280E+04 7.21777E+02-9.52846E+01
 -1      2181-6.76087E+04 2.75713E+03-1.34929E+02 1.37750E+04-7.41998E+02-1.56359E+02
 -1      2182 1.83873E+04 8.32106E+03 3.68591E+02-2.40690E+04 9.95088E+01 1.98290E+02
 -1      2183 2.68365E+04 9.46195E+03 7.52244E+01-2.40697E+04-1.74509E+02 4.04777E+02
 -1      2184-2.74300E+04-9.96192E+03-2.48201E+02-2.58646E+04-2.59050E+02-3.01556E+02
 -1      2185-3.42546E+04-1.41799E+04 9.37240E+01-2.59299E+04-1.42634E+02-3.22597E+02
 -1      2186-8.31877E+04 7.51984E+03 6.08467E+02-9.51599E+03-5.88231E+02-2.91409E+03
 -1      2187-6.84353E+04 1.14209E+03 4.65397E+02-1.55975E+04-1.39508E+03-1.15230E+03
 -1      2188-2.52697E+04-2.06349E+04 9.56134E+02-2.66731E+04-5.94973E+02 6.21747E+02
 -1      2189-7.36161E+03 8.61203E+02-2.30005E+02 1.63598E+03 1.89702E+02-3.37338E+02
 -1      2190 6.98054E+04-8.27287E+03-6.16729E+02 2.27721E+04 3.46645E+02 4.35990E+02
 -1      2191 7.00103E+04-7.72724E+03-3.59426E+02 1.91925E+04 2.62310E+02 1.12344E+02
 -1      2192-1.32667E+04-2.17094E+03-2.68747E+02 8.84905E+02 9.32943E+02-5.08470E+02
 -1      2193-1.01656E+04-3.87054E+02-1.97278E+02 1.59761E+03 6.32176E+02-5.37704E+02
 -1      2194 1.08631E+04 7.52946E+03 2.07255E+02-1.53009E+04-2.06615E+02 1.18287E+02
 -1      2195 1.31512E+04 8.56628E+03 2.24651E+02-1.90309E+04 4.99333E+00 1.98025E+02
 -1      2196 5.12087E+04 6.98582E+02 1.51424E+02-4.13136E+04 2.85344E+02 6.05183E+02
 -1      2197 5.62520E+04 3.82940E+03 8.67669E+01-2.08189E+04-1.29854E+03 1.83336E+03
 -1      2198 6.91210E+04-4.73211E+01-3.75818E+02-1.67976E+04-1.43776E+03 1.64969E+03
 -1      2199 2.27603E+04 1.51425E+04 3.28894E+02-3.21919E+04 5.88004E+01-1.30097E+03
 -1      2200-5.85415E+04 7.26543E+03-2.76755E+02-3.84616E+04-1.06667E+03-2.88999E+02
 -1      2201-5.58632E+04 3.27827E+03-2.35944E+02-4.08382E+04-4.25521E+02-5.91421E+02
 -1      2202-4.73549E+04 7.98960E+03-7.37189E+02-4.12364E+04-3.70604E+02-1.08046E+02
 -1      2203-2.23141E+04-1.49100E+04-3.69763E+01-3.18681E+04-1.79175E+02 1.16206E+03
 -1      2204-1.63880E+04-5.81326E+03 4.12863E+01-3.68281E+03 8.64134E+02-7.32970E+02
 -1      2205-1.65471E+04-5.17235E+03 3.59357E+02-1.53326E+03 1.11692E+03-5.43150E+02
 -1      2206 4.42852E+03 2.42254E+03-2.25447E+02-4.56194E+04 6.39015E+02-2.69697E+02
 -1      2207-2.25271E+04-1.20924E+04 8.16402E+02-2.99018E+04 1.09830E+03 2.18197E+03
 -1      2208-1.81892E+04-2.01231E+04 3.73744E+02-3.10048E+04 1.28424E+03 9.29694E+02
 -1      2209-1.89143E+04-6.43922E+03 2.03321E+03-2.41959E+04 7.77378E+01 3.05714E+03
 -1      2210 5.21179E+04 1.93619E+04-4.02264E+02-2.36032E+04 5.09832E+02 1.05096E+03
 -1      2211 1.23680E+04 1.07129E+03-9.80563E+01 1.35092E+03 4.47720E+02 3.45777E+02
 -1      2212 2.34808E+04 3.05389E+04-3.98202E+02-1.84912E+04-1.51240E+03-1.57360E+03
 -1      2213-1.51357E+04-1.61500E+04 6.65180E+02-2.70090E+04 3.30873E+02 7.50733E+01
 -1      2214-1.85953E+04-1.13877E+04-4.86130E+01-3.88212E+04-1.43422E+02 9.84600E+02
 -1      2215 5.16514E+04 1.77256E+04-7.39735E+02-3.30066E+04 2.03297E+03 3.40919E+02
 -1      2216 4.99001E+04 1.92118E+04 4.18599E+01-2.64026E+04 8.97546E+02 7.29129E+01
 -1      2217 6.70492E+04-3.58554E+03 1.68692E+02 1.53258E+04-6.38330E+02 1.24811E+02
 -1      2218 6.65058E+04-3.14430E+03 8.83451E+01 1.42542E+04-5.53411E+02 2.72159E+02
 -1      2219-2.25246E+03-3.35372E+04 4.97427E+01-1.76436E+04-2.59998E+03 5.08524E+02
 -1      2220-1.17926E+04-3.41721E+04-1.21126E+02-1.47103E+04-1.47283E+03 6.44368E+02
 -1      2221-5.52862E+04-1.86417E+04 1.98880E+02-3.31272E+04 1.61849E+03-5.37799E+02
 -1      2222-2.61888E+04-1.10572E+04-1.09948E+03-1.79918E+04 8.38706E+02-9.52685E+02
 -1      2223-4.86974E+04-1.89302E+04 7.46377E+02-2.56002E+04 1.85175E+03-9.41389E+02
 -1      2224-3.31544E+04-1.20963E+04-8.15655E+02-2.60998E+04 5.12717E+02-1.11216E+03
 -1      2225 4.93823E+04 1.15359E+04 8.88903E+02-3.85190E+04 1.10714E+03-5.35245E+02
 -1      2226-1.15336E+04-6.39907E+03-4.12117E+02-4.31513E+04 5.49678E+02 6.50482E+02
 -1      2227-5.73743E+04-2.03434E+04 6.88958E+02-2.00811E+04 1.62209E+03 1.18641E+02
 -1      2228-6.43233E+03 6.86697E+02 1.70160E+01 1.27659E+03 7.94220E+01-2.28626E+02
 -1      2229-4.30207E+04 2.05634E+04 9.36571E+01-3.15233E+04-1.64087E+03-3.52594E+02
 -1      2230-4.54591E+04 1.58491E+04-6.96773E+02-3.70878E+04-1.49136E+03-4.96950E+02
 -1      2231-5.12679E+04-1.35957E+04-1.28608E+02-3.79864E+04 1.60270E+03-1.41460E+02
 -1      2232-3.73159E+04-1.04869E+04-3.75094E+02-3.30486E+04 1.65969E+03-5.67511E+02
 -1      2233 1.29411E+04-2.95639E+04-4.15751E+02-1.78415E+04-2.40849E+03 8.24834E+02
 -1      2234 2.65399E+04-2.54346E+04 1.50451E+02-2.54075E+04-1.38483E+03 7.23863E+02
 -1      2235-1.94626E+04-3.40257E+04 1.12778E+02-1.68621E+04-7.59500E+02 2.76987E+02
 -1      2236-1.74636E+04-8.63504E+03 1.19277E+02-2.91765E+04-8.71666E+02-4.42249E+02
 -1      2237 6.78968E+04-1.38556E+04 2.24898E+02-2.06334E+04-1.34033E+03 1.01398E+03
 -1      2238 2.20678E+04 3.36342E+03-1.61691E+03-2.66414E+04 2.17423E+03-1.79964E+03
 -1      2239 9.30373E+03-8.98223E+02-1.82995E+02 7.39729E+02 1.44040E+02 2.02074E+01
 -1      2240 6.90591E+03-6.15367E+02-4.79663E+01 2.32375E+02 1.40171E+02 7.06362E+01
 -1      2241-7.73357E+04 7.99834E+03-3.20668E+00-5.17548E+03-7.95193E+02-7.17701E+01
 -1      2242-7.02436E+04 1.85623E+03 1.16563E+02 1.36152E+04-8.89362E+02-1.89313E+01
 -1      2243 7.56109E+04-2.36828E+03-8.69519E+02 9.68841E+03-1.09517E+03 3.24057E+02
 -1      2244 4.36838E+04-1.65112E+04 3.66197E+02-3.69431E+04-1.82649E+03 5.32729E+01
 -1      2245 6.12666E+04-1.12025E+04-6.73095E+02-3.26785E+04-4.14784E+02 3.55640E+02
 -1      2246 1.06159E+04 5.31684E+03 2.92527E+02-2.38564E+04-4.00243E+02 1.70414E+02
 -1      2247-5.09350E+04-7.39361E+03 1.43169E+02-4.22383E+04 1.03583E+03-1.73199E+01
 -1      2248-7.01499E+04 7.28064E+03 2.87368E+02 2.02210E+04 9.94111E+01-4.31272E+02
 -1      2249-6.93223E+04 5.99596E+03 1.38887E+02 1.76748E+04-1.06117E+02-1.36037E+02
 -1      2250-5.31390E+04-2.06519E+04 9.45497E+02-2.08994E+04 1.61727E+03-1.00608E+03
 -1      2251-7.16869E+04 2.74420E+03 7.03143E+01 1.23585E+04-6.21273E+02-2.38079E+02
 -1      2252 4.52650E+04 4.82143E+03 4.47717E+01-3.91278E+04 7.11617E+02 7.59488E+02
 -1      2253-7.38833E+04 8.70308E+03-3.70909E+02 2.50961E+04 7.95543E+02-1.35354E+03
 -1      2254-4.70039E+04-1.73329E+04 6.50030E+01-2.49174E+04 2.99364E+02-3.79877E+02
 -1      2255-4.07206E+04-1.45839E+04-4.96414E+02-2.49279E+04-1.44292E+01-9.24138E+02
 -1      2256-6.54181E+04 1.51265E+04-5.78651E+01-2.58666E+04-1.29434E+03-8.66980E+02
 -1      2257-1.22333E+04-1.40768E+04-4.41572E+02-2.28991E+04 2.55938E+02-1.49254E+02
 -1      2258-1.00391E+04-1.23164E+04-9.67996E+01-1.86831E+04-9.72430E+01-1.65868E+02
 -1      2259-5.38346E+04-2.02292E+04 1.00243E+02-2.43464E+04 4.77751E+02-1.08483E+02
 -1      2260 4.66004E+03-2.94773E+02-1.46062E+02 4.37245E+01 2.03243E+01 2.30205E+02
 -1      2261-6.88229E+04 4.55524E+03 3.41708E+02 1.62590E+04-4.24916E+02-9.61110E+01
 -1      2262-6.68827E+04 3.57403E+03 2.25151E+02 1.52771E+04-7.71460E+02-8.80928E-01
 -1      2263-6.96492E+04 8.07544E+03-8.42151E+01 2.28974E+04 2.26051E+02-3.33086E+02
 -1      2264-7.77437E+03-7.17726E+03 2.00004E+01-1.18022E+04-1.70183E+02-5.48944E+01
 -1      2265-9.11577E+03-1.04621E+04 1.09124E+02-1.51048E+04-3.34919E+01-3.35918E+02
 -1      2266 1.62937E+04 1.05853E+04-2.96069E+02-2.36341E+04 3.54722E+02 1.35733E+02
 -1      2267 3.37766E+04 1.22719E+04-4.46802E+01-2.39446E+04 2.12656E+01 4.90945E+02
 -1      2268-5.76677E+04-1.89415E+04 2.83644E+02-2.26642E+04 8.94979E+02-2.70240E+02
 -1      2269-2.41545E+04-9.29934E+03-2.32485E+02-2.75849E+04-8.59000E+02-3.31305E+02
 -1      2270 1.77195E+04 3.39828E+04-1.69248E+02-1.71694E+04-1.34343E+03-1.82154E+03
 -1      2271 6.96071E+04-2.16422E+03-3.51704E+02 1.35014E+04-1.41779E+02 3.59319E+02
 -1      2272-1.94588E+04-9.33371E+03-1.60787E+03-1.18632E+04 1.96956E+03-1.31153E+03
 -1      2273-4.20313E+04-7.47512E+03 4.71360E+02-2.38468E+04-2.19819E+03-8.37844E+02
 -1      2274-5.83267E+04-3.74325E+03 1.94162E+02-1.93831E+04-8.93710E+02-6.18689E+02
 -1      2275 6.84897E+04-5.00891E+03-1.11221E+02 1.61661E+04-2.31462E+02 3.41500E+02
 -1      2276 6.92900E+04-5.84888E+03 4.47870E+01 1.79964E+04-9.05952E+01 4.03758E+01
 -1      2277-9.51496E+04 1.35719E+04-5.43060E+02 6.51969E+03-9.49522E+00-3.24842E+03
 -1      2278 7.69563E+04-1.08813E+04-7.41818E+02-1.17793E+04-3.55163E+02 4.25309E+02
 -1      2279 7.51995E+04-9.60974E+03-9.55015E+02-4.29360E+03-1.13133E+03 8.34648E+02
 -1      2280-3.62960E+03-1.85443E+03-4.27439E+01-4.52318E+04 5.49145E+02 3.56893E+02
 -1      2281 1.64754E+04 8.34131E+03 2.05817E+02-2.93309E+04-6.55336E+02 2.26295E+02
 -1      2282-7.75367E+04 4.36659E+03 6.92931E+02 8.13708E+03-1.10382E+03-3.80198E+02
 -1      2283-7.27178E+04 3.63384E+03-2.06344E+02 1.07071E+04-9.01586E+02-3.12801E+02
 -1      2284 3.07175E+03 1.97932E+03 9.91690E+01-2.40292E+04-5.33707E+02 1.96906E+02
 -1      2285-4.62598E+03-2.08170E+03 1.57940E+02-2.46916E+04-5.86710E+02 4.22450E+01
 -1      2286 8.80290E+03-1.17826E+03 2.69840E+02 1.60291E+03 2.69073E+02 1.39565E+02
 -1      2287-1.90557E+04-6.83954E+03-4.37439E+02-7.98058E+03 1.45493E+03-1.35922E+03
 -1      2288 8.57339E+04-7.05109E+03-6.19230E+02-8.99095E+03-5.39622E+02 2.30028E+03
 -1      2289 5.66249E+04 2.12836E+04 1.41100E+02-2.46424E+04 1.17851E+03 9.34185E+02
 -1      2290-6.03567E+04 1.28852E+04 8.86404E+02-3.33590E+04-1.72584E+03-1.96067E+01
 -1      2291-7.54999E+04 6.31280E+03 7.69186E+02 4.51872E+03-2.28162E+03-7.56910E+02
 -1      2292 9.43808E+03-1.19207E+03-2.45229E+02 1.85250E+03 3.96575E+02 2.16499E+02
 -1      2293 6.91377E+04-1.16041E+04 2.28044E+02-2.59355E+04-1.67380E+03 7.85020E+02
 -1      2294 1.18253E+04 6.57600E+03 1.83389E+02-4.33860E+04 4.71372E+02-6.48422E+02
 -1      2295 1.84920E+04 1.08356E+04 6.50180E+02-3.96020E+04 3.50093E+02-1.01377E+03
 -1      2296-7.69945E+04 8.12989E+03 9.94642E+02 1.15717E+03-1.18153E+03-2.44767E+02
 -1      2297-1.90529E+04-7.85883E+03-4.24965E+02-2.58122E+04-1.50614E+02-3.35588E+02
 -1      2298-1.14715E+04-4.43601E+03-3.36899E+02-2.50221E+04-2.82045E+02-2.36397E+02
 -1      2299 7.85653E+04-6.76641E+03-1.26108E+03 2.56118E+02-1.00158E+03 6.50154E+02
 -1      2300 1.71482E+04 7.19795E+03 3.58532E+02-7.44606E+03 1.20032E+03 9.33632E+02
 -1      2301 6.95874E+04-3.09992E+03-3.48123E+02 1.21312E+04-5.30822E+02 6.48053E+02
 -1      2302 5.86229E+04 2.04505E+04-9.38097E+02-2.07752E+04 1.72972E+03 1.04856E+03
 -1      2303 2.28119E+04 9.19736E+03 7.85465E+01-1.31668E+04 1.55341E+03 2.98410E+02
 -1      2304 1.67475E+04 5.89617E+03 2.72482E+02-4.42368E+03 8.15350E+02 8.17148E+02
 -1      2305 1.04571E+04-5.25601E+02-2.94851E+01 2.09926E+03 5.90512E+02 2.54961E+02
 -1      2306-3.29348E+04-8.64353E+03 6.08719E+01-2.54010E+04-1.43183E+03-9.08396E+02
 -1      2307-4.79716E+04-3.39413E+03-4.10327E+00-1.92686E+04-7.66972E+02-9.45381E+02
 -1      2308-5.23872E+04 1.62880E+03 1.69979E+02-1.32145E+04-5.76963E+02-1.22923E+03
 -1      2309 9.68147E+04-1.18104E+04 1.27508E+03 2.47725E+04 1.47813E+03 3.48111E+03
 -1      2310-7.35688E+04 1.07033E+04 6.76550E+02 1.89644E+04 1.98430E+02-8.89016E+02
 -1      2311-2.03501E+04-8.06065E+03 5.73183E+02-2.76282E+04 2.71348E+01-1.94080E+01
 -1      2312 2.43102E+04 4.91159E+03 3.98193E+02-1.93118E+03 7.27734E+02 9.56712E+01
 -1      2313-4.52165E+04-9.97596E+03 6.71773E+01-1.82226E+04 3.19434E+02-4.79343E+02
 -1      2314-1.79843E+04-2.14482E+02 2.59304E+02 5.47198E+02 2.05241E+02-2.68689E+02
 -1      2315-1.21804E+04-1.66378E+04 6.69379E+02-1.26617E+04-9.19259E+02 3.34795E+02
 -1      2316-5.10791E+03-2.06704E+04 1.01994E+03-7.53822E+03-1.01392E+03 4.30558E+02
 -1      2317-3.10427E+04-9.18338E+03 1.31261E+03-6.15321E+03 9.26973E+02-7.91169E+02
 -1      2318-2.49259E+04-5.22513E+03-5.88701E+02-1.94262E+03 8.79218E+02-5.35743E+02
 -1      2319 1.70988E+04 3.31206E+03 2.19401E+02-2.52011E+04-2.86260E+02 2.62388E+02
 -1      2320 7.18276E+03 1.38088E+03-5.04025E+01-2.48794E+04-1.79796E+02 1.61538E+01
 -1      2321 1.35112E+04-4.56586E+03 4.91435E+01-1.94771E+04 3.04585E+02-6.94222E+02
 -1      2322 5.84436E+04-7.05858E+03-2.58816E+02 8.91236E+03-6.87671E+02-2.53641E+02
 -1      2323 5.36658E+04-1.89833E+04 9.51845E+01-2.57732E+04-1.22829E+03 3.13690E+02
 -1      2324-1.19162E+04-5.68637E+03 3.37676E+02-1.52398E+04-3.19207E+02-1.66625E+02
 -1      2325-1.05494E+04-4.47577E+03-1.53573E+02-1.11221E+04 9.80541E+01-8.17099E+01
 -1      2326-1.58316E+04-7.74810E+03-1.67618E+02-2.59282E+04-4.23827E+02 8.36161E+02
 -1      2327-1.65056E+04-5.23904E+03 6.43035E+02-3.49941E+04-4.91096E+02 8.39227E+02
 -1      2328 1.79524E+04 4.19407E+03-1.30583E+02-2.06608E+04-1.89553E+02 4.34067E+02
 -1      2329 6.43094E+04-6.40448E+03 6.35075E+01 1.42935E+04-2.01022E+02 2.79188E+02
 -1      2330 5.60892E+04-1.87982E+03 1.81247E+02-1.37955E+04-9.22017E+02 1.10836E+03
 -1      2331 6.86860E+04-5.95888E+03-2.40900E+02-8.35776E+03-6.59831E+02 1.26331E+03
 -1      2332 3.28848E+04 1.38278E+04 2.79615E+02-1.22559E+04 1.48379E+03 9.05131E+02
 -1      2333 3.33284E+04 1.20651E+04-1.81950E+02-8.84188E+03 6.93550E+02 5.18448E+02
 -1      2334-3.50061E+04-4.76276E+03-1.27620E+02-2.28589E+04-9.06501E+02-6.64441E+02
 -1      2335-1.24066E+04-7.69882E+03 3.22156E+02-3.18821E+04-5.74448E+02-5.25555E+02
 -1      2336-1.80302E+04-7.74889E+03-2.12536E+02-2.91908E+04-7.95278E+02-5.63385E+02
 -1      2337-4.74433E+04-1.47252E+04 1.00357E+03-1.31532E+04 1.29962E+03-5.92475E+02
 -1      2338-4.55167E+04-1.46720E+04 5.60831E+02-1.40674E+04 2.30450E+03-8.33512E+02
 -1      2339-5.83069E+04 6.41245E+03-2.95462E+02 8.56206E+03-1.18995E+03-6.49900E+02
 -1      2340 3.01533E+04 4.24603E+03 1.49209E+02-2.22084E+04-1.98546E+02 4.62242E+02
 -1      2341 1.66655E+04 3.06021E+03 3.28139E+02-1.69908E+04-1.66032E+02 3.73974E+00
 -1      2342-3.10882E+04-5.20331E+03-1.79543E+02-2.43046E+04-1.81220E+02-3.10023E+02
 -1      2343-3.59479E+04-6.21683E+03-4.46472E+01-2.21735E+04-5.28374E+01-4.75713E+02
 -1      2344-4.95608E+04 2.00758E+04-4.71976E+02-9.61239E+03 4.27191E+02-3.11436E+02
 -1      2345-6.87044E+04 8.51757E+03 2.76932E+02 1.60382E+04-1.48306E+02-5.47334E+02
 -1      2346 1.24484E+03-2.33269E+04 9.36897E+02-6.68658E+03-1.34236E+03 1.52068E+02
 -1      2347 5.36373E+04-1.88776E+04 6.02865E+02-1.70512E+04-8.28821E+02 4.49490E+02
 -1      2348 3.48515E+04-2.50583E+04-2.94064E+02-1.50882E+04-1.79791E+03 4.20057E+02
 -1      2349 6.71242E+04-6.11719E+03-7.57821E+01 2.71455E+04 9.31284E+02 1.09113E+03
 -1      2350 2.15674E+04 1.27348E+03-9.23361E+02-2.44765E+04 5.18527E+02-1.48164E+02
 -1      2351 2.10427E+04 3.26120E+03-5.49358E+01-2.40346E+04 4.94025E+01 1.23758E+02
 -1      2352 1.74934E+04 5.74027E+03-3.38442E+02-3.48947E+04-4.76821E+02-6.87410E+02
 -1      2353-1.00531E+04-2.50409E+03 4.35203E+02-2.08315E+04-1.29994E+02 3.88138E+02
 -1      2354 1.19324E+03-3.63977E+03 3.53513E+01-1.89246E+04 2.77642E+02 3.70683E+02
 -1      2355-8.87487E+02-3.90289E+02-1.04805E+02-2.56417E+04-2.29171E+02-4.78964E+01
 -1      2356-9.13080E+03-1.85298E+03-2.17639E+02-2.61011E+04-1.06493E+02-1.75121E+02
 -1      2357 1.87600E+02-1.09957E+02 1.50096E+02-3.67081E+04-3.92056E+02 4.69083E+01
 -1      2358-1.58208E+03-2.01128E+03-9.26403E+01-3.63255E+04-5.70302E+02-1.49208E+02
 -1      2359 2.35897E+04 3.99414E+03 2.31731E+02-2.37615E+04 6.14533E+01 3.66398E+02
 -1      2360-1.53544E+04-8.11831E+03-4.62076E+02-2.16666E+04-2.22129E+02 1.22111E+01
 -1      2361 4.96443E+04 1.40672E+04 4.58940E+01-1.43702E+04 3.74323E+02 4.55261E+02
 -1      2362 4.74344E+04 1.20191E+04 6.39788E+00-1.64886E+04 5.11729E+02 9.57092E+01
 -1      2363 1.81359E+04 7.50729E+03 2.42333E+02-2.90323E+04-6.68091E+02 5.79073E+02
 -1      2364 1.27241E+04 7.60088E+03-2.00854E+02-3.17722E+04-4.47132E+02 4.08913E+02
 -1      2365 2.33551E+04 3.05293E+03-3.50749E+02-6.99671E+02 6.75219E+02 4.73041E+02
 -1      2366 1.78546E+04-4.29808E+02-3.59846E+02 8.18230E+02 6.89536E+02 2.94664E+02
 -1      2367-3.51154E+04-1.46451E+04 4.74649E+02-1.32024E+04 1.00997E+03-1.03913E+03
 -1      2368-3.52263E+04-1.13690E+04 1.33339E+03-9.88352E+03 1.32965E+03-1.23680E+03
 -1      2369-6.37378E+04 5.92149E+03-1.30240E+02 1.41462E+04-3.55875E+02-4.08485E+02
 -1      2370 4.55429E+04 1.75008E+04-5.14997E+02-1.58239E+04 1.47820E+03 8.48516E+02
 -1      2371 8.37627E+04-1.21848E+04-1.84740E+02 1.67052E+03 1.19261E+02 1.17662E+03
 -1      2372-9.02943E+04 1.12150E+04-2.14375E+01 2.49923E+04 1.25447E+03-2.45376E+03
 -1      2373-1.58887E+04-9.66144E+03-2.63572E+02-2.45419E+04-1.95080E+02-2.89019E+02
 -1      2374 2.88297E+04 8.37848E+03-5.55272E+01-5.03647E+03 6.29327E+02 6.07411E+02
 -1      2375 1.62064E+04 8.16741E+03 3.33071E+02-2.59411E+04-2.87319E+02-9.36317E+02
 -1      2376 5.73930E+04-1.02860E+04-5.06300E+01 1.45627E+03-5.40862E+02-2.14079E+02
 -1      2377 4.53948E+04 1.46698E+04 1.90979E+01-1.24869E+04 2.04579E+02-3.23470E+01
 -1      2378-1.93423E+04-8.81368E+02-2.02056E+02 4.07392E+02 3.41467E+02-7.08732E+01
 -1      2379 5.49096E+04-3.34884E+03-1.22617E+03 1.15277E+04-9.38829E+02 8.41316E+02
 -1      2380-8.36578E+04 1.27125E+04-9.21317E+01 1.34778E+04 3.21894E+02-2.34026E+03
 -1      2381-4.09693E+04-8.03363E+03-2.02409E+00-2.03479E+04 2.56752E+02-2.28747E+02
 -1      2382-5.87238E+04 4.33440E+03 1.37573E+02 1.20531E+04-6.95144E+02-8.53273E+02
 -1      2383-5.78348E+04 3.68699E+03-2.06703E+02 1.24335E+04-9.00591E+02-7.80330E+02
 -1      2384-4.84587E+04-1.23865E+04-2.88687E+01-1.33186E+04 7.67393E+02-2.18391E+02
 -1      2385-1.86526E+04-9.58107E+03 2.68061E+02-2.76155E+04-3.06397E+01-3.52570E+02
 -1      2386-1.33574E+04 9.49039E+02 5.35990E+01 1.61329E+02 1.62589E+02-3.64902E+02
 -1      2387-1.46762E+04 6.67792E+02 3.71339E+01 2.27086E+02 3.10684E+02-5.55625E+02
 -1      2388-5.71728E+04 8.92855E+03 1.13211E+02 6.95704E+03-1.77142E+03-1.17655E+03
 -1      2389 1.08347E+04-8.92139E+02-1.01342E+02-1.47576E+03 1.69721E+01 5.36089E+01
 -1      2390 1.54230E+04 1.24110E+04 3.92364E+01-1.98209E+04-6.46751E+02-1.40774E+03
 -1      2391-7.46956E+03-6.16806E+03 2.21398E+01-3.35834E+04-5.88031E+02-4.08536E+02
 -1      2392-4.49632E+03-5.10444E+03 1.37309E+02-3.54780E+04-3.81694E+02-2.78457E+02
 -1      2393 1.30534E+04-1.42044E+03-1.22068E+02-1.07038E+03 1.17431E+02 6.32161E+01
 -1      2394 1.36712E+04 1.70163E+04-1.09402E+03-1.31638E+04-1.07340E+03-9.73159E+02
 -1      2395-4.99406E+04 1.96768E+04-3.16531E+02-2.25701E+04-1.23734E+03-6.66463E+02
 -1      2396-2.73059E+04-7.23018E+03 2.24682E+02-2.61977E+04-8.27582E+02-9.16836E+02
 -1      2397 9.22898E+03 2.17016E+04-1.01006E+03-9.03520E+03-1.11386E+03-5.93373E+02
 -1      2398-7.06590E+04 5.25622E+03 2.74002E+02-7.60479E+03-1.28296E+03-1.87185E+03
 -1      2399-5.65085E+03-1.01789E+03-8.01478E+00-4.52826E+04 3.02220E+02 2.34208E+02
 -1      2400 6.54201E+02 3.92148E+02-7.75106E+01-4.71869E+04 1.54109E+02 7.81077E+01
 -1      2401 1.42430E+04 3.35382E+03 7.27302E+01-4.16056E+04-2.06816E+01-6.47373E+02
 -1      2402 7.41233E+04-1.06138E+04-2.42717E+02 1.69479E+04 1.92011E+02 9.59511E+02
 -1      2403 6.76946E+04-8.47701E+03-6.08007E+01 1.55222E+04-5.39142E+01 5.08522E+02
 -1      2404-5.93812E+04 4.38202E+03 4.63909E+02 1.37814E+04-3.50808E+02-3.17371E+02
 -1      2405 5.67438E+04-5.33812E+03-4.54935E+02 1.13500E+04-1.52028E+03 8.95748E+02
 -1      2406 2.23167E+03 2.95721E+03 6.04809E+01-3.63438E+04-5.38946E+02 5.27544E+01
 -1      2407 1.93621E+04-2.94849E+03-2.56718E+02-2.24456E+04 9.57368E+02-1.26378E+03
 -1      2408-1.78160E+04-4.11608E+03 6.09457E+02-2.44803E+04 3.53549E+01 5.94682E+02
 -1      2409 8.64445E+03 6.25290E+03 4.71060E+02-1.08538E+04 2.08586E+02 1.90124E+02
 -1      2410 2.74669E+04 6.73328E+03-2.18374E+02-2.63632E+04-8.04684E+02 1.00501E+03
 -1      2411-8.18766E+04 1.21896E+04 1.70334E+02 7.96515E+02-3.85703E+02-2.73941E+03
 -1      2412-9.30482E+03 6.09054E+02 1.02056E+02-9.08034E+02 1.01784E+02-1.15318E+02
 -1      2413-1.18040E+04 9.67078E+02 3.93949E+02-8.12064E+02 2.08842E+02-3.33493E+02
 -1      2414-1.77496E+04-3.68575E+03-3.66788E+01-2.70719E+04-2.27366E+02-2.18341E+02
 -1      2415-2.43071E+04-4.72078E+03-3.33727E+02-2.59568E+04-9.85608E+00-5.00273E+02
 -1      2416 1.86461E+04 1.06038E+03 3.75091E+01 4.22717E+02 5.31796E+02 2.03960E+02
 -1      2417-5.65170E+04 3.63832E+03 6.98312E+02 1.27665E+04-7.97463E+02 2.28113E+01
 -1      2418-5.42411E+04 3.36278E+03-4.60249E+02 1.25253E+04-1.11293E+03-2.86351E+01
 -1      2419-5.62233E+04 2.08071E+04-2.13107E+02-1.60280E+04-4.54347E+02-4.73498E+01
 -1      2420-3.82000E+04 2.25431E+04-4.32469E+02-1.80659E+04-1.60379E+03-2.51292E+02
 -1      2421 8.31768E+03 1.69466E+03-2.41753E+02-4.54332E+04 2.82938E+02-6.72038E+00
 -1      2422 8.17734E+04-1.10514E+04 1.36277E+03 2.61444E+04 1.05533E+03 1.95953E+03
 -1      2423 5.31869E+04-3.83583E+03 3.73390E+02 1.16949E+04-4.66058E+02 5.14525E+02
 -1      2424 5.31984E+04-3.69476E+03-6.86124E+02 1.17292E+04-3.02201E+02 4.85977E+02
 -1      2425-2.55857E+04 2.45320E+04-1.15101E+03-1.09163E+04-1.05146E+03-4.66058E+02
 -1      2426-1.14085E+04 2.50303E+04-8.18946E+02-6.31121E+03-8.14142E+02-2.77354E+02
 -1      2427 4.03687E+04 1.75144E+04-2.45992E+02-1.88239E+04 1.53238E+03 6.29479E+02
 -1      2428 1.56477E+04-1.22996E+03 1.08046E+01-8.48352E+02 3.82106E+01 2.66362E+02
 -1      2429 1.64877E+04-8.11799E+02-1.80152E+02-2.63733E+02 4.03574E+02 4.41116E+02
 -1      2430-5.47898E+04 1.25916E+04 5.40233E+02 2.33940E+03-2.15701E+03 3.90423E+01
 -1      2431-1.40562E+04-1.13201E+04 2.40282E+02-1.85484E+04-5.51208E+02 1.14134E+03
 -1      2432-5.09740E+04 1.58619E+04-8.54936E+02-3.48224E+03-1.43540E+03-8.65258E+02
 -1      2433-7.58154E+02 2.40381E+04-8.21998E+02-6.72717E+03-1.30336E+03 6.82816E+00
 -1      2434-1.30585E+04-7.33358E+03 4.57046E+02-1.87414E+04-2.37306E+01-2.00423E+02
 -1      2435 7.64424E+03 5.76430E+03-8.08185E+01-3.35910E+04-5.44788E+02 3.77767E+02
 -1      2436 5.34165E+04-1.50422E+04-1.03885E+02-2.63127E+03-8.64098E+02 8.11975E+02
 -1      2437 5.16788E+04-1.74110E+04 3.71633E+02-9.53413E+03-7.48000E+02 6.70082E+02
 -1      2438 4.67970E+04 2.91314E+03-1.32714E+02-1.96621E+04-9.75610E+02 1.57977E+03
 -1      2439 2.36004E+04-2.44878E+04 3.70113E+02-9.78413E+03-1.85786E+03 3.87220E+01
 -1      2440 1.14554E+04-2.57216E+04 4.76713E+02-6.68400E+03-1.28540E+03 7.16908E+02
 -1      2441-3.69934E+04-1.49637E+04 4.76351E+02-1.82417E+04 1.15932E+03-6.84677E+02
 -1      2442 3.44494E+04 5.19148E+03 5.36737E+02-2.32614E+04-9.49210E+02 1.00513E+03
 -1      2443 4.09317E+04 8.20045E+03-1.48016E+01-1.91200E+04 9.67363E+01 5.68028E+02
 -1      2444-2.17110E+04-2.14264E+03-5.23377E+01 2.73055E+02 6.98788E+02-3.77975E+02
 -1      2445 4.69408E+03 4.57392E+03-1.66725E+02-3.51090E+04-4.88841E+02 1.06344E+02
 -1      2446-5.44912E+03-5.24060E+03 1.40788E+02-7.77454E+03-1.08119E+02-8.99994E+01
 -1      2447 5.75921E+04-9.54821E+03-6.27957E+01 5.75355E+03-1.04387E+03-4.66630E+02
 -1      2448 5.90878E+04-4.55694E+03 3.45897E+02 1.30386E+04-4.32351E+02 4.28704E+02
 -1      2449 3.49545E+04 5.80543E+03 1.80033E+02-2.07084E+04-1.32765E+02 9.46962E+02
 -1      2450 1.33865E+04 3.51960E+03-1.52038E+02-1.40743E+04 9.01124E+01 1.41161E+02
 -1      2451-1.37611E+04-3.45343E+03-9.53244E+01-4.21258E+04 1.22113E+02 8.22052E+02
 -1      2452-4.83867E+04-1.18787E+04-1.76140E+02-1.63800E+04 7.78444E+02 3.60629E+01
 -1      2453 7.94937E+04-1.14205E+04 8.84408E+02 2.11175E+04 5.36455E+02 1.30814E+03
 -1      2454 4.33952E+04 8.86911E+03-2.92790E+02-1.64980E+04 2.92442E+02 4.26841E+02
 -1      2455-5.69492E+04 5.52487E+03 7.16829E+02-5.00083E+03-6.26320E+02-1.40483E+03
 -1      2456-7.25707E+04 9.82748E+03 4.04201E+02 2.10921E+03-6.54627E+02-1.22351E+03
 -1      2457-6.26792E+04 7.73205E+03 4.56734E+02 2.69835E+03-4.60769E+02-3.02682E+02
 -1      2458-1.54007E+04 1.10071E+03 1.62352E+01-3.30890E+03 1.59244E+02-2.01812E+02
 -1      2459 1.83317E+04 3.13949E+03-5.17617E+02-2.41799E+04-5.16876E+02 1.07499E+02
 -1      2460 2.01775E+04 6.10334E+03-4.14817E+02-2.71131E+04-4.95689E+02 5.26690E+02
 -1      2461 1.29519E+04 5.48892E+03 2.81741E+01-2.82528E+04-5.88703E+02 3.27390E+02
 -1      2462-1.58319E+04 8.41052E+02-7.03317E+00-6.21426E+03 8.76972E+01-2.75531E+02
 -1      2463-1.08260E+04 4.03661E+02-2.16443E+02-3.15098E+03 5.28362E+01-1.77718E+02
 -1      2464-1.11865E+04-3.42112E+02-5.44976E+01-4.60491E+03-3.06485E+01-1.86439E+02
 -1      2465-1.22690E+04-6.91886E+03-1.99674E+02-3.15136E+04-6.60456E+02-6.92021E+02
 -1      2466-7.63412E+03-6.56121E+03 6.33710E+01-3.40729E+04-5.66513E+02-3.17369E+02
 -1      2467-4.14852E+04-7.06312E+03-8.64693E+00-9.05769E+03 6.07572E+02-6.45968E+02
 -1      2468-3.62202E+04-8.20269E+03-1.82306E+02-7.05852E+03 5.68185E+02-5.76093E+02
 -1      2469-5.39769E+03-3.33647E+03-2.47575E+01-5.77530E+03-1.74953E+01-1.56093E+02
 -1      2470-1.34408E+04-4.61569E+02 1.71017E+02-2.61991E+04 3.65175E+01-1.10505E+02
 -1      2471-9.20111E+03-6.05671E+02 4.33809E+01-2.50961E+04 1.45008E+02-1.76463E+02
 -1      2472-4.82557E+03-8.61579E+02-5.06111E+02-2.56266E+04-9.32855E+01-3.58997E+02
 -1      2473 5.89938E+03-1.08285E+04 1.88594E+02-3.95122E+03-7.10395E+02 4.12373E+02
 -1      2474-3.76788E+04-3.62226E+03-2.67154E+02-1.49716E+04-2.24110E+00-6.50873E+02
 -1      2475-4.00508E+04-5.23652E+03-4.30766E+02-1.20334E+04 1.05178E+02-4.28436E+02
 -1      2476-3.44635E+04-1.87239E+03 9.38786E+01-1.01395E+04-2.54196E+01-7.31400E+01
 -1      2477-1.85723E+04 1.02980E+03 1.50019E+02-3.44412E+03 5.27761E+01-2.33801E+02
 -1      2478-1.98620E+04 1.28925E+03-9.89437E+01-2.83159E+03 1.65032E+02-2.19102E+02
 -1      2479-8.50695E+03-3.19292E+03 2.63203E+02-8.52646E+03-4.81177E+01-1.07768E+01
 -1      2480-7.71988E+03-2.37050E+03 5.45557E+01-6.19501E+03-3.01386E+01-1.58903E+02
 -1      2481-2.13823E+04 8.88245E+02-1.53613E+02-2.15195E+03 8.33656E+01-5.64835E+02
 -1      2482-2.65137E+04-6.26862E+02 4.43008E+01-2.56427E+03 1.66170E+02-6.97438E+02
 -1      2483 9.34320E+03 2.22393E+03-1.14531E+02-7.46558E+03 6.62658E+01 7.93238E+01
 -1      2484 5.67728E+03 2.40004E+03-1.80697E+01-4.91532E+03 7.19271E+01 2.87013E+01
 -1      2485 9.44336E+03 9.84561E+02-2.81881E+02-5.95394E+03-3.17515E+01 3.57311E+02
 -1      2486 7.21572E+03-9.16380E+01 5.11397E+01-1.24626E+03 3.56721E+01 1.29398E+02
 -1      2487-2.62409E+03-2.50130E+03 4.22053E+02-2.09879E+04 4.61147E+01 2.09236E+02
 -1      2488 1.57807E+04-1.75653E+03 2.92659E+01-3.77902E+03 1.37141E+02 1.21018E+02
 -1      2489-2.47110E+04 6.71279E+02-1.37950E+02-5.20609E+03 2.85906E+02-6.55070E+02
 -1      2490-1.94364E+04 1.81566E+04-8.78968E+01 5.20203E+01-1.67558E+03-7.15889E+02
 -1      2491-9.26504E+03 1.47545E+04-1.18271E+02-2.09379E+03-8.20691E+02-4.81807E+02
 -1      2492-2.69749E+04 1.23979E+04-2.60393E+02 3.97150E+03-8.26363E+02-3.85180E+02
 -1      2493-1.66084E+04-1.76680E+03-2.33488E+02-2.58794E+04-3.37790E+00-2.53836E+02
 -1      2494-1.18776E+04-9.43015E+02-2.31784E+02-2.47565E+04 6.54549E+01-3.30382E+02
 -1      2495-1.57735E+04-8.04304E+02 1.22981E+02-2.58261E+04-1.30966E+01-9.28896E+01
 -1      2496 1.90652E+03-1.55894E+03-2.39841E+02-2.43015E+04 9.61858E+01 1.04508E+01
 -1      2497-4.84446E+03-1.60654E+03 8.05620E+01-2.33973E+04 1.98642E+02-1.28242E+02
 -1      2498-6.36643E+03 1.97376E+02-5.35783E+00-7.78429E+02 8.15413E+01-2.91525E+01
 -1      2499-2.81699E+04-4.04160E+03 3.99740E+02-2.23623E+04-4.65096E+02-6.02020E+02
 -1      2500-3.88637E+04-2.06354E+03-6.76939E+01-1.79429E+04-4.47964E+02-7.05048E+02
 -1      2501 6.19898E+03 3.72106E+03 1.09634E+02-7.11425E+03 3.11353E+01 4.04162E+01
 -1      2502 8.26729E+03 2.25755E+02 1.73101E+02-3.91275E+03-4.67087E+01 2.53295E+02
 -1      2503 1.30070E+04-2.62603E+02-1.87108E+02-6.29155E+03 2.34976E+02 3.07585E+02
 -1      2504-1.59366E+04-2.88104E+03 2.53175E+02-1.63126E+04-2.09432E+02-2.41786E+02
 -1      2505-1.80865E+04-3.85645E+03 1.61858E+02-2.07215E+04-1.99196E+02-3.21697E+02
 -1      2506 3.81700E+03 4.87994E+03 1.02525E+01-3.70483E+04-4.69442E+02 2.57394E+02
 -1      2507 2.09404E+03 3.00166E+03 8.19225E+01-3.88473E+04-6.00753E+02 1.70258E+02
 -1      2508 2.36631E+04-1.80052E+04 3.65612E+02 3.60578E+01-9.67306E+02 1.22785E+02
 -1      2509 1.98027E+04-2.97446E+03-3.59170E+02-2.23693E+04 1.42581E+02-5.07258E+01
 -1      2510 2.13294E+04-1.54566E+03-2.96783E+01-2.25543E+04 1.97920E+01 1.13658E+02
 -1      2511 1.95793E+04-3.20834E+03 4.51812E+01-2.19529E+04 2.54900E+02 1.42404E+02
 -1      2512-2.68723E+04-1.61097E+03 8.16297E+01-2.33766E+04-5.40989E+01-3.02093E+02
 -1      2513-2.14908E+04-1.40921E+03-1.83306E+01-2.55073E+04 1.28945E+02-1.92391E+02
 -1      2514-4.32109E+04 7.72036E+02-4.07223E+02-1.07641E+04-1.45408E+02-1.12322E+03
 -1      2515-2.75555E+04-1.71630E+03-3.42470E+01-1.63696E+04-6.12101E+02-1.86678E+02
 -1      2516 4.92149E+03 2.80564E+02-1.57623E+02-1.14035E+03-1.15486E+02 1.11905E+02
 -1      2517 4.89869E+03 5.38247E+02 1.00655E+02-1.85344E+03-1.46923E+01 9.70412E+01
 -1      2518 2.13575E+04-2.35208E+01 6.73206E+01-2.27136E+04 2.48411E+02 3.31207E+01
 -1      2519 1.71465E+04-2.34630E+03-2.04995E+02-2.29273E+04 2.03809E+02 2.96735E+00
 -1      2520 2.40268E+04-2.36788E+03 2.32716E+01-2.13739E+04 1.28472E+02 3.88885E+02
 -1      2521-3.49227E+04 1.82861E+04 7.10266E+02-2.84225E+03-9.56566E+02-4.06788E+02
 -1      2522 8.75397E+04-1.48264E+04 9.19120E+02 1.30859E+04 5.59818E+02 1.83063E+03
 -1      2523 6.76668E+04-9.36837E+03-6.29698E+02 2.36190E+03-9.26915E+01 4.77123E+02
 -1      2524 5.53402E+04-4.92713E+03-2.66842E+02-7.59428E+03-4.30710E+02 9.18373E+02
 -1      2525 1.16376E+04 2.37740E+03 8.06104E+00-1.02539E+04-3.97613E+01 1.04527E+00
 -1      2526 3.57798E+04 2.58536E+03-2.19254E+02-1.92752E+04-8.16283E+02 9.22204E+02
 -1      2527-3.50550E+04-2.45912E+03-1.42718E+02-1.81669E+04-6.66544E+01-3.09341E+02
 -1      2528-3.23196E+04-2.28509E+03-2.82399E+01-2.13995E+04 1.03435E+01-5.16734E+02
 -1      2529-1.68047E+04-2.92331E+03 3.05665E+02-2.54485E+04-1.07632E+02-3.27802E+02
 -1      2530-1.12176E+04-2.11759E+03 1.60329E+02-2.29571E+04 5.82507E+00-2.20114E+02
 -1      2531-4.44302E+03-1.19373E+02 7.50547E-01-5.49147E+02-3.10253E+00-2.75694E+01
 -1      2532-1.04262E+03 3.68792E+03 1.14427E+02-4.13408E+04-3.00932E+02 1.27562E+02
 -1      2533-1.27123E+03 1.50921E+03 1.21680E+01-4.39673E+04-1.92020E+02 1.43107E+02
 -1      2534-2.80094E+03 2.29305E+03-4.78060E+01-4.33048E+04 1.01275E+01 3.03417E+02
 -1      2535-1.83091E+04 8.61594E+03 5.50561E+02 1.38328E+03-8.02571E+02-1.03775E+03
 -1      2536-3.21204E+04 7.53869E+03-1.31522E+02 7.52189E+03-8.81584E+02-7.68364E+02
 -1      2537 1.15297E+04-7.13225E+02 2.82888E+02-3.03702E+03 1.70296E+02-2.84073E+01
 -1      2538 8.00378E+03-2.60931E+00 4.77801E+01-2.54434E+03-4.10782E+01 1.96434E+02
 -1      2539 3.58851E+04 8.48916E+03 7.43225E+02-7.24446E+03 1.06748E+02 1.95774E+02
 -1      2540 8.32363E+02 1.40359E+03-7.83857E+00-3.95558E+04-6.20306E+02 8.81222E+01
 -1      2541 4.39369E+04-6.70112E+02 2.75746E+02-1.26966E+04-5.60237E+02 1.27711E+03
 -1      2542 4.06621E+04-2.59927E+03-5.31609E+02-5.61871E+03-4.78029E+02 3.66315E+02
 -1      2543 6.02874E+04-7.61404E+03-4.34746E+02 9.75624E+03-2.00098E+02 5.55144E+02
 -1      2544 5.64655E+04-6.05946E+03-1.53641E+02 1.31278E+03-2.74170E+02 9.08006E+02
 -1      2545 4.88746E+04-4.86049E+03-2.09747E+02 3.02536E+03-3.43113E+02 9.11525E+02
 -1      2546-7.78722E+03-2.86042E+02 6.46381E+01-2.34562E+03-6.54270E+01-3.19563E+00
 -1      2547 3.33803E+04 5.11881E+03 1.76587E+02-4.78182E+03 6.43235E+02 2.73784E+02
 -1      2548 1.57721E+03 8.29161E+03-7.79748E+02-1.00460E+04-5.66704E+02-8.19213E+02
 -1      2549 6.15595E+03 4.85562E+03 2.37578E+02-1.85548E+04-2.58660E+02-8.73644E+02
 -1      2550-9.77999E+03 2.57449E+03-5.17848E+01-9.82001E+03-3.97954E+02-1.05734E+02
 -1      2551-1.90036E+04-6.07677E+03 2.60274E+02-2.76927E+04-5.42067E+02-4.44725E+02
 -1      2552 9.71307E+03 9.16944E+01-1.26977E+02-3.62278E+04-2.76052E+02-3.11548E+02
 -1      2553 7.13569E+03 1.37507E+03 1.44543E+02-2.65047E+04-2.49608E+02-3.69601E+02
 -1      2554-1.50225E+03-3.77735E+03 1.21523E+02-3.94028E+04-3.76111E+02-6.65263E-01
 -1      2555 7.83093E+02-3.70222E+03 8.33551E+01-4.11912E+04-1.48526E+02-3.01317E+02
 -1      2556-8.40813E+01-2.36843E+03 4.70881E+01-4.12512E+04-4.99849E+02 1.03722E+02
 -1      2557 7.59622E+02 4.73099E+03 5.02530E+02-3.62535E+04-5.98510E+02 7.21035E+02
 -1      2558-1.82378E+03 3.24852E+03 7.42199E+02-3.08037E+04-8.31257E+02 8.57479E+02
 -1      2559 5.60605E+03 4.72610E+03 5.56344E+02-2.97141E+04-6.56787E+02 3.58218E+02
 -1      2560 3.72082E+04-1.22142E+04 2.27156E+02 5.54564E+03-7.13833E+02 2.24018E+02
 -1      2561 4.41296E+04-1.36678E+04-4.36068E+02 2.41384E+03-1.31492E+03 2.82801E+02
 -1      2562 4.36163E+03-2.14424E+03-2.30346E+02-4.31073E+04-2.67386E+02-2.08457E+02
 -1      2563 1.08332E+03-1.12935E+03 1.05450E+02-4.44437E+04-2.06781E+02-4.07208E+01
 -1      2564-2.98794E+04 1.56374E+02-1.38229E+02-1.66088E+04 5.72940E+00-3.56918E+02
 -1      2565-1.84467E+04-5.12436E+03 1.91052E+02-2.37685E+04-2.16867E+02-2.22086E+02
 -1      2566-1.41054E+04-1.01852E+03-1.05111E+02-2.62528E+04 6.15316E+01-2.37986E+02
 -1      2567-2.66939E+04 8.43708E+02 5.63098E+01-1.10348E+04-2.40714E+01-2.00122E+02
 -1      2568-2.34192E+04 5.98971E+02 3.31491E+01-1.59191E+04 3.99540E+01-6.20022E+02
 -1      2569-4.33747E+04 9.54178E+03 2.59333E+02 6.05593E+03-7.23096E+02-1.43729E+03
 -1      2570-3.74875E+04 1.24414E+04 4.14701E+02 3.75817E+03-1.42102E+03-4.86752E+02
 -1      2571-4.73774E+04 4.65442E+03 3.58868E+02 1.04518E+04-1.06457E+03-1.13596E+03
 -1      2572 2.49200E+04 2.25688E+02 9.47106E+01-1.85648E+03 4.10945E+02 4.35096E+02
 -1      2573 2.76828E+04 2.20828E+03 1.82903E+02-2.95453E+03 4.59921E+02 5.88781E+02
 -1      2574 3.17508E+04 1.24014E+03 2.24080E+01-1.92644E+04 2.40155E+01 6.18230E+02
 -1      2575-2.06328E+04-1.22600E+03 1.15344E+02-1.87149E+04 8.47004E+01-5.09148E+02
 -1      2576-1.89204E+04-1.01357E+03-7.08283E+01-1.41456E+04 1.61343E+02-4.32480E+01
 -1      2577 1.26455E+04-3.74136E+02 3.16836E+01-2.40157E+04 1.62180E+02 1.84527E+02
 -1      2578 3.76235E+04 3.56588E+03-3.67702E+02-1.33178E+04 2.72844E+02 2.57883E+02
 -1      2579 2.87495E+04-5.37257E+02-9.68712E+01-6.69477E+03 1.80570E+02 5.34717E+02
 -1      2580 3.39643E+04 1.43235E+03-1.62331E+02-8.86356E+03 2.27821E+02 2.28953E+02
 -1      2581 3.09849E+04-8.23390E+02 3.15274E+01-1.08176E+04 3.34153E+02 9.41545E+01
 -1      2582-1.47481E+03 3.92499E+02-4.64498E+01-4.59687E+04-4.19577E+01 2.90604E+02
 -1      2583-1.32691E+04-1.98517E+03-7.70246E+01-1.07497E+04 1.61373E+02-1.32763E+02
 -1      2584 2.06476E+04-3.41451E+02-9.13331E+01-1.82702E+04-3.19713E+01 4.08035E+02
 -1      2585 4.83192E+04-4.81613E+03 2.35055E+02 7.97602E+03-1.87599E+02 5.13005E+02
 -1      2586 4.00140E+04 5.50806E+03-1.64350E+02-1.18305E+04 2.50220E+02 2.18562E+02
 -1      2587 3.58522E+04 4.06094E+03 1.62249E+02-6.46419E+03 3.44525E+02 6.15980E+02
 -1      2588 2.75360E+04 4.07598E+02-3.52441E+02-2.14883E+04 2.42407E+01 1.84225E+02
 -1      2589-3.88659E+03-5.13100E+03 1.70979E+02-3.70106E+04-5.58084E+02-3.34246E+02
 -1      2590-2.85382E+03-4.83130E+03 1.96163E+02-3.71414E+04-2.34402E+02-3.81575E+02
 -1      2591-7.03869E+03 8.97968E+02-7.76033E+01-4.27164E+04-1.37634E+02 5.03252E+02
 -1      2592-8.48916E+03 4.78249E+02 1.90368E+02-3.61478E+04-3.48343E+02 3.89098E+02
 -1      2593 4.32708E+04-7.82748E+03-3.23949E+02 8.39533E+03-5.29936E+02 2.49496E+02
 -1      2594 7.84834E+04-1.25023E+04 8.20447E+01 9.76146E+03-2.51383E+02 7.22874E+02
 -1      2595-4.80354E+02-1.02484E+03-1.90724E+01-3.95543E+04-5.65670E+02-3.70987E+01
 -1      2596-5.90889E+03-7.61051E+02 8.19307E+01-2.67476E+04-1.01349E+02 2.99492E+01
 -1      2597-3.81005E+03-3.31357E+03-6.18921E+02-1.91763E+04-3.88790E+02 1.26266E+03
 -1      2598 4.23096E+04-6.67238E+03 4.18411E+02 9.19460E+03-1.64214E+03 1.04482E+03
 -1      2599 2.96646E+04-8.06889E+03 4.66958E+02 6.11966E+03-4.95327E+02 3.99730E+02
 -1      2600-2.70071E+04-2.21345E+03-1.73056E+02-2.52601E+03 4.45617E+02-7.61488E+02
 -1      2601 3.33717E+03-2.81850E+03 1.62045E+02-2.22836E+04 5.70829E+01 4.13998E+02
 -1      2602 3.65766E+04-1.70015E+04-7.73264E+02-2.42646E+03-9.16722E+02 5.61955E+02
 -1      2603-7.18130E+04 1.09304E+04 6.92740E+02 1.07754E+04-8.82312E+01-8.47985E+02
 -1      2604 1.29807E+04 6.23526E+03-4.96242E+01-3.09733E+04-4.77049E+02 6.25874E+02
 -1      2605 7.80520E+03 6.13896E+03-3.06997E+02-3.38178E+04-3.99072E+02 2.11163E+02
 -1      2606 8.56002E+03 5.64546E+03 6.46950E+01-3.20151E+04-4.57730E+02 3.20578E+02
 -1      2607-6.13849E+04 7.14872E+03-9.67611E+01 8.72350E+03-2.35203E+02-2.66378E+02
 -1      2608 3.57484E+03-3.66136E+02-3.59473E+01-2.54184E+04-2.22927E+02 5.51093E+01
 -1      2609-6.40135E+02-6.89021E+03-8.69947E+01-1.13739E+04-4.11395E+02 4.07900E+02
 -1      2610-4.52161E+03 3.06227E+03 5.16620E+02-3.92838E+04-5.43359E+02 9.99166E+02
 -1      2611-1.42908E+04-3.23713E+03-2.32179E+02-1.36758E+04 5.56949E+01-2.86624E+01
 -1      2612-1.89195E+04-4.19016E+03 1.20859E+02-2.66928E+04-2.27537E+02-3.72625E+02
 -1      2613-1.86638E+04-4.59077E+03-4.97715E+01-2.54987E+04-1.37334E+02-3.29012E+02
 -1      2614 8.53706E+03-6.30666E+02-7.21829E+01-4.28868E+04-1.54912E+02-4.00277E+02
 -1      2615 1.20813E+04-1.47471E+04-2.15533E+02-1.60106E+03-5.11656E+02 1.72611E+02
 -1      2616-1.73515E+03-2.65166E+03 3.85179E+01-3.84832E+04-3.63237E+02-1.34213E+02
 -1      2617-4.33290E+04 4.06833E+03-8.34235E+02 9.77633E+03-1.18204E+03-3.61284E+02
 -1      2618-2.83069E+04 5.00343E+03-1.78264E+02 3.45711E+03-1.21686E+03-8.57635E+02
 -1      2619-4.01602E+04 4.36838E+03 2.71101E+02 7.87767E+03-3.87843E+02-3.66557E+02
 -1      2620-4.58974E+04 4.44308E+03 1.01804E+03 8.07824E+03-3.46216E+02-4.10564E+02
 -1      2621 8.36105E+03-2.38388E+03 9.62878E+01-1.13257E+04-2.19895E+02 2.21345E+02
 -1      2622 2.08146E+04-3.32381E+03 1.02412E+02-2.27928E+03-4.85595E+02 7.37751E+02
 -1      2623 2.23864E+04-3.95542E+02-2.16068E+02-1.09888E+04-2.91154E+02 4.90435E+02
 -1      2624 1.72944E+04-9.75144E+03 3.15798E+02 1.65861E+03-7.98077E+02-2.75360E+01
 -1      2625 1.03694E+03-2.18096E+03 3.65634E+02-2.83304E+04-3.12563E+02-1.59453E+02
 -1      2626-2.35666E+04-3.69934E+02 1.40846E+02-2.41043E+04 1.01499E+02-3.16553E+02
 -1      2627-1.86325E+04-4.71432E+02 3.59948E+02-2.61099E+04 6.82342E+01-3.76430E+01
 -1      2628 5.49100E+04-6.13242E+03 1.21350E+02 9.40890E+03-1.92042E+02 3.82652E+02
 -1      2629-3.18779E+04-4.36466E+03-1.07582E+02-3.91723E+03 6.93893E+02-5.84654E+02
 -1      2630-2.06678E+04 1.04685E+03 1.05210E+02-7.15936E+03 1.56318E+02-3.64266E+02
 -1      2631-2.08916E+04-1.49612E+03 2.32687E+02-2.22047E+04-1.23400E+02-1.83170E+02
 -1      2632 2.09341E+04-2.57457E+02-4.25770E+02-2.13070E+04-1.95149E+02 2.80246E+02
 -1      2633 1.88845E+04 1.60102E+02 3.20190E+01-1.52028E+04-6.49407E+01 3.77556E+02
 -1      2634 1.35252E+04-3.98532E+03-3.01885E+02-2.05991E+04 1.04789E+02-2.12253E+02
 -1      2635 6.09193E+03-3.80602E+03 1.33424E+02-2.00026E+04-4.00393E+01 1.87366E+02
 -1      2636-2.74295E+04-2.02089E+02-7.18246E+01-2.10714E+04 1.24737E+02-5.61369E+02
 -1      2637-3.46130E+04-3.05325E+03-3.19065E+02-7.40009E+03 1.82408E+02-7.37565E+02
 -1      2638 3.12589E+03 5.16976E+03-7.25319E+01-3.70728E+04-2.16891E+02 7.24443E+01
 -1      2639 1.92984E+03 4.27145E+03-1.18606E+02-3.94196E+04-2.68064E+02-6.03030E+01
 -1      2640-2.01041E+04-2.24979E+03 2.60695E+02-2.46969E+04 3.99633E+01-2.28109E+02
 -1      2641 2.79735E+04-1.54165E+03-3.26750E+01-1.90310E+04 1.31004E+01 5.67008E+02
 -1      2642-5.03644E+04 4.58072E+03-2.70547E+02 5.94998E+03-1.73790E+02-3.79244E+02
 -1      2643 6.86767E+04-9.28259E+03-4.31824E+01 9.81105E+03-8.04934E+01 9.90860E+02
 -1      2644 4.48568E+03-3.09813E+03-5.00615E+01-3.79587E+04-2.63754E+02-2.36790E+02
 -1      2645 3.46618E+03 1.01983E+03 2.79863E+02-2.16084E+04-3.72073E+02 5.70704E+02
 -1      2646 2.69569E+04 3.68242E+03-2.50233E+02-2.33871E+04-3.40404E+02 2.11458E+02
 -1      2647-2.04828E+04 1.10139E+03-1.99740E+01-1.03760E+04 1.83666E+00-1.50583E+02
 -1      2648 3.47746E+04 2.17333E+03-1.89029E+02-1.57090E+04 1.68079E+02 3.37277E+02
 -1      2649-4.77570E+03-3.94725E+02 1.69399E+02-1.56740E+03 5.12197E+01-5.75440E+01
 -1      2650-9.77099E+02 1.19366E+04-2.37825E+02-4.58657E+03-1.35707E+03-1.01308E+03
 -1      2651-1.58755E+04 5.23212E+03-1.02094E+02-2.23178E+03-1.17527E+03-2.73298E+02
 -1      2652 2.47553E+04-2.69922E+03-1.10023E+02-1.85182E+04 1.71799E+01 4.09084E+02
 -1      2653-1.10788E+04-5.39635E+03-4.89124E+02-2.81505E+04-6.25947E+02-2.03557E+02
 -1      2654-1.95371E+04-4.24475E+03-1.75863E+02-2.36934E+04-5.15015E+02-1.62883E+02
 -1      2655-1.16034E+04-2.85913E+03-1.56879E+02-2.22172E+04-5.50303E+02-5.05561E+02
 -1      2656 4.07560E+04 8.17697E+03 2.19095E+02-8.89845E+03 7.77699E+02 3.35658E+02
 -1      2657 1.32646E+04 8.67263E+02-3.17074E+01-8.76232E+03 5.72602E+01 1.63480E+02
 -1      2658-1.11737E+04-1.65155E+03 5.51743E+01-8.13027E+03-5.15095E+01-1.89680E+02
 -1      2659-2.37660E+04 1.00659E+03 4.96502E+01-6.59753E+03 6.55929E+01-3.65754E+02
 -1      2660 2.26536E+04-1.70091E+03 3.97965E+01-1.60001E+04-4.47982E+01 1.82080E+02
 -1      2661 2.30841E+04-2.09329E+03-1.39130E+02-1.95602E+04 5.45116E+01 2.85810E+02
 -1      2662-5.02112E+04 4.55736E+03 5.85905E+01-1.15474E+03-4.44799E+02-6.30715E+02
 -1      2663 3.61254E+03-2.57274E+02-1.50594E+02-4.60580E+04-1.37187E+02-5.86096E+01
 -1      2664 1.79907E+02 2.70045E+02 1.94436E+02-4.23655E+04-5.90058E+02 9.06284E+01
 -1      2665 3.80562E+04-4.48985E+03-3.39866E+01 6.38256E+03-2.54881E+02 4.72151E+02
 -1      2666-4.24317E+04 6.95969E+03 1.11075E+03 9.10711E+03-9.05228E+02-8.36008E+02
 -1      2667-2.76152E+04 3.17720E+03 4.66731E+02-1.09131E+03-7.41163E+02-4.78379E+02
 -1      2668 2.96021E+04-1.41023E+03 1.10478E+02-1.50617E+04 1.22299E+02 2.25510E+02
 -1      2669 1.91486E+04-1.75594E+03 1.12730E+02-3.99157E+03 6.79306E+01 2.57932E+02
 -1      2670 2.25357E+04-1.37693E+03-3.03293E+02-3.52248E+03 2.22092E+02 4.00350E+02
 -1      2671 1.70986E+04-9.11522E+02 1.04078E+02-9.08405E+03 1.16590E+02-6.39624E+00
 -1      2672 2.13467E+04-1.87596E+03 8.80322E+01-8.41005E+03-6.30067E+01 2.92328E+02
 -1      2673 2.23067E+04-1.66491E+03-9.76079E+01-1.28045E+04 1.00672E+02 3.61440E+02
 -1      2674 2.34312E+04-5.61996E+02 2.04485E+02-2.45094E+03 2.08262E+02 7.25320E+02
 -1      2675 2.69360E+04 1.41033E+03 7.25511E+01-1.71777E+04-7.14969E+02 2.78064E+02
 -1      2676 2.41475E+04-5.98697E+03 5.26147E+01 2.84694E+03-3.50936E+02-1.40040E+02
 -1      2677 1.02403E+04-5.24089E+03-1.30157E+02-4.92321E+03-8.54808E+02 8.38856E+02
 -1      2678 1.61094E+04-1.48031E+03-6.58700E+01-5.44767E+03 2.33998E+02 2.38814E+02
 -1      2679 2.19701E+04-2.59529E+03-6.77543E+01-2.12561E+04 4.76990E+01 3.56010E+02
 -1      2680 4.12585E+04-5.11694E+03-4.97095E+02 9.11542E+03-6.61667E+02 6.22283E+02
 -1      2681 2.74281E+04-1.12169E+04-1.71678E+02 4.57184E+03-8.16436E+02 2.15816E+02
 -1      2682 3.27721E+02 2.30752E+03 8.83509E+01-4.13266E+04-5.38154E+02 9.42875E+01
 -1      2683 1.68880E+04-3.03247E+03 1.57250E+02-2.23528E+04 2.26961E+02-5.23623E+01
 -1      2684 2.09087E+04-3.26569E+03 7.11542E+01-2.17113E+04 2.06284E+02 2.61338E+02
 -1      2685-1.61562E+04-2.31956E+02-1.05346E+02-9.28303E+03 3.46988E+01-8.65106E+01
 -1      2686 1.58124E+04-3.64603E+03-9.03626E+01-2.20570E+04 3.69007E+02-1.49286E+02
 -1      2687 2.33105E+04-3.09393E+03 1.03645E+01-2.06750E+04 1.05102E+02 5.14926E+02
 -1      2688-3.74340E+04 2.46511E+03-2.45840E+02-1.05833E+03-7.62131E+02-3.71760E+02
 -1      2689 3.54532E+04-3.02811E+03 3.18097E+02-2.33202E+02-2.85812E+02 4.17991E+02
 -1      2690 8.93362E+03-1.54151E+03-3.92850E+02-2.41715E+04 4.79357E+01 4.60293E+01
 -1      2691-2.93269E+04 3.81999E+02 4.04282E+02-9.12796E+03 2.39196E+02 3.44025E+01
 -1      2692-3.30544E+04-5.78016E+02 1.54366E+02-1.31779E+04 7.63405E+01-4.64743E+02
 -1      2693-1.88726E+04-2.15126E+03 1.41100E+02-2.60684E+04-6.30942E+01-2.67380E+02
 -1      2694-2.29024E+04 9.70060E+01 1.86683E+02-2.08894E+04-1.05732E+01-6.23310E+02
 -1      2695 1.04545E+04-3.66027E+03-8.81668E+01-2.14629E+04 1.94094E+02 2.74742E+02
 -1      2696 1.01847E+04-2.60951E+03-9.21056E+00-2.29327E+04 1.29842E+02 1.88037E+02
 -1      2697-2.26921E+03 2.31751E+02-4.56349E+02-1.94497E+04-4.87793E+02-8.76265E+02
 -1      2698-1.73997E+03-4.23272E+03-8.77383E+01-3.16344E+04-5.29665E+02-3.45667E+02
 -1      2699-2.78356E+04 3.28839E+02-1.84781E+02-6.02700E+03 2.27318E+02-3.04152E+02
 -1      2700 2.86435E+04-2.07906E+02 2.97805E+02-4.93453E+03 2.20840E+02 4.95749E+02
 -1      2701 3.07216E+04 1.22434E+03 1.00780E+01-5.20375E+03 1.59253E+02 5.78389E+02
 -1      2702 2.63775E+04-2.27267E+03-2.98546E+01-1.53268E+04 1.08517E+02 1.42011E+02
 -1      2703-5.55743E+03-5.72206E+03-1.35482E+02-3.31504E+04-5.44626E+02-5.91560E+02
 -1      2704 2.46667E+04-1.90372E+03 2.81373E+01-7.01854E+03 1.11156E+02 2.86501E+02
 -1      2705 1.22171E+04 3.00033E+03 1.95719E+02-2.23459E+04-6.24439E+02 4.90866E+02
 -1      2706 1.66997E+04 3.59794E+02-1.01966E+02-1.16475E+04-6.79829E+00 2.97107E+02
 -1      2707-4.86596E+03-1.76640E+03 7.78910E+01-3.69970E+03 1.07037E+01-7.49798E+01
 -1      2708 2.70240E+04-1.93851E+03-4.94087E+01-1.11819E+04 2.25935E+02 2.71687E+02
 -1      2709-9.24169E+02-4.47233E+03 2.59950E+02-3.66449E+04-1.78457E+02-2.50277E+02
 -1      2710-1.95797E+04-5.93599E+02 2.01045E+02-2.49546E+04 1.34331E+02-2.61463E+02
 -1      2711-2.16958E+04-2.53351E+02 1.13759E+02-2.36363E+04 3.62444E+01-3.30157E+02
 -1      2712-1.93709E+04 3.10699E+02-3.83540E+02-1.20020E+04-5.84800E+02-2.82567E+02
 -1      2713-7.88880E+03-1.42327E+03 1.62502E+02-4.77703E+03 3.76890E+00-3.57503E+02
 -1      2714-1.09790E+04-6.35460E+02 3.63214E+01-5.96662E+03-1.07535E+01-1.91314E+02
 -1      2715 1.16069E+04-8.42259E+02-2.05358E+02-4.35845E+03 1.23635E+02 2.33678E+02
 -1      2716-8.27025E+03-6.85399E+02 8.10336E+01-3.45917E+03 6.19007E+01-1.81915E+02
 -1      2717-4.57997E+03-7.59289E+02 2.97523E+01-2.27648E+03 1.11009E+01-2.08530E+01
 -1      2718 5.35309E+03 1.03057E+03 8.14402E+00-3.26908E+03-1.81280E+01 1.95549E+02
 -1      2719-3.15997E+04 2.20396E+03 2.35909E+02-8.75226E+03-6.56877E+02-5.33768E+02
 -1      2720-2.13827E+02-7.81097E+02 4.73884E+02-8.15962E+02 2.10402E+02 1.97383E+02
 -1      2721-5.11557E+01 1.55704E+03 4.08311E+02-8.22750E+01 3.70378E+02 2.19803E+02
 -1      2722-3.29583E+02 1.26517E+03 4.95845E+02-2.38378E+02 3.58092E+02 1.65807E+02
 -1      2723 1.52208E+03 2.23721E+03 5.82219E+01 1.97730E+03-8.84428E+01-1.54147E+01
 -1      2724 2.11042E+03 1.88723E+03 4.61745E+01 2.19977E+03-1.58509E+02-6.05764E+01
 -1      2725-4.82910E+02-1.99676E+02 4.61205E+02-7.90583E+02 2.70559E+02 1.29892E+02
 -1      2726 2.75334E+03 4.28218E+02-7.95239E+00 1.48852E+03-3.59944E+02-4.00353E+02
 -1      2727 3.51044E+03 3.04420E+02-2.94906E+01 1.38477E+03-2.77221E+02-4.95205E+02
 -1      2728 3.69349E+03 5.41800E+02 2.48020E+01 1.62787E+03-2.95068E+02-5.31062E+02
 -1      2729 5.31931E+03-2.76126E+01-1.14088E+00 1.07675E+03-2.06720E+02-5.85699E+02
 -1      2730 1.20528E+03 6.06438E+02 6.12165E+01 9.96343E+02-6.66088E+01-1.88524E+02
 -1      2731 1.91242E+03 5.35398E+02 6.52905E+01 1.23650E+03-2.01247E+02-1.91866E+02
 -1      2732 1.96811E+03 7.44988E+02 1.25226E+01 1.45355E+03-2.54691E+02-2.68164E+02
 -1      2733-1.02060E+02 5.55983E+02 1.31457E+02 1.68054E+02-2.96613E+01-3.70789E+01
 -1      2734-2.87591E+02 4.31716E+02 2.35486E+02-9.07106E+01-9.47086E+01 1.83308E+01
 -1      2735 4.48420E+02 1.24122E+03 9.80866E+01 8.59985E+02-1.27514E+02-7.78603E+01
 -1      2736 1.91474E+02 1.14888E+03 8.70793E+01 6.37219E+02-7.09673E+01-9.70175E+01
 -1      2737 4.18423E+03 2.39113E+02-1.06945E+02 1.32050E+03-2.36116E+02-6.15640E+02
 -1      2738 5.49986E+03 3.43134E+02-4.28345E+01 1.82734E+03-7.56453E+01-4.46171E+02
 -1      2739-1.06812E+02 2.32161E+03 7.60615E+01 4.81812E+02 1.48304E+02 4.55365E+01
 -1      2740 7.04327E+02 1.38121E+03 1.23804E+02 1.12165E+03-1.85663E+02-1.05979E+02
 -1      2741 1.02434E+03 1.26098E+03 1.34795E+02 1.23739E+03-2.29491E+02-1.18910E+02
 -1      2742 1.11538E+03 1.65087E+03 1.59804E+02 1.45947E+03-2.24752E+02-7.84541E+01
 -1      2743 5.51036E+03 5.65527E+01-1.67083E+02 1.26518E+03-1.48663E+02-7.58881E+02
 -1      2744 1.47241E+03 1.09492E+03 4.80641E+01 1.46218E+03-2.36071E+02-2.04809E+02
 -1      2745 2.24533E+03 1.14086E+03 3.20664E+01 1.82858E+03-2.92512E+02-2.70386E+02
 -1      2746 4.84240E+03 4.99459E+02-7.41107E+01 1.94018E+03-1.19763E+02-3.92830E+02
 -1      2747 6.39778E+03-1.31539E+01-1.64510E+02 1.46189E+03-3.25064E+01-7.72278E+02
 -1      2748 5.83545E+02 1.02574E+03 1.16787E+02 8.74449E+02-1.56832E+02-9.55478E+01
 -1      2749-5.78756E+02-1.01975E+03 1.95185E+02-9.74853E+02-2.83940E+01 6.86652E+01
 -1      2750-4.62681E+02 9.05738E+02 3.61145E+02-1.65111E+02-2.79568E+01 1.74582E+02
 -1      2751 3.96041E+03 1.53558E+02-6.07782E+01 1.07978E+03-1.42331E+02-5.30998E+02
 -1      2752 2.43765E+02 1.49812E+03 3.12543E+02 7.14746E+02-1.09004E+02-8.25293E+01
 -1      2753 3.85863E+02 1.66194E+03 1.75091E+02 8.85457E+02-1.21444E+02-2.87323E+01
 -1      2754 2.64562E+03 2.68170E+02 5.08225E+01 1.29053E+03-2.47164E+02-2.45040E+02
 -1      2755 3.23975E+03 1.99415E+02 3.95711E+01 1.15432E+03-1.72045E+02-2.41153E+02
 -1      2756-4.48702E+02 4.29470E+01 2.12701E+02-6.02600E+02-2.81080E+01 1.93866E+02
 -1      2757-1.27551E+02 1.61643E+03 2.52158E+02 1.03960E+02 3.31013E+02 1.48242E+02
 -1      2758-4.73564E+02 9.96244E+02 4.44442E+02-1.51888E+02 1.84949E+02 1.96079E+02
 -1      2759 4.14351E+01 2.79069E+03 3.64332E+02 5.23313E+02 3.11051E+02 1.79095E+02
 -1      2760-2.47272E+02 8.53276E+02 3.10115E+02-9.46423E+01-8.78185E+01 5.99211E+01
 -1      2761 1.66591E+02 1.72410E+03 1.78834E+02 5.73571E+02-2.59415E+01 1.09729E+02
 -1      2762 2.68723E+03 1.58224E+03-3.45862E+01 2.28631E+03-1.48190E+02-1.19000E+02
 -1      2763 2.09076E+03 1.40741E+03-5.78669E+01 1.99370E+03-2.68193E+02-1.53487E+02
 -1      2764 2.68728E+03 1.08412E+03-1.11374E+02 1.95733E+03-2.88989E+02-2.74370E+02
 -1      2765 9.03061E+02 9.47250E+02 1.53943E+02 1.06084E+03-1.88948E+02-1.20701E+02
 -1      2766 1.83186E+02 2.64578E+03 9.42735E+01 9.58110E+02 6.49226E+01 6.73895E+01
 -1      2767 5.10380E+03 1.34398E+02-6.43863E+01 1.03155E+03-1.87819E+02-7.00103E+02
 -1      2768 7.81249E+02 1.83945E+03 1.34947E+02 1.33506E+03-1.45854E+02-1.53236E+01
 -1      2769 1.56712E+03 1.80230E+03 7.28695E+01 1.81826E+03-2.08538E+02-6.76015E+01
 -1      2770 1.03810E+03 2.56910E+03 4.40912E+01 1.80234E+03-7.33937E+01 7.90045E+01
 -1      2771 5.23773E+03 2.70818E+02-1.40500E+02 1.54494E+03-2.16705E+02-6.51693E+02
 -1      2772 3.20475E+03 1.20152E+03 5.28902E+01 2.18747E+03-1.58671E+02-2.19713E+02
 -1      2773 1.46979E+03 1.29573E+03 6.47476E+01 1.54064E+03-2.35374E+02-1.60745E+02
 -1      2774 1.01472E+03 1.99772E+03 9.65449E+01 1.57809E+03-1.37793E+02 1.27009E+01
 -1      2775 3.94088E+03 7.42779E+02 5.30072E+01 2.08093E+03-1.71063E+02-3.24376E+02
 -1      2776 4.25718E+02 2.52724E+03 1.01622E+02 1.30134E+03 1.31586E+01 9.75384E+01
 -1      2777 6.35616E+02 2.29618E+03 6.45492E+01 1.42563E+03-7.36023E+01 9.76321E+01
 -1      2778 3.91431E+03 5.12807E+01-8.75063E+00 1.07090E+03-1.06697E+02-2.80669E+02
 -1      2779 2.67953E+03 7.66700E+02-1.94304E+01 1.56710E+03-2.51414E+02-3.83275E+02
 -1      2780 3.38621E+03 7.40750E+02-1.76040E+02 1.83295E+03-2.73523E+02-4.39803E+02
 -1      2781 4.12394E+03 4.17137E+02-1.27487E+02 1.66465E+03-2.73851E+02-5.29994E+02
 -1      2782 3.50682E+02 2.15475E+03 9.10295E+01 9.89990E+02 5.10991E+01 1.88583E+02
 -1      2783-1.16072E+02 1.72923E+03 3.34347E+02 3.03847E+02 1.20721E+02 1.25571E+02
 -1      2784-4.66863E+01 1.96181E+03 1.10217E+02 5.06690E+02 1.34559E+02 1.50320E+02
 -1      2785-2.52918E+04-1.11772E+04-9.50168E+03-2.36904E+04-3.68985E+02 6.36564E+02
 -1      2786-2.45729E+04-1.06953E+04-8.90888E+03-2.29158E+04-1.97427E+02-2.11680E+03
 -1      2787-1.82619E+04-8.23110E+03-6.74228E+03-2.42845E+04-5.99954E+01-1.02150E+03
 -1      2788-3.11026E+04-1.33297E+04-1.33297E+04-2.20210E+04-5.06125E-13-3.85246E+03
 -1      2789 6.18441E+04 2.43472E+04 2.02604E+04-2.18706E+04-4.09130E+02-8.14002E+03
 -1      2790 5.10687E+04 2.05377E+04 1.79134E+04-2.21242E+04-1.56734E+02-6.81393E+03
 -1      2791 3.60764E+04 1.61262E+04 1.26801E+04-2.14884E+04 4.22536E+02 5.89134E+03
 -1      2792 4.30985E+04 1.75055E+04 1.41351E+04-2.19030E+04-5.50344E+02 5.42681E+03
 -1      2793-5.44796E+04-2.19918E+04-1.82827E+04-1.98997E+04 5.68951E+02-6.91902E+03
 -1      2794-4.13396E+04-1.69198E+04-1.37021E+04-2.13064E+04-4.11135E+01-5.09871E+03
 -1      2795-4.20757E+04-1.80269E+04-1.55487E+04-2.20552E+04 4.49306E+01-2.18202E+03
 -1      2796 6.01467E+03 2.81304E+03 1.88971E+03-2.62401E+04 6.92737E+01 7.41371E+02
 -1      2797 1.19600E+04 5.50179E+03 4.08222E+03-2.57560E+04-9.12126E+01 1.69941E+03
 -1      2798 8.01331E+03 3.07204E+03 2.65411E+03-2.63332E+04 1.42477E+02 3.83031E+02
 -1      2799 2.05507E+04 8.66537E+03 7.14813E+03-2.44175E+04-7.26839E+01-2.97797E+03
 -1      2800 2.44017E+03 1.03593E+03 7.01578E+02-2.75273E+04-1.16200E+02-3.19863E+02
 -1      2801 2.87216E+01 4.45686E+02 2.23230E+02-2.73026E+04-3.20831E+02 1.14760E+01
 -1      2802 4.18830E+03 1.94925E+03 1.68058E+03-2.73001E+04-2.58724E+02-7.43707E+01
 -1      2803 7.33320E+04 2.99722E+04 2.77047E+04-1.99661E+04 1.19318E+03 4.82209E+03
 -1      2804 9.80927E+04 3.69864E+04 3.26620E+04-1.92844E+04 4.76658E+02 1.33819E+04
 -1      2805 9.66404E+04 3.80409E+04 3.54306E+04-2.10997E+04 9.89112E+01 3.64701E+03
 -1      2806 3.80771E+04 1.55885E+04 1.27871E+04-2.26493E+04-1.25023E+02-4.40857E+03
 -1      2807-1.71963E+04-7.56196E+03-6.35678E+03-2.40098E+04 1.58055E+02-2.53929E+03
 -1      2808-2.45958E+04-1.10215E+04-9.35789E+03-2.27162E+04 8.74570E+01-3.69788E+03
 -1      2809 1.73569E+04 7.36716E+03 5.68168E+03-2.48350E+04-6.86906E+01 2.37459E+03
 -1      2810-5.06661E+04-2.05974E+04-1.72201E+04-2.16401E+04-1.41516E+02 6.57821E+03
 -1      2811-6.05243E+04-2.58026E+04-2.12448E+04-2.15271E+04-7.58313E+02 8.03733E+03
 -1      2812-5.42819E+04-2.38270E+04-2.00760E+04-2.19766E+04-8.60640E+02 1.03740E+03
 -1      2813-3.18550E+04-1.29678E+04-1.16874E+04-2.25813E+04 6.48328E+01-2.02433E+03
 -1      2814-1.43559E+05-5.72912E+04-5.49374E+04-2.10377E+04-5.11327E+02-4.29945E+03
 -1      2815-1.07190E+05-4.42454E+04-4.08353E+04-1.87210E+04 5.61202E+02-7.07849E+03
 -1      2816-1.18545E+05-5.08052E+04-5.08052E+04-1.99610E+04 4.32303E-13-9.89519E+02
 -1      2817 3.83644E+03 2.00825E+03 1.54755E+03-2.70182E+04 9.66810E+01 1.68781E+02
 -1      2818-1.12827E+04-5.25360E+03-4.05116E+03-2.51260E+04 9.79416E+01-1.50463E+03
 -1      2819 5.61671E+04 2.19024E+04 1.70883E+04-2.03717E+04 1.47547E+02 7.08223E+03
 -1      2820 2.43295E+04 1.07825E+04 9.31163E+03-2.35538E+04-1.57863E+02-1.40315E+03
 -1      2821 1.72530E+04 7.64721E+03 6.37997E+03-2.47643E+04-3.00221E+01-1.60501E+03
 -1      2822-1.69167E+03-1.07975E+03-5.75115E+02-2.76409E+04-3.50929E-01 2.75266E+02
 -1      2823 1.77466E+05 6.96447E+04 6.34840E+04-2.51475E+04 7.39609E+02 2.16273E+04
 -1      2824 1.63456E+05 6.38441E+04 6.19119E+04-2.32932E+04 9.01645E+02 7.35830E+03
 -1      2825-2.13413E+04-9.31223E+03-6.89812E+03-2.45123E+04-3.15500E+02 2.63848E+03
 -1      2826-1.48557E+04-6.58987E+03-5.13930E+03-2.57400E+04-6.32004E+01 1.88815E+03
 -1      2827-1.04921E+04-4.64073E+03-3.55305E+03-2.64013E+04-7.16114E+01 1.58658E+03
 -1      2828 2.81426E+04 1.25302E+04 1.04167E+04-2.33500E+04-8.53322E+01-3.86943E+03
 -1      2829 8.96215E+04 3.11366E+04 2.76336E+04-2.17929E+04-5.02167E+02-9.14461E+03
 -1      2830-1.46370E+05-5.72376E+04-5.83828E+04-2.24567E+04-1.86185E+02 4.01557E+03
 -1      2831-7.11351E+04-2.96707E+04-2.50440E+04-2.04926E+04 1.29427E+02-3.64902E+03
 -1      2832-6.93174E+04-2.84287E+04-2.33379E+04-1.97312E+04 3.67462E+02-9.98539E+03
 -1      2833-5.63748E+04-2.27301E+04-2.14464E+04-2.10587E+04 3.87016E+02-3.79195E+03
 -1      2834-6.45533E+03-3.18382E+03-2.52127E+03-2.61125E+04-4.21462E+01-9.22186E+02
 -1      2835-2.42403E+03-1.01690E+03-6.73162E+02-2.63827E+04-1.75542E+01-4.02326E+02
 -1      2836-8.06979E+04-3.09429E+04-2.75575E+04-2.17356E+04 1.29828E+02 8.88830E+03
 -1      2837-1.05477E+05-4.42094E+04-3.98019E+04-2.18471E+04-9.96063E+02 6.89385E+03
 -1      2838-8.98876E+04-3.68608E+04-3.44474E+04-2.05165E+04-6.69786E+02 1.04314E+03
 -1      2839-3.92697E+04-1.64721E+04-1.37342E+04-2.28740E+04 4.40074E+01 5.34634E+03
 -1      2840-1.44607E+05-5.51283E+04-5.63111E+04-2.53810E+04-2.28746E+02 1.00876E+04
 -1      2841 1.53394E+05 5.68806E+04 5.65763E+04-2.38560E+04-1.91563E+03-2.03420E+03
 -1      2842 1.30237E+05 4.97315E+04 4.37562E+04-2.14535E+04-6.59736E+02 1.52704E+04
 -1      2843 2.15631E+02-3.76085E+00 5.37365E+01-2.68951E+04 6.75568E+01 2.15032E+01
 -1      2844-5.14926E+03-2.47512E+03-1.64753E+03-2.71025E+04-2.66017E+01 7.79809E+02
 -1      2845 3.41729E+04 1.38696E+04 1.29624E+04-2.26998E+04 1.74384E+01-1.45133E+03
 -1      2846 4.60473E+04 1.84621E+04 1.68570E+04-2.23523E+04-3.86483E+02-2.60513E+03
 -1      2847 4.39788E+04 1.89422E+04 1.69309E+04-2.26852E+04 1.35448E+02 2.05443E+03
 -1      2848 5.41912E+04 2.27032E+04 1.95802E+04-2.20878E+04-5.01751E+02-9.91574E+02
 -1      2849 5.88815E+04 2.59500E+04 2.52968E+04-2.03882E+04-1.11864E+02 2.94947E+03
 -1      2850 7.00485E+04 2.84826E+04 2.59038E+04-2.12890E+04-6.67952E+02-2.89431E+03
 -1      2851-1.15893E+05-4.36107E+04-3.87849E+04-1.92888E+04 8.47166E+02-1.78083E+04
 -1      2852-1.47990E+05-5.58711E+04-5.36603E+04-2.15309E+04 2.15786E+03-1.36940E+04
 -1      2853 9.71462E+03 4.40224E+03 3.14254E+03-2.66187E+04-1.95538E+02-1.25571E+03
 -1      2854-3.21625E+04-1.31037E+04-1.15512E+04-2.33562E+04-4.55647E+02 1.47094E+03
 -1      2855-4.24365E+04-1.71528E+04-1.35824E+04-2.22240E+04-1.67697E+02 2.28018E+03
 -1      2856 1.53349E+04 7.03939E+03 5.88747E+03-2.52655E+04-1.58906E+02-2.64776E+03
 -1      2857 1.30184E+04 6.17334E+03 4.78001E+03-2.59326E+04-2.25243E+02-6.37180E+02
 -1      2858 6.90097E+04 2.85097E+04 2.33950E+04-2.03246E+04 3.90676E+02 7.65637E+03
 -1      2859-3.01692E+04-1.29753E+04-9.41849E+03-2.30231E+04-3.93338E+02 3.93969E+03
 -1      2860 2.00032E+04 8.78563E+03 6.92078E+03-2.45022E+04 1.80270E+02 7.75760E+02
 -1      2861 2.73546E+04 1.21691E+04 9.09133E+03-2.34443E+04 2.75081E+02 2.12213E+03
 -1      2862-4.02890E+03-2.11143E+03-1.58753E+03-2.72001E+04-2.76456E+02 2.13087E+02
 -1      2863 1.53181E+05 5.39200E+04 5.17437E+04-2.93145E+04-2.99296E+02-1.16739E+04
 -1      2864 2.46618E+04 1.07860E+04 8.22102E+03-2.35400E+04 1.50892E+02 3.59067E+03
 -1      2865 2.27072E+03 7.18160E+02 6.53906E+02-2.66967E+04-9.81510E+01 2.92886E+02
 -1      2866-8.43607E+03-3.74930E+03-3.20088E+03-2.64965E+04-2.32358E+02 2.96527E+02
 -1      2867-6.39272E+04-2.63228E+04-2.36822E+04-2.07287E+04 3.16890E+02 3.68148E+03
 -1      2868-1.08610E+05-4.31013E+04-4.06722E+04-2.24049E+04-1.00457E+03 1.39744E+04
 -1      2869-1.24476E+04-5.51402E+03-4.76519E+03-2.52229E+04 4.35744E+01-7.35759E+02
 -1      2870-4.83679E+03-2.50634E+03-1.89674E+03-2.66378E+04 5.96104E+01-3.36284E+02
 -1      2871-8.95635E+04-3.60001E+04-3.13311E+04-1.91842E+04 9.45390E+02-1.26048E+04
 -1      2872 1.21785E+05 4.32023E+04 3.83052E+04-2.42562E+04-1.33783E+03-1.30026E+04
 -1      2873 6.13192E+03 3.21661E+03 2.22709E+03-2.73957E+04-5.56805E+01-7.23573E+02
 -1      2874 7.48029E+03 3.41200E+03 3.04502E+03-2.66856E+04-7.55988E+01-1.55729E+02
 -1      2875 1.07940E+05 4.33513E+04 4.17057E+04-2.36550E+04-8.92340E+02-3.01906E+03
 -1      2876-8.39394E+03-3.87736E+03-3.18801E+03-2.60219E+04-1.72125E+02-5.08491E+02
 -1      2877-1.31251E+04-6.04123E+03-4.91089E+03-2.58190E+04-1.97733E+02 4.14847E+02
 -1      2878-1.86661E+04-7.81423E+03-6.47759E+03-2.48771E+04-2.78824E+02 1.03914E+03
 -1      2879 3.44121E+04 1.36065E+04 1.18617E+04-2.25699E+04 1.05349E+02 1.87660E+03
 -1      2880 1.34939E+04 6.61651E+03 5.11182E+03-2.58795E+04-2.92643E+01 8.60453E+02
 -1      2881 1.19205E+05-2.55154E+02 9.34652E+02 3.52837E+03-2.27789E+02 1.73796E+03
 -1      2882 1.24340E+05 4.22657E+02 1.17440E+03 4.25840E+03-1.72537E+01 1.90002E+03
 -1      2883 1.26438E+05-3.52084E+02 8.92175E+02 3.21372E+03-1.74563E+02 1.80745E+03
 -1      2884-1.48430E+04 4.44958E+01-2.36575E+03-4.03231E+03 5.98233E+01 5.92864E+02
 -1      2885-1.00261E+03 1.40914E+02-2.06791E+03-6.61699E+03-2.88708E+02 7.51570E+02
 -1      2886 3.49895E+04-1.05255E+02-5.30363E+02-1.15647E+04 1.82968E+02 3.43644E+03
 -1      2887 5.34560E+04 5.57129E+01-9.25459E+01-1.21608E+04 2.33583E+02 3.60263E+03
 -1      2888 4.24942E+04-5.69745E+01-1.79678E+02-8.43498E+03 1.25723E+02 3.13055E+03
 -1      2889 1.04192E+05-1.10160E+03 1.08208E+03-7.86330E+03-1.43189E+02 2.36078E+03
 -1      2890 9.45162E+04-1.15370E+02 1.27584E+03-9.02287E+03 7.23340E+01-2.65455E+01
 -1      2891 8.65037E+04-3.28450E+02 6.66645E+02-8.75312E+03 9.18886E+00 2.31324E+03
 -1      2892 1.11909E+05 4.10250E+01 2.31177E+03-8.03446E+03 2.75920E+02 3.69331E+03
 -1      2893-2.67252E+04-2.67267E+02-1.34992E+03 8.34966E+02 8.69432E+01 6.12851E+02
 -1      2894-2.10359E+04-4.37013E+02-7.63284E+02 1.77956E+03 1.70931E+02 7.04543E+02
 -1      2895 1.06670E+05 2.86730E+02 1.13597E+03 4.81392E+03 5.81441E+00 2.03342E+03
 -1      2896 1.15056E+05 7.41591E+02 1.41295E+03 4.44287E+03-3.03299E+02 1.96612E+03
 -1      2897-3.16817E+04 5.94718E+02-1.56803E+03 3.51847E+02-6.53548E+01 2.40449E+03
 -1      2898-3.03863E+04 9.70546E+02-1.84510E+03-7.83550E+02-3.68725E+02 2.27701E+03
 -1      2899-2.98727E+04 6.66833E+02-1.53923E+03-6.81651E+02-2.50578E+01 2.29489E+03
 -1      2900-2.04371E+04-2.64511E+02-7.93689E+02 1.78627E+03-1.64126E+02 8.24689E+02
 -1      2901 1.13020E+05 4.81934E+02 1.63322E+03 3.67346E+03 2.86091E+02 3.99013E+01
 -1      2902 1.25465E+05 5.96268E+02 3.04890E+03-6.46232E+03 6.69259E+02 3.01946E+03
 -1      2903 1.36350E+05-1.42971E+02 2.81005E+03-4.98609E+03 1.17425E+02 2.31048E+03
 -1      2904 1.26349E+05-3.52883E+02 1.15300E+03 2.74955E+03 3.69577E+02 1.50727E+03
 -1      2905-1.22137E+04-5.08006E+02-5.18265E+02 1.78406E+03 5.02051E+01 1.26731E+03
 -1      2906-1.07360E+04-1.22023E+02-3.90128E+02 1.81032E+03-9.22878E+01 1.10220E+03
 -1      2907-1.10351E+04 2.87758E+02 4.63980E+01 9.65377E+02 2.92231E+01 1.33055E+03
 -1      2908 6.10902E+04-4.02228E+02 2.49086E+02 8.48302E+03 1.92843E+02-4.55938E+02
 -1      2909 4.82719E+04-2.75627E+02-1.42190E+03 8.31003E+03-1.14376E+01-5.41856E+02
 -1      2910 6.41463E+04-6.56337E+02 1.71467E+01 6.09279E+03 3.91869E+01 8.51702E+02
 -1      2911 1.21361E+05 2.31831E+02 1.37949E+03 3.69766E+03 1.15583E+02 3.69350E+02
 -1      2912 1.17422E+05-4.13359E+02 9.10343E+02 3.40719E+03 4.34464E+02 1.29858E+03
 -1      2913 9.32910E+04-9.00559E+01 1.43972E+03-9.76205E+03-1.75596E+02 3.92908E+03
 -1      2914 7.51325E+04-1.05622E+02 1.07433E+03-1.02236E+04-2.10272E+01 4.04585E+03
 -1      2915 1.37215E+04 1.86219E+02-1.72837E+03-9.23296E+03 2.98772E+01 3.72231E+03
 -1      2916 9.36502E+04 2.86983E+02 5.78484E+02 4.28500E+03-1.56658E+02 2.89823E+02
 -1      2917 1.03806E+05 7.63352E+02 1.11220E+03 3.79865E+03 2.87511E+02 2.38042E+02
 -1      2918-2.36464E+04-6.52614E+02-2.60805E+03-2.34804E+03 4.69480E+02 1.10343E+03
 -1      2919-1.07515E+04 1.17243E+03-1.44334E+03-5.22000E+03 9.43867E+01 2.56136E+03
 -1      2920-1.99397E+04 5.50620E+02-1.91272E+03-3.17770E+03 3.34539E+02 2.47723E+03
 -1      2921-3.13273E+04-2.16145E+02-1.95859E+03-4.51444E+02-1.53348E+02 2.02864E+03
 -1      2922-3.04058E+04-3.40914E+02-1.62244E+03 1.09177E+03-9.26006E+01 2.00492E+03
 -1      2923 4.93672E+04-7.65013E+01-7.45670E+02 7.59843E+03 2.05685E+02 6.02118E+02
 -1      2924 1.43459E+05 9.43891E+02 1.28727E+03 3.43380E+03-4.78572E+01 2.20227E+03
 -1      2925 1.41307E+05 3.79380E+02 2.49211E+03-3.25827E+03 4.24979E+02 1.38906E+03
 -1      2926 1.39490E+05-1.25344E+03 2.20506E+03-2.77105E+03 5.29131E+02 2.38044E+03
 -1      2927 8.74233E+04 1.12095E+02 8.15095E+02 6.12840E+03 8.65143E+01 1.98351E+03
 -1      2928 9.71541E+04 6.95090E+01 8.62775E+02 5.59529E+03 1.16307E+02 1.90590E+03
 -1      2929 3.65645E+04-1.39725E+02-1.07706E+03-1.02005E+04-3.05079E+02 4.73479E+02
 -1      2930 1.46824E+04 4.13418E+02-1.44449E+03-8.12881E+03-2.25029E+02 7.53771E+02
 -1      2931 1.39292E+05 5.24069E+01 2.78807E+03-4.03469E+03-2.45590E+01 1.48563E+03
 -1      2932 1.39418E+05 4.07040E+02 1.35411E+03 8.58543E+02-4.43948E+02 1.13037E+03
 -1      2933-7.76018E+03-2.38929E+02-1.44734E+02 1.72002E+03-9.69642E+01 8.69163E+02
 -1      2934 7.73878E+04-3.36543E+02 2.66210E+02 4.68886E+03-1.74397E+02 7.38063E+02
 -1      2935 7.35257E+04-7.68018E+02 3.71943E+02 6.53112E+03-4.99934E+01-3.83270E+02
 -1      2936 9.33218E+04-3.06362E+02 3.20907E+02 4.71425E+03 2.13775E+02 1.49403E+03
 -1      2937 1.44426E+05 5.62309E+02 1.86102E+03-8.74846E+02-5.52073E+01 1.32015E+03
 -1      2938 7.54004E+04 2.52516E+02 8.66999E+02-9.67615E+03 2.39943E+02-3.14266E+01
 -1      2939 6.82744E+04-3.16125E+02 1.08771E+02-9.05185E+03 2.84272E+02 2.53409E+03
 -1      2940 8.65576E+04-3.02877E+02 7.11947E+02-8.58754E+03-8.00986E+01 3.29945E+03
 -1      2941-2.17586E+04-3.56451E+02-2.75814E+03-3.64423E+03-3.75721E+02 2.45665E+03
 -1      2942-2.78355E+04-6.48156E+01-2.07921E+03-2.74931E+03 4.93354E+01 1.73615E+03
 -1      2943 1.34602E+05 3.36364E+02 1.83344E+03 2.92166E+03-1.79957E+02 7.50930E+02
 -1      2944 1.28511E+05 4.56085E+02 1.75201E+03 3.01061E+03 1.07448E+01 6.12032E+02
 -1      2945-2.93185E+04-1.60147E+01-1.76926E+03-8.02237E+02 7.52718E+01 1.37463E+03
 -1      2946 1.45276E+05-8.92908E+02 2.10614E+03-8.39939E+02 3.54169E+02 2.09166E+03
 -1      2947 1.07072E+05-8.12489E+02 1.08574E+03-7.84287E+03 1.48637E+02 3.00465E+03
 -1      2948 1.02745E+05-2.55783E+02 3.95120E+02 4.30703E+03 2.13809E+02 1.42635E+03
 -1      2949 1.44304E+05 8.44672E+01 2.95983E+03-2.28879E+03 2.76820E+01 1.91233E+03
 -1      2950 1.21293E+05-7.81712E+02 1.71304E+03-5.97015E+03-3.61559E+02 2.45910E+03
 -1      2951 1.44355E+05-1.23666E+03 2.22200E+03-9.95157E+02 1.80001E+02 2.04981E+03
 -1      2952 1.41828E+05-1.04424E+03 2.67840E+03-2.25703E+03-9.54921E+01 2.59536E+03
 -1      2953 7.67873E+04-3.00627E+02 5.04553E+02 6.97462E+03 9.48937E+01 1.68011E+03
 -1      2954 5.47412E+04 1.42010E+02-1.51134E+02-9.90904E+03 1.74658E+02 3.82080E+02
 -1      2955-7.31964E+03 9.80380E+01-5.35490E+01 8.96700E+02-1.79933E+02 1.04384E+03
 -1      2956 2.40253E+02 5.34689E+02-1.61705E+03-7.79035E+03 1.83882E+02 3.29718E+03
 -1      2957-2.61685E+04-8.01714E+02-7.47948E+02 1.72756E+03-3.03431E+02 1.85360E+03
 -1      2958-2.39907E+04-3.78203E+02-5.55518E+02 1.61245E+03 7.18886E+01 1.96629E+03
 -1      2959-2.70805E+04-2.41515E+02-6.53889E+02 1.83987E+03-1.01781E+02 1.73758E+03
 -1      2960-1.96177E+04 9.69981E+02-2.00544E+03-3.89171E+03-4.66407E+02 2.76154E+03
 -1      2961-2.68899E+04 7.71759E+02-1.98382E+03-2.04039E+03 2.66788E+02 2.40000E+03
 -1      2962-2.55467E+04 1.14083E+03-1.92974E+03-2.63852E+03-5.42601E+02 2.48894E+03
 -1      2963-8.06329E+03 1.18095E+03-1.82707E+03-6.02704E+03 1.55663E+01 2.94113E+03
 -1      2964 4.54553E+03 1.04639E+03-1.57186E+03-6.92121E+03-4.51519E+01 2.61432E+03
 -1      2965 6.05366E+04-1.11065E+03-7.88787E+02 6.35361E+03 3.14404E+01 6.55274E+02
 -1      2966 7.15656E+04-5.73555E+02-4.68186E+01 4.79701E+03-8.80422E+01 1.19816E+03
 -1      2967 8.37617E+04-3.24837E+02 2.36036E+02 5.11137E+03-3.50999E+02 9.49433E+01
 -1      2968-1.33289E+04-3.59642E+02-4.60972E+02 1.33177E+03-2.00402E+02 6.94914E+02
 -1      2969-2.89194E+04 4.33680E+02-8.94173E+02 1.28320E+03-9.64414E+01 1.84355E+03
 -1      2970-2.63648E+04-1.05252E+03-1.17263E+03 2.07050E+03-3.73828E+02 1.50975E+03
 -1      2971 8.23679E+04-5.19804E+02 2.45503E+02 5.17111E+03 2.23561E+02 1.17792E+03
 -1      2972-1.70687E+04-4.85487E+02-7.67871E+02 1.48779E+03-6.94711E+01 8.21974E+02
 -1      2973-1.96732E+04 6.07222E+01-3.70057E+02 1.31039E+03-5.20797E+01 1.44494E+03
 -1      2974-1.59176E+04-3.07717E+02-3.90221E+02 2.12553E+03 5.51057E+01 1.26159E+03
 -1      2975-7.43331E+03 1.34824E+02 1.10654E+02 1.20149E+03-1.47921E+02 1.13813E+03
 -1      2976-6.30975E+03-1.76767E+02-4.07377E+02 8.13385E+02-9.70516E+01 6.66628E+02
 -1      2977-1.91574E+04-3.45293E+02-8.48203E+02 2.29527E+03-3.82954E+01 1.33933E+03
 -1      2978 1.09854E+05-8.92107E+01 7.06592E+02 3.65185E+03 3.71808E+02 1.22442E+03
 -1      2979 1.34346E+05-3.18970E+02 1.29683E+03 2.58464E+03-2.89200E+02 1.82656E+03
 -1      2980 1.38237E+05 1.45775E+02 1.49056E+03 2.23470E+03-2.81128E+02 1.57492E+03
 -1      2981 1.32462E+05-1.47033E+02 1.13958E+03 2.64520E+03 2.26806E+02 1.44500E+03
 -1      2982-2.85812E+04-9.57772E+00-1.52857E+03 1.56301E+02 1.49469E+02 1.06188E+03
 -1      2983 1.27210E+05 4.32767E+02 2.86980E+03-5.21403E+03-4.53672E+02 6.97224E+02
 -1      2984 1.13083E+05-4.56747E+01 2.25866E+03-7.33080E+03-7.97490E+01 2.37634E+02
 -1      2985-1.56159E+04 1.00798E+02-3.31555E+02 1.31421E+03-2.29557E+02 1.45227E+03
 -1      2986 9.87016E+04 2.07793E+02 5.50923E+02 3.97279E+03 2.85112E+02 1.15110E+03
 -1      2987-2.04952E+04 1.91948E+02-8.00658E+02 1.41563E+03 6.89452E+01 1.73644E+03
 -1      2988-1.40931E+04-3.80160E+02-3.09566E+02 1.17598E+03 2.25150E+01 1.52868E+03
 -1      2989-1.25492E+04-8.99669E+01-1.79547E+02 1.18746E+03-9.42467E+01 1.27382E+03
 -1      2990 1.38631E+05 1.81451E+02 1.69344E+03 1.83266E+03-3.21695E+02 1.24777E+03
 -1      2991 1.43223E+05 6.30394E+02 1.92023E+03 1.66547E+03 4.63340E+02 1.97695E+03
 -1      2992 1.47008E+05-6.53494E+02 1.61431E+03-5.01998E+00 5.92921E+02 2.21898E+03
 -1      2993-2.24326E+04-2.12438E+02-6.56023E+02 2.20169E+03-3.32840E+02 1.53374E+03
 -1      2994 1.10727E+05 1.39623E-01 8.11271E+02 3.77028E+03-1.59967E+02 1.48432E+03
 -1      2995 1.46393E+05 1.20068E+02 2.09879E+03 7.69147E+02 5.62752E+02 1.39218E+03
 -1      2996 1.42660E+05 9.90417E+02 1.89107E+03 1.69931E+03-5.16453E+02 1.46608E+03
 -1      2997 8.93700E+04 2.24444E+02 5.56961E+02 3.79239E+03 2.62205E+01 8.85248E+02
 -1      2998 6.40274E+04-8.63766E+02-6.46181E+01 7.94561E+03 7.17722E+01 1.85944E+03
 -1      2999 5.29980E+04-6.08305E+02-1.06822E+03 9.08196E+03-2.20346E+01 1.88821E+03
 -1      3000-1.30931E+04 5.81418E+01-2.49323E+03-5.74282E+03-1.13401E+02 3.00019E+03
 -1      3001 5.03598E+04-7.17615E+01-6.94709E+02 7.67591E+03 1.45243E+02 6.58328E+02
 -1      3002 1.45647E+05 1.16486E+03 2.80134E+03 2.32938E+03 8.84802E+02 1.87612E+03
 -1      3003 6.37057E+04 2.20774E+02 5.92578E+02-8.01339E+03-1.29248E+02 3.13670E+03
 -1      3004 4.44205E+04 2.81235E+02-4.15184E+02-7.93140E+03 3.57467E+01 2.64305E+03
 -1      3005 2.08917E+04 4.38094E+02-1.02754E+03-7.05650E+03 1.86291E+02 3.37588E+03
 -1      3006 2.15561E+04 8.15366E+02-1.28781E+03-7.10356E+03-2.69417E+01 2.69629E+03
 -1      3007-9.78637E+03 5.87179E+01-6.66598E+01 1.11322E+03-1.61447E+02 1.10899E+03
 -1      3008-1.17455E+04-3.38572E+02-2.98634E+02 9.80881E+02 1.51375E+00 1.42849E+03
 -1      3009 1.37679E+05 5.08193E+02 1.97844E+03 4.07146E+03-1.13794E+02 1.64588E+03
 -1      3010 1.32922E+05-1.12631E+03 2.40446E+03-4.43560E+03 7.36085E+02 2.80132E+03
 -1      3011 1.32473E+05-1.21755E+03 1.86671E+03-4.36411E+03-4.35309E+02 2.43413E+03
 -1      3012 1.31649E+05 5.71567E+02 1.67531E+03 4.10321E+03 3.17367E+01 1.59599E+03
 -1      3013 6.58975E+04-5.30519E+02-5.94015E+02 4.89115E+03 1.58592E+02 1.19006E+03
 -1      3014 1.43518E+05 2.36716E+02 2.99520E+03-9.94051E+00 7.20374E+02 1.48171E+03
 -1      3015-2.97522E+04 3.89694E+01-2.27401E+03-1.39583E+03-1.59929E+01 1.58071E+03
 -1      3016-2.98066E+04-1.23071E+02-1.23498E+03 9.15934E+02 2.27634E+01 1.77065E+03
 -1      3017-2.03623E+04-3.22359E+02-5.66978E+02 1.66750E+03-1.06367E+02 1.80625E+03
 -1      3018-7.44896E+03-2.52167E+02-2.74722E+02 8.09356E+02 5.88012E+01 4.65973E+02
 -1      3019-1.08304E+04-2.69407E+02-2.80614E+02 1.01376E+03 9.37537E+01 5.27662E+02
 -1      3020-2.54050E+04-4.43221E+02-7.82534E+02 1.15467E+03-4.05851E+02 1.83055E+03
 -1      3021-3.03452E+04 6.99549E+02-1.34836E+03 5.92970E+01-3.53966E+02 2.04626E+03
 -1      3022 4.39573E+03 4.23872E+02-1.32338E+03-6.56358E+03 1.42609E+02 3.15120E+03
 -1      3023-2.32581E+04-4.14510E+02-6.69617E+02 1.31577E+03-2.00666E+02 1.45351E+03
 -1      3024-1.04060E+04 3.83308E+02-1.30730E+02 9.82378E+02-2.37251E+02 1.42676E+03
 -1      3025 1.40768E+05 3.23628E+02 1.37362E+03 2.22532E+03-5.81485E+02 2.13573E+03
 -1      3026 1.20605E+05-6.83872E+02 1.93413E+03-6.24643E+03 6.20773E+02 2.74629E+03
 -1      3027-1.47524E+03-2.55591E+04 1.04873E+03-7.03684E+03 1.41850E+03-5.87996E+01
 -1      3028-1.63687E+03-4.12700E+04 2.98346E+03-1.17609E+04 3.86330E+03-1.18564E+02
 -1      3029 1.66467E+04 1.19084E+05-2.38844E+03-4.16860E+04 3.81797E+04-1.19010E+04
 -1      3030 3.56206E+02 9.10520E+03-2.38085E+03-2.12936E+03 2.14760E+02 3.50213E+01
 -1      3031-3.99103E+02-2.19616E+03 5.43959E+02-1.25977E+03 2.67703E+02 8.53005E+01
 -1      3032-6.13978E+01-4.20018E+03 9.69144E+02-1.46487E+03 4.28699E+02 3.41337E+01
 -1      3033 1.18038E+03 9.67916E+03-1.06109E+03-3.95799E+03-8.55319E+02-1.24948E+02
 -1      3034-2.87731E+03-4.28007E+04 4.25603E+03-1.22324E+04-8.46449E+03-1.78980E+03
 -1      3035-1.29006E+03-4.99562E+04 2.53364E+03-1.46447E+04-1.70251E+04-4.95327E+03
 -1      3036-3.21665E+04-1.53247E+04 1.31454E+03-2.20162E+05-4.41713E+04 5.14106E+03
 -1      3037 6.36500E+04 2.24929E+05 5.98230E+04-1.02121E+05 7.27655E+04-2.74256E+04
 -1      3038 5.20252E+04 3.02219E+05 1.06357E+04-8.75403E+04 1.54381E+04-9.43393E+03
 -1      3039-5.46316E+03-8.00048E+04 1.01352E+04-1.51920E+04-6.40288E+03-2.09746E+03
 -1      3040-1.42420E+03-4.36043E+04 5.63439E+03-1.02109E+04-4.26735E+03-6.84852E+02
 -1      3041-1.74318E+03-5.23675E+04 6.69835E+03-1.07767E+04 4.06371E+03 1.43930E+02
 -1      3042 1.01058E+03 2.03667E+04-8.69877E+02-5.77676E+03 1.98470E+03-5.86020E+01
 -1      3043 7.60493E+02 1.16412E+04-1.74490E+03-2.84919E+03 7.36848E+02-1.79634E+02
 -1      3044 5.32055E+02 1.83002E+04-3.00205E+03-3.74207E+03 1.64099E+03 2.12242E+02
 -1      3045-5.79993E+02-6.61531E+03 9.60305E+02-1.83952E+03 1.22827E+02 1.87797E+02
 -1      3046-1.00387E+03-1.25015E+04 1.08263E+03-3.46152E+03 5.96715E+02 2.30505E+02
 -1      3047-7.69780E+02-1.12184E+04 6.38756E+02-3.58257E+03-3.09695E+02 2.56295E+02
 -1      3048-1.99124E+04-1.54000E+05-1.42161E+04-4.61226E+04 4.60000E+04 1.37206E+04
 -1      3049 2.11642E+03 4.63553E+04-5.36633E+03-1.43996E+04 6.67429E+03-2.88444E+01
 -1      3050 1.52455E+03 8.45213E+04-5.79892E+03-1.80500E+04 2.01099E+04-2.87704E+03
 -1      3051-4.10712E+03-1.88588E+05 1.58514E+04-4.57864E+04 9.99389E+02-1.96022E+03
 -1      3052-7.12423E+04-4.45671E+05-6.32816E+04-1.23823E+05 9.34838E+04 3.25449E+04
 -1      3053-2.10614E+04-2.48620E+05-3.40714E+04-4.39067E+04-8.41523E+04-1.35160E+04
 -1      3054 9.67118E+03 5.19408E+04 1.87114E+04-1.64669E+04-2.91406E+04 1.06028E+04
 -1      3055 4.26542E+03 9.97937E+04-1.20644E+04-1.96043E+04-3.25088E+04 6.37876E+03
 -1      3056 2.47662E+04 2.19086E+05 2.89401E+04-6.14252E+04-8.86505E+04 1.98265E+04
 -1      3057 1.84588E+03 3.06091E+04-2.20372E+03-8.16380E+03 3.77364E+03-8.15118E+01
 -1      3058 2.10711E+03 3.57133E+04-3.13346E+03-1.28735E+04-1.55290E+04 4.28898E+03
 -1      3059-5.07359E+02-5.35346E+03 4.98156E+02-2.30814E+03-2.39407E+02 3.31248E+02
 -1      3060-1.16258E+03-1.75592E+04 6.99909E+02-5.91690E+03-1.22423E+03-4.61594E+01
 -1      3061-5.61286E+03-6.91121E+04 2.02168E+03-1.77454E+04 7.98976E+03 1.97892E+01
 -1      3062-5.68407E+02-5.81837E+03 4.90956E+02-2.12813E+03 4.74220E+02 8.84762E+01
 -1      3063-6.02759E+02-1.12978E+04 7.85612E+02-3.99756E+03 3.64514E+02-5.70824E+01
 -1      3064 6.03843E+02 1.77142E+04-3.87305E+03-4.00843E+03-1.12553E+03-2.95289E+02
 -1      3065 3.49273E+03-1.82128E+04-1.41655E+04-1.40767E+04-1.83839E+04-2.35679E+03
 -1      3066-2.88565E+03-6.00661E+04-1.82828E+04-1.30735E+04-2.88934E+04-6.08637E+03
 -1      3067-1.35989E+03-2.95626E+04 1.63528E+03-7.36475E+03-3.61686E+03-4.88745E+02
 -1      3068-7.16963E+02-1.13823E+05 1.22574E+04-2.30337E+04-2.48206E+04-1.37696E+04
 -1      3069 2.73723E+03 2.78943E+04-3.04165E+03-9.09156E+03-6.35525E+03 7.16426E+02
 -1      3070 1.52861E+03 1.82133E+04-1.94854E+03-6.04220E+03-2.60618E+03-3.00601E+01
 -1      3071-5.93604E+02-1.16991E+04 8.82044E+02-2.95030E+03 8.81259E+02 2.50978E+02
 -1      3072-7.66727E+02-1.88038E+04 2.04360E+03-5.17327E+03 1.01036E+03 1.53332E+02
 -1      3073-8.36372E+02-1.72380E+04 8.19217E+02-4.48057E+03 1.21881E+03 8.17245E+01
 -1      3074 7.32803E+03 2.06490E+04 1.49753E+04-8.40254E+03-1.46015E+04 7.75133E+03
 -1      3075-1.37036E+04-8.17121E+04 4.47959E+03-2.81098E+04 1.62712E+04 4.64581E+03
 -1      3076 1.59516E+04 1.17634E+05-1.27567E+04-3.19139E+04 1.13732E+04-2.68673E+03
 -1      3077 4.73993E+03 7.10784E+04-8.23218E+03-1.40737E+04 1.40404E+03 1.38051E+03
 -1      3078 4.11950E+02 9.30073E+03-2.03866E+03-2.37640E+03 7.11570E+02-4.02143E+01
 -1      3079-2.50854E+04-1.14084E+05-2.78411E+04-5.73321E+04 7.05949E+04 8.23828E+03
 -1      3080 7.11341E+02 5.92658E+03-7.97616E+02-2.49920E+03-9.35766E+01-1.28650E+02
 -1      3081 4.90215E+02 3.73051E+04-6.41147E+03-5.03316E+03-3.58460E+03 3.48432E+02
 -1      3082 1.24735E+03 4.86037E+04-7.32185E+03-1.01511E+04-1.04725E+04 2.46880E+03
 -1      3083-2.76556E+02-7.05344E+03 1.30261E+03-1.96882E+03 8.64998E+02 1.33483E+02
 -1      3084-4.00840E+02-5.27698E+03 7.88982E+02-1.99689E+03 5.93535E+02 5.00243E+01
 -1      3085-2.85361E+02-1.77001E+04 2.26100E+03-5.31774E+03-8.05635E+02-6.08545E+01
 -1      3086-1.44159E+03-2.83308E+04 1.66592E+03-7.07698E+03-2.10618E+03-5.28118E+02
 -1      3087 7.26950E+02 2.77355E+04-5.18214E+03-5.25630E+03-2.18370E+01 4.19958E+02
 -1      3088-1.61736E+03-3.12552E+04 2.88405E+03-6.87652E+03 1.36851E+03-1.10748E+02
 -1      3089-7.49484E+03 3.99880E+04-4.42211E+03-5.48497E+04-1.22169E+05 9.15853E+03
 -1      3090 5.55798E+02 1.58692E+04-3.38998E+03-3.35097E+03-1.44627E+02-3.14562E+00
 -1      3091-6.31928E+03-8.73248E+04 1.01052E+04-1.84006E+04 5.57788E+03-3.41769E+02
 -1      3092 3.34534E+03 4.01067E+04-5.11915E+03-9.71851E+03 3.28278E+03 3.04015E+02
 -1      3093-4.43780E+03 5.99204E+01-6.71356E+01 9.02934E+02-2.78988E+02 7.42371E+02
 -1      3094-5.46125E+03-6.92365E+01 9.39972E+01 1.34467E+03-1.30007E+02 7.87398E+02
 -1      3095-4.73363E+03-2.84389E+01 7.72266E+01 1.11700E+03-2.18104E+02 9.48023E+02
 -1      3096-1.31692E+03-1.55934E+03 1.75957E+00 1.62754E+03-1.90117E+02 9.76827E+01
 -1      3097-1.06633E+03-1.80480E+03-1.33924E+01 1.48587E+03-1.30229E+02 3.47333E+01
 -1      3098-4.44648E+03-5.98528E+01 2.88931E+00 9.36027E+02-1.98863E+02 9.19982E+02
 -1      3099 6.49099E+01-1.16648E+03-2.44322E+02-2.40165E+01 2.39792E+02-1.29341E+02
 -1      3100-3.19514E+01-1.67403E+03-1.28635E+02 4.61035E+02 1.50280E+02-9.33838E+01
 -1      3101 2.03991E+02-1.07414E+03-3.37545E+02 3.99160E+00 1.57046E+02-7.79299E+01
 -1      3102 2.84276E+02 3.41991E+03-5.82419E+02-1.57884E+03-1.00624E+02 4.06992E+01
 -1      3103-1.89255E+02-5.30457E+02-7.37913E+01 3.85677E+02-2.08837E+02 5.88450E+01
 -1      3104 3.54916E+01-3.45953E+02-1.25812E+02 6.73769E+01-1.16554E+02 1.42848E+01
 -1      3105-3.21341E+02-1.12862E+03-2.54340E+01 7.24061E+02-1.83519E+02-2.80484E+01
 -1      3106-1.10079E+03-3.26299E+02-1.02079E+02 7.61304E+02-2.11247E+02 2.23014E+02
 -1      3107-1.74395E+03-1.55788E+02-1.23239E+02 7.87555E+02-2.03026E+02 2.77157E+02
 -1      3108-6.30057E+02-3.43305E+02-4.25538E+01 5.05950E+02-1.32451E+02 2.27768E+02
 -1      3109-1.18563E+03-6.36081E+02-4.93684E+01 1.03570E+03-3.37405E+02 3.40959E+02
 -1      3110 4.51143E+02 4.97464E+02-2.23631E+02-6.62469E+02-1.53826E+02-6.08299E+01
 -1      3111 4.57744E+02 4.46593E+02-3.39440E+02-7.76030E+02 1.18824E+02-1.60115E+02
 -1      3112 2.46140E+02-7.66323E+02-2.04083E+02 5.79078E+01 4.81160E+01-5.44556E+01
 -1      3113 1.53568E+02-3.19204E+02-3.64307E+02-4.20276E+02 1.94015E+02-1.47960E+02
 -1      3114-3.87199E+03-5.07353E+02 5.57587E+01 1.72851E+03-1.50575E+02 4.80189E+02
 -1      3115-6.95894E+02-6.65124E+02-1.48763E+01 7.79599E+02-3.14423E+02 2.91899E+02
 -1      3116-6.06020E+02-8.86268E+02-8.88061E+01 8.08324E+02-3.06237E+02 1.72734E+02
 -1      3117-7.82304E+02-9.08075E+02-1.28283E+01 9.84413E+02-2.88065E+02 2.10112E+02
 -1      3118 3.00256E+02 1.24081E+03-8.05419E+02-1.03512E+03 3.18014E+02-2.53441E+02
 -1      3119-2.71200E+02-1.83893E+03-1.16395E+02 8.62999E+02 4.39235E+01-6.77234E+01
 -1      3120 3.35343E+02 8.05080E+02-4.84454E+02-8.83919E+02 2.79838E+02-1.78948E+02
 -1      3121-3.10602E+02-1.43411E+03-7.23900E+00 8.26308E+02-1.09394E+02-1.12330E+02
 -1      3122 8.84932E+01-1.06371E+03-6.93009E+01 3.06637E+02-1.23799E+01-1.05120E+02
 -1      3123-3.01910E+03 3.77028E+01 2.06176E+01 8.13126E+02-1.73718E+02 3.96113E+02
 -1      3124-3.24693E+03-1.00827E+02 1.03255E+01 8.86182E+02-2.79196E+02 7.24827E+02
 -1      3125 4.93829E+02 7.14718E+02-1.53972E+02-5.49580E+02-1.38648E+02 3.93764E+01
 -1      3126-5.35605E+02-4.76222E+02-1.18316E+01 5.68508E+02-1.83943E+02 8.42569E+01
 -1      3127 3.41303E+02 1.20882E+03-3.23887E+02-1.08746E+03-7.00109E+01 4.91089E+00
 -1      3128-1.78784E+03-4.60636E+02-5.32857E+01 1.05893E+03-2.92841E+02 4.11185E+02
 -1      3129-1.80585E+03-6.74637E+02-9.14018E+00 1.25303E+03-3.74358E+02 4.68231E+02
 -1      3130 5.54634E+02 7.21562E+02-2.50812E+02-7.79522E+02-1.64323E+02-1.19585E+02
 -1      3131 6.12152E+02 2.03808E+03-2.01541E+02-1.33616E+03-1.28930E+02-7.49602E+01
 -1      3132-2.42737E+03-1.64893E+02-6.71145E+01 8.81024E+02-2.07485E+02 3.46067E+02
 -1      3133-3.96974E+03-2.92482E+02 6.60744E+01 1.30705E+03-2.33099E+02 7.31859E+02
 -1      3134-3.85611E+03-7.91878E+01-4.71325E+00 1.00988E+03-2.63596E+02 8.36480E+02
 -1      3135-4.63039E+03-2.26535E+02 9.38126E+01 1.59788E+03-1.44459E+02 5.62817E+02
 -1      3136-3.20911E+03-6.79990E+02-4.29184E+01 1.74217E+03-1.51448E+02 3.87899E+02
 -1      3137-3.07294E+03-5.28590E+02 5.05522E+01 1.40842E+03-2.82838E+02 6.17812E+02
 -1      3138-2.54680E+03-1.04195E+03-4.89776E+01 1.80907E+03-1.42577E+02 2.76920E+02
 -1      3139-2.18878E+03-4.94650E+02 7.19979E+01 1.22856E+03-3.31392E+02 5.57974E+02
 -1      3140-8.35701E+02-2.07441E+03 1.38475E+00 1.45757E+03-1.78058E+01-6.74215E+01
 -1      3141 9.10648E+01 1.96427E+02-1.08837E+02-1.64083E+02-7.16913E+01 1.87633E+02
 -1      3142-3.17669E+02-4.85163E+02-6.07811E+01 4.20974E+02-2.70023E+02 1.41739E+02
 -1      3143 7.37696E+01 2.49322E+03-7.17558E+02-1.20958E+03 1.93626E+02-1.85651E+02
 -1      3144-1.57764E+03-9.14635E+02-3.31935E+01 1.37675E+03-4.08158E+02 3.53143E+02
 -1      3145-9.09355E+02-1.37665E+03 5.06572E+01 1.25294E+03-2.49318E+02 1.13142E+02
 -1      3146-2.05231E+03-1.36219E+03 5.38966E+00 1.85255E+03-1.74411E+02 1.69008E+02
 -1      3147 2.29779E+02-2.08020E+02-4.45626E+02-4.71502E+02 2.27859E+02-1.62463E+02
 -1      3148-1.37723E+03-1.12464E+03 1.26621E+02 1.47307E+03-3.29542E+02 2.15945E+02
 -1      3149-6.87245E+02-1.47691E+03-3.86857E+01 1.12474E+03-1.51414E+02 9.31086E+00
 -1      3150-2.36912E+03-2.94430E+02-2.37414E+00 1.03085E+03-2.55162E+02 5.51071E+02
 -1      3151-1.94227E+03-9.46462E+02 8.86017E+01 1.53833E+03-3.76367E+02 3.65548E+02
 -1      3152 4.25917E+02 3.62614E+03-2.26922E+02-1.73035E+03 5.61260E+00 7.39364E+01
 -1      3153-6.53928E+02-1.17839E+03-8.40927E+01 9.55637E+02-2.40790E+02 9.35422E+01
 -1      3154 3.96615E+02 5.44974E+01-1.97236E+02-3.46986E+02-3.76545E+01-6.43515E+01
 -1      3155-2.58708E+03-7.34473E+02 5.21839E+01 1.52514E+03-3.01638E+02 4.75413E+02
 -1      3156 1.21459E+02-6.60398E+02-4.85360E+01 1.66215E+02-8.50493E+01-5.08585E+01
 -1      3157-2.82793E+03-2.72251E+02 1.51028E+01 1.10453E+03-2.93103E+02 7.07465E+02
 -1      3158 9.64308E+04 9.84618E+03 5.23605E+03-2.48411E+04 1.54987E+02-3.14404E+03
 -1      3159 9.87169E+04 1.05483E+04 6.07341E+03-2.16333E+04 1.48856E+03-3.50481E+02
 -1      3160 7.28161E+04 1.71990E+03 2.58708E+03-1.24014E+04 1.37443E+02 5.61275E+01
 -1      3161-3.74644E+04-1.82313E+04-2.95835E+03-2.82754E+04-9.81888E+02-2.47746E+03
 -1      3162-1.34049E+04-1.11021E+04-2.02783E+03-2.17514E+04-1.04526E+03-3.72689E+03
 -1      3163-5.66187E+04-6.90214E+04-3.61527E+03-5.44143E+04 7.87861E+02 2.20355E+02
 -1      3164-6.93918E+04-6.09375E+04-4.81861E+03-5.96900E+04 1.07119E+03-1.39284E+03
 -1      3165-6.90177E+04-3.75364E+04-4.33959E+03-4.71490E+04-3.40705E+00-5.56405E+02
 -1      3166-3.54872E+03-2.45647E+04-1.33607E+03-1.46985E+04 2.12962E+03 1.43981E+02
 -1      3167-4.19726E+04-9.16049E+04-3.24724E+03-5.63920E+04 1.13979E+03 6.04240E+02
 -1      3168-5.41702E+04-8.84749E+04-4.01016E+03-6.28334E+04 1.38026E+03 1.64453E+03
 -1      3169-5.01761E+04-9.00156E+04-5.90345E+03-6.24524E+04 9.02460E+01-1.24144E+03
 -1      3170 4.40620E+04 5.96043E+04 1.07647E+03-4.68836E+04-8.33489E+02 9.54209E+02
 -1      3171-7.52728E+03-4.52337E+04-2.16667E+03-2.11614E+04 3.57342E+03 7.17479E+02
 -1      3172-1.25696E+04-6.44379E+04-2.59037E+03-2.74388E+04 2.65787E+03 8.22833E+02
 -1      3173 2.33545E+03 1.49638E+04 3.76276E+01-6.79694E+03-1.72491E+03 1.26081E+02
 -1      3174-5.70766E+04-2.40298E+04-4.49843E+03-3.56761E+04 1.77172E+03 3.84773E+02
 -1      3175 5.42035E+04 2.44828E+02 1.74159E+03-9.08096E+03 5.68908E+02 2.03126E+03
 -1      3176 7.07490E+03 3.06849E+04 2.79740E+02-1.27600E+04-2.77731E+02-1.49532E+02
 -1      3177 3.55245E+03 2.16702E+04 6.06956E+02-8.39990E+03-1.51916E+02-9.53036E+01
 -1      3178 8.13381E+03 3.41119E+04 1.29358E+03-1.50258E+04-2.29103E+03 6.59216E+02
 -1      3179 3.40069E+03 2.26976E+04 1.34558E+02-9.17655E+03-2.27184E+03 4.37648E+02
 -1      3180 4.91309E+03 2.87939E+04 2.47654E+02-1.11807E+04-2.30489E+03 4.63936E+02
 -1      3181 4.06795E+04-1.49569E+03-6.45267E+01-1.53643E+04-6.50385E+01-3.45850E+03
 -1      3182 5.22204E+04 1.41735E+03 2.90930E+03-1.55562E+04 7.52473E+01-5.83382E+03
 -1      3183 7.05981E+04 4.08591E+03 2.58045E+03-1.98013E+04 6.67979E+02-4.38776E+03
 -1      3184 1.23924E+05 2.34356E+04 4.61457E+03-4.51113E+04 1.58955E+02-3.37532E+02
 -1      3185 1.13691E+05 1.36725E+04 5.67039E+03-3.17422E+04-1.38433E+02-7.36133E+02
 -1      3186 1.14338E+05 1.27794E+04 3.34292E+03-3.36685E+04 1.82798E+02-2.49431E+03
 -1      3187-2.08868E+04-7.74685E+04-2.63087E+03-3.74836E+04 2.55219E+03 9.97635E+02
 -1      3188-2.95968E+04-9.06787E+04-3.75397E+03-4.66094E+04 1.70697E+03 2.15735E+03
 -1      3189-2.55643E+04-8.69993E+04-4.71865E+03-4.30381E+04 1.52452E+03 5.30612E+02
 -1      3190 6.84727E+04 5.62230E+04 3.03213E+03-5.65459E+04-4.44861E+01-6.08749E+02
 -1      3191 7.88585E+04 5.33587E+04 4.38807E+03-5.89774E+04 6.57008E+02-2.22934E+03
 -1      3192 8.77430E+04 4.88392E+04 3.22948E+03-5.89316E+04 3.41715E+01-1.43203E+03
 -1      3193 1.03134E+05 1.09305E+04 2.33248E+03-2.62052E+04-1.30668E+01 8.55437E+02
 -1      3194 1.20930E+05 1.50054E+04 4.07245E+03-3.60319E+04-6.57440E+02-1.95242E+01
 -1      3195 1.06457E+05 3.95345E+04 2.66367E+03-5.85150E+04 7.90572E+02-1.93489E+03
 -1      3196 1.22995E+05 3.09386E+04 4.33257E+03-5.34473E+04-7.21743E+02-1.54879E+03
 -1      3197 1.10863E+05 3.48494E+04 3.63303E+03-5.39676E+04 2.78791E+02-5.39540E+02
 -1      3198 1.60053E+04-4.16865E+03-1.51957E+03-1.51703E+04-9.91995E+02-5.12656E+03
 -1      3199-7.15224E+04-6.65217E+04-4.63839E+03-6.00224E+04 2.32849E+02 1.20880E+03
 -1      3200-7.39471E+04-5.18035E+04-4.96448E+03-5.45405E+04 8.36905E+02-3.84318E+02
 -1      3201-7.29578E+04-5.73566E+04-6.40596E+03-5.83654E+04-7.25432E+01-7.43240E+02
 -1      3202 5.70039E+04 5.11047E+04 1.26677E+03-4.91561E+04 9.83315E+01-1.24971E+03
 -1      3203 5.07487E+04 5.68726E+04 2.86265E+03-4.67067E+04-6.55002E+02-8.92714E+01
 -1      3204-6.67833E+04-6.86867E+04-6.65049E+03-6.02903E+04-3.14115E+02 3.60221E+01
 -1      3205-4.82746E+04-8.04134E+04-3.57966E+03-5.67273E+04 4.48143E+02-3.17168E+02
 -1      3206 5.58180E+03-7.24840E+03-2.15031E+03-1.75370E+04-2.82918E+02-2.88429E+03
 -1      3207 7.19189E+03-6.32632E+03-1.27674E+03-1.50252E+04 5.79998E+01-4.09669E+02
 -1      3208-2.70722E+04-1.30587E+04-4.17972E+03-2.25836E+04-4.35237E+02-1.54804E+03
 -1      3209 3.22798E+04 5.62227E+04 1.23531E+03-3.90000E+04-1.27575E+03 5.11086E+02
 -1      3210 2.13567E+04 5.18901E+04 1.03917E+03-2.98182E+04-1.80606E+03 4.40790E+02
 -1      3211-7.65515E+04-4.74079E+04-7.49612E+03-5.64822E+04-4.82588E+02-4.64299E+02
 -1      3212-6.76676E+04-5.49012E+04-5.31185E+03-5.53181E+04-1.37170E+02-1.25404E+03
 -1      3213 2.19273E+03 1.46338E+04 2.36731E+02-6.41890E+03-1.50835E+03 3.11535E+02
 -1      3214 1.20434E+04 3.89032E+04 2.83867E+02-1.90876E+04 9.55010E+01-1.94269E+02
 -1      3215 5.14413E+03 2.71238E+04 2.05295E+02-1.07827E+04-1.04296E+03 2.63647E+02
 -1      3216 7.25942E+03 3.41130E+04 5.80207E+02-1.45908E+04-1.60831E+03 6.41317E+02
 -1      3217 4.26373E+03 2.64350E+04 8.84418E+02-1.01764E+04-1.84738E+03 4.13043E+02
 -1      3218-4.05466E+03-2.41309E+04-1.15991E+02-1.69461E+04 3.77475E+03 7.12138E+02
 -1      3219 8.54126E+04 5.69870E+04 4.82591E+03-6.45495E+04 8.63435E+00 7.02836E+02
 -1      3220-3.49326E+04-1.54022E+04-2.49273E+03-2.55926E+04 2.88655E+02 1.64269E+03
 -1      3221-4.17456E+04-2.03706E+04-5.12504E+03-2.90556E+04 2.18727E+02-1.92561E+02
 -1      3222-7.76335E+03-5.08255E+04-2.15935E+03-2.10335E+04 2.89840E+03 8.47134E+02
 -1      3223 1.25704E+05 3.31177E+04 3.99797E+03-5.66734E+04 5.85386E+02-8.06547E+02
 -1      3224 1.15757E+05 4.32518E+04 4.40182E+03-6.32961E+04-9.38168E+02 7.13906E+02
 -1      3225 3.79550E+04-3.13128E+03-6.84701E+02-1.19780E+04-1.26971E+01 1.67860E+02
 -1      3226-1.94805E+04-7.47572E+04-2.69746E+03-3.59609E+04-8.18629E+02-3.97409E+02
 -1      3227-1.23224E+04-6.38071E+04-2.46230E+03-2.62432E+04-9.82488E+02-3.87073E+01
 -1      3228-6.35155E+04-3.49731E+04-3.07336E+03-4.35970E+04-6.27406E+02 1.54483E+02
 -1      3229 1.30333E+05 1.51405E+04 2.56993E+03-3.92819E+04 2.04384E+02-2.07790E+03
 -1      3230 1.31636E+05 2.33101E+04 4.32291E+03-4.92451E+04 3.53884E+02-2.77940E+03
 -1      3231-6.95719E+03-4.34621E+04-2.10090E+03-1.95510E+04-1.64716E+03-3.18937E+02
 -1      3232-8.00007E+03-5.07414E+04-2.12084E+03-2.07149E+04-3.02080E+00-4.22078E+01
 -1      3233-3.50947E+03-2.43314E+04-1.16360E+03-1.43876E+04 7.89780E+02 1.51526E+02
 -1      3234-3.89044E+03-2.34132E+04-4.55570E+02-1.57142E+04-1.38595E+03-4.99581E+02
 -1      3235-6.17829E+04-2.85673E+04-4.15310E+03-3.94687E+04-9.02849E+02-1.50910E+03
 -1      3236 9.66481E+03 3.89376E+04 1.07085E+03-1.74342E+04-1.98302E+03 6.54387E+02
 -1      3237-5.75898E+04-2.60075E+04-5.58843E+03-3.63251E+04-2.01850E+03-2.34416E+03
 -1      3238-5.87988E+04-3.14169E+04-4.85743E+03-3.93864E+04-4.86387E+01-1.02403E+03
 -1      3239 1.39826E+04 4.32668E+04 1.15576E+03-2.22336E+04-1.11683E+03 4.53183E+02
 -1      3240 2.49715E+04 5.19290E+04 1.69310E+03-3.26819E+04-1.57726E+03 3.41721E+02
 -1      3241 1.65821E+04 4.61338E+04 1.21984E+03-2.42550E+04-1.66670E+03 3.50848E+02
 -1      3242 9.38257E+04 4.45119E+04 2.84554E+03-5.94736E+04 2.61734E+02-1.14058E+03
 -1      3243 9.42870E+04 5.04471E+04 3.33753E+03-6.14623E+04-8.47467E+02 1.22801E+03
 -1      3244 8.34678E+04 7.30896E+03 2.53295E+03-2.50897E+04 5.20314E+02-3.64855E+03
 -1      3245 1.34251E+04 4.35740E+04 6.29134E+02-2.20792E+04-2.23263E+03 9.73960E+02
 -1      3246-1.65314E+04-7.23512E+04-3.82475E+03-3.19483E+04 5.19359E+02 3.47534E+02
 -1      3247 5.99313E+04 5.69102E+04 1.74580E+03-5.17432E+04-5.83093E+02 1.41889E+03
 -1      3248 8.16512E+04 5.60229E+04 3.62277E+03-6.16606E+04-2.45191E+02 2.39513E+03
 -1      3249-3.79589E+04-8.78248E+04-2.96334E+03-5.27605E+04-1.78528E+02-3.90374E+02
 -1      3250 1.29679E+05 1.72190E+04 6.91046E+03-4.10928E+04 2.47184E+02-9.17719E+02
 -1      3251-6.43735E+03-9.14358E+03-1.98600E+03-1.65565E+04-3.47647E+02 2.10268E+03
 -1      3252-7.13159E+04-4.87850E+04-3.81755E+03-5.56516E+04 1.30894E+03 1.22143E+03
 -1      3253-3.67284E+04-8.61175E+04-4.85522E+03-4.79674E+04 9.14222E+02 1.17836E+02
 -1      3254-3.49250E+04-8.38631E+04-3.58435E+03-4.75609E+04 1.12464E+03 1.24781E+02
 -1      3255-6.55936E+04-3.36028E+04-5.22096E+03-4.44304E+04 3.56367E+02-1.49576E+03
 -1      3256-7.89978E+04-4.47637E+04-7.46679E+03-5.66879E+04 1.61252E+01-1.27063E+03
 -1      3257 9.79655E+03 3.55566E+04 3.47941E+02-1.65254E+04-5.70644E+02 4.00681E+02
 -1      3258-6.38719E+04-7.45123E+04-3.94573E+03-6.18563E+04-1.89353E+03 2.00235E+03
 -1      3259-2.82635E+04-8.63439E+04-3.60539E+03-4.42416E+04-1.00315E+02-1.42597E+03
 -1      3260 1.11817E+03 1.21709E+04-1.14251E+02-6.25864E+03-3.85576E+02-1.44390E+02
 -1      3261 4.90345E+04 6.06552E+04 2.87744E+03-5.01246E+04-5.62621E+02-7.32731E+02
 -1      3262 1.34265E+03 1.21900E+04-4.40330E+02-7.49234E+03-2.13537E+03 7.43863E+02
 -1      3263 1.40777E+05 1.81556E+04 7.61016E+03-4.77423E+04 1.19978E+02-1.92791E+03
 -1      3264 1.04933E+05 4.22002E+04 4.54558E+03-5.78452E+04-7.45321E+02 1.09921E+02
 -1      3265 1.09275E+05 4.70107E+04 7.05715E+03-6.65528E+04 5.46697E+02-2.23269E+03
 -1      3266 1.91251E+04 4.66295E+04 5.11178E+02-2.68100E+04 3.44608E+02-8.23104E+01
 -1      3267 2.91405E+04 5.06579E+04 5.84815E+02-3.49098E+04 5.43038E+02-5.53958E+02
 -1      3268 4.21935E+04 5.61273E+04 2.27850E+03-4.38510E+04 8.84021E+02-1.20076E+03
 -1      3269 3.43980E+04 5.51956E+04 1.72942E+03-3.95507E+04-8.76993E+02 3.11107E+02
 -1      3270 1.68301E+04-3.99432E+03-1.11281E+03-1.00053E+04 6.58781E+02 2.46736E+03
 -1      3271 8.05590E+04 6.31458E+03 2.40443E+03-1.79569E+04 8.68896E+01 1.98055E+03
 -1      3272 1.11808E+05 8.81101E+03 2.38451E+03-2.98609E+04 1.28801E+03-4.15060E+03
 -1      3273 2.38468E+04 4.95057E+04 1.46425E+03-3.11354E+04-6.99111E+02 9.03910E+02
 -1      3274 3.49882E+04 5.49449E+04 2.55169E+03-3.83332E+04-1.01805E+03 3.50307E+02
 -1      3275 1.67504E+04 4.52470E+04 1.32797E+03-2.44911E+04-7.58407E+02 1.39279E+02
 -1      3276-6.70422E+04-7.11199E+04-5.47694E+03-6.17990E+04-1.30516E+03-1.10456E+03
 -1      3277-2.61715E+04-1.25887E+04-4.81494E+03-2.09489E+04-4.58147E+02 1.38793E+02
 -1      3278-4.41019E+04-8.34602E+04-4.65908E+03-5.68076E+04 1.50520E+03 1.78508E+02
 -1      3279-2.39531E+04-8.07156E+04-4.46347E+03-3.91187E+04 3.53498E+02-4.97128E+00
 -1      3280 6.40489E+04 5.66101E+04 2.06977E+03-5.46939E+04 8.92890E+00-1.31167E+02
 -1      3281 1.26951E+05 2.65535E+04 5.46063E+03-4.98434E+04 2.44545E+02-6.80732E+02
 -1      3282-5.77162E+04-7.95448E+04-4.80793E+03-6.23369E+04 9.26729E+02 1.10942E+03
 -1      3283 1.20726E+05 3.58648E+04 5.08397E+03-5.70847E+04-3.35686E+02-7.61384E+02
 -1      3284 1.24471E+05 2.70587E+04 4.18421E+03-5.02721E+04 6.01227E+02-1.66136E+03
 -1      3285-5.83311E+04-7.86317E+04-3.35954E+03-6.03464E+04-5.69933E+02-2.35119E+02
 -1      3286-6.44452E+03-4.96625E+04-3.03023E+03-1.89954E+04 2.04804E+03 4.71660E+02
 -1      3287-1.19856E+04-6.02323E+04-3.69705E+03-2.41285E+04 1.76380E+03 5.02958E+02
 -1      3288-1.48716E+04-7.33612E+04-4.84598E+03-3.06914E+04 2.06033E+03 5.70609E+02
 -1      3289 1.07629E+04 1.14913E+04-6.19368E+03 1.19568E+04-2.58593E+03-1.46598E+03
 -1      3290 2.11875E+04 2.98907E+04-5.92750E+03 2.87770E+04-4.29439E+03-1.59508E+03
 -1      3291 1.67457E+04 2.09966E+04-5.02493E+03 1.85241E+04-2.52860E+03-1.55036E+03
 -1      3292 6.00092E+04 6.75970E+04 1.98125E+04 6.12578E+04-1.75174E+03-2.57281E+03
 -1      3293 1.32404E+04 9.00028E+03-5.13377E+03 1.28373E+04 1.49821E+03-6.86169E+02
 -1      3294 1.74914E+04 5.22053E+03-2.14763E+03 1.01181E+04 7.33239E+02-3.73472E+02
 -1      3295 1.65447E+04 5.64594E+03-4.77617E+03 1.18660E+04-3.71269E+02-4.39621E+02
 -1      3296 2.12722E+04 3.76637E+03-1.96445E+03 1.07198E+04 1.57670E+02 2.68492E+02
 -1      3297 1.49351E+04 1.15874E+04-5.22765E+03 1.54242E+04 2.49930E+03 8.75613E+02
 -1      3298 2.57691E+04 2.74420E+04-2.32302E+03 2.98719E+04 3.02737E+03 2.43221E+03
 -1      3299 2.18516E+04 2.38552E+03-2.41417E+03 8.22488E+03-1.55674E+02 7.45493E+02
 -1      3300 1.00794E+05 6.53807E+04 3.30085E+04 6.84950E+04-5.57390E+03-5.42635E+03
 -1      3301 1.00766E+05 7.14852E+04 2.92470E+04 6.97388E+04-6.20782E+02 6.77112E+02
 -1      3302 1.61515E+04 6.72091E+03-3.55702E+03 1.17239E+04-2.15747E+02-7.57784E+01
 -1      3303 1.75049E+04 2.60232E+03-2.94766E+03 7.69322E+03-3.58721E+02-1.19380E+01
 -1      3304 2.72214E+04 2.66774E+04-3.64207E+03 2.71061E+04-2.76568E+03-4.00546E+03
 -1      3305 1.59283E+04 1.37574E+04-7.85758E+03 1.81654E+04-2.76955E+02-1.08294E+03
 -1      3306 2.14213E+04 3.36061E+03-2.29922E+03 1.00649E+04 1.37483E+02 1.30694E+02
 -1      3307 2.25962E+04 2.37952E+03-2.54477E+03 8.02025E+03 5.96755E+01-5.39111E+02
 -1      3308 1.68253E+04 6.09500E+03-2.86088E+03 1.11703E+04-4.13814E+02 1.10027E+03
 -1      3309 1.65575E+04 1.01607E+04-4.67276E+03 1.45362E+04-1.35269E+03-3.03818E+02
 -1      3310 2.15079E+04 6.88354E+03-2.18529E+03 1.44262E+04-3.84924E+01-7.41461E+01
 -1      3311 6.13237E+04 7.50751E+04 1.80792E+04 6.78874E+04 4.86359E+03 5.03333E+03
 -1      3312 1.63331E+04 5.42535E+03-2.89113E+03 1.16137E+04 1.21315E+03-1.18104E+02
 -1      3313 1.95875E+04 5.93312E+03-2.72464E+03 1.27452E+04 1.11736E+03 2.58383E+02
 -1      3314 1.89174E+04 2.95541E+04-4.87638E+03 2.40562E+04 1.31957E+03 7.85982E+02
 -1      3315-1.43719E+04-3.93489E+04-4.37415E+02-2.25255E+04-1.79392E+03-6.80898E+02
 -1      3316-2.29635E+04-5.23659E+04-1.67968E+03-3.18284E+04-1.79823E+03-7.72151E+02
 -1      3317-1.76488E+04-4.63042E+04-7.99628E+02-2.66894E+04-1.73012E+03-7.73267E+02
 -1      3318-1.91493E+04-4.56564E+04-8.81953E+02-2.69207E+04 4.36874E+02 2.73890E+02
 -1      3319-1.18181E+04-3.60038E+04-2.39034E+02-1.87051E+04 3.96396E+02 2.10285E+02
 -1      3320-2.40487E+04 3.97544E+03-1.27292E+03-1.44995E+04-7.57667E+01 5.62831E+03
 -1      3321 3.90598E+04 8.72222E+04 3.64741E+03-5.14558E+04 2.13726E+02-3.01058E+02
 -1      3322 2.81018E+04 8.85853E+04 3.53345E+03-4.46147E+04 5.73186E+00 1.07600E+03
 -1      3323-3.77807E+03-2.21709E+04-6.61989E+02-9.67003E+03-8.59339E+02-4.06160E+02
 -1      3324-2.55668E+03-1.49172E+04-1.58396E+02-7.39252E+03-2.75552E+02-5.35609E+02
 -1      3325-1.71248E+03-7.28343E+03 1.77624E+02-7.11100E+03-1.38250E+03-1.69807E+02
 -1      3326-2.11028E+04 3.24880E+03 4.69916E+02-1.32686E+04 5.26558E+02-2.33069E+03
 -1      3327-4.71895E+02-5.43928E+03 5.76765E+02-5.83900E+03-1.57762E+02 2.47972E+02
 -1      3328-2.91830E+04-5.18692E+04-7.30250E+02-3.55406E+04 6.84929E+02-2.00297E+02
 -1      3329-2.42706E+04-4.86161E+04-1.63881E+03-3.15695E+04-8.83929E+02-6.80098E+02
 -1      3330 1.98744E+04 7.56820E+04 2.71832E+03-3.55614E+04-6.78749E+02 2.23770E+02
 -1      3331 2.45525E+04 8.52146E+04 5.12598E+03-4.04629E+04 3.70765E+02 5.05282E+01
 -1      3332 1.24263E+04 7.68949E+04 4.65413E+03-3.00104E+04 9.09741E+02-8.56822E+02
 -1      3333-7.80044E+03-3.07086E+04-3.61227E+02-1.55753E+04-2.15724E+03-5.48002E+02
 -1      3334 7.44324E+04 5.29538E+04 4.77008E+03-5.56652E+04 1.18518E+03-4.36958E+02
 -1      3335 7.23637E+04 6.60616E+04 4.35956E+03-6.02897E+04 1.75436E+01-1.29546E+03
 -1      3336 7.69625E+04 6.13604E+04 7.85266E+03-6.19506E+04 7.05528E+01 6.08108E+02
 -1      3337 6.33188E+04 7.57055E+04 3.72006E+03-6.14727E+04-1.19467E+03-2.07974E+03
 -1      3338-3.37799E+04-5.52119E+04-9.83467E+02-3.97391E+04-1.54995E+03-1.16652E+03
 -1      3339 6.08681E+04 7.08016E+04 5.07337E+03-5.70110E+04 2.22866E+03 4.26777E+02
 -1      3340 2.72962E+03 2.89334E+04 3.44164E+02-1.46251E+04 9.84479E+02-9.25147E+01
 -1      3341-1.46474E+04-3.96326E+04-9.71477E+02-2.16471E+04-8.09726E+02-8.59669E+01
 -1      3342 4.12179E+04 1.68294E+04 2.16948E+03-2.94028E+04-1.18165E+03 3.88980E+03
 -1      3343 6.31053E+04 2.69371E+04 5.09867E+03-3.96402E+04-1.06765E+03 1.90348E+03
 -1      3344 4.58228E+04 2.12016E+04 4.83242E+03-3.10011E+04-1.25376E+03 1.27131E+03
 -1      3345-5.81581E+04 4.62789E+02-6.04296E+02-1.89127E+04 2.39580E+02 4.11487E+03
 -1      3346-8.73843E+04-4.84393E+03-2.20000E+03-2.15676E+04 1.15712E+03 4.83349E+03
 -1      3347 6.67270E+04 6.99605E+04 5.57082E+03-6.19788E+04-3.21332E+02 8.45563E+02
 -1      3348 6.82591E+04 5.56037E+04 5.23642E+03-5.54992E+04-3.31713E+02 1.21384E+03
 -1      3349-9.64994E+04-9.24033E+03-4.32002E+03-2.42577E+04 1.06810E+02 6.06993E+02
 -1      3350-1.11734E+05-8.24689E+03-2.43567E+03-2.83525E+04-1.26524E+03-1.47510E+03
 -1      3351-1.14627E+05-1.24720E+04-3.45152E+03-3.32219E+04 1.24800E+02-3.10518E+02
 -1      3352-8.12876E+04-6.25931E+04-5.12952E+03-6.37593E+04-1.89804E+03-2.22237E+03
 -1      3353-9.58880E+04-4.99922E+04-2.26851E+03-6.19874E+04-1.23909E+03-8.95589E+02
 -1      3354-9.02481E+04-5.41337E+04-4.31559E+03-6.21489E+04-2.87838E+02-4.63366E+02
 -1      3355-4.02805E+04 2.13671E+03 2.04878E+02-1.71615E+04 2.02485E+02 4.36428E+03
 -1      3356-6.77558E+04-3.81110E+03-2.18568E+03-1.81442E+04-1.28748E+02-4.69436E+02
 -1      3357-7.96064E+04-2.68152E+03-2.50772E+03-1.72077E+04 1.06540E+03 4.65908E+03
 -1      3358-1.15751E+05-4.40593E+04-4.80988E+03-6.36254E+04-5.52198E+02-1.12372E+03
 -1      3359-1.16823E+05-3.73792E+04-4.43878E+03-5.72289E+04 2.81992E+02 6.20685E+02
 -1      3360-1.08568E+05-4.77787E+04-5.60676E+03-6.55637E+04 5.35445E+02-1.10329E+03
 -1      3361 6.54581E+04 3.65128E+04 4.18779E+03-4.33985E+04-7.85972E+02 1.28246E+03
 -1      3362 6.96096E+04 4.20864E+04 6.85425E+03-4.74685E+04 3.45034E+02 1.16234E+03
 -1      3363 4.26287E+04 9.05545E+04 3.69857E+03-5.79996E+04 1.08363E+03-8.94548E+02
 -1      3364 5.21702E+04 8.91248E+04 3.83983E+03-6.22962E+04 1.06584E+03-2.26680E+03
 -1      3365 1.23573E+04 6.19859E+04 3.07391E+03-2.59700E+04-1.18735E+03-3.21866E+02
 -1      3366 4.29721E+03 3.14150E+04 1.33561E+03-1.71073E+04 3.03133E+03-1.09581E+03
 -1      3367 3.69678E+03 2.96328E+04 1.01466E+03-1.58570E+04 2.28462E+03-3.05400E+02
 -1      3368 7.31669E+03 4.10385E+04 2.38379E+03-1.83098E+04-1.29145E+03 1.64875E+02
 -1      3369 6.89494E+03 6.01548E+04 3.33942E+03-2.05258E+04 6.17551E+02-7.43375E+02
 -1      3370-4.37819E+03-1.86298E+04-1.98281E+02-1.09204E+04-2.31694E+03-2.77832E+02
 -1      3371 7.43468E+04 4.57963E+04 6.51322E+03-5.21280E+04-1.04503E+03 4.24800E+02
 -1      3372 6.95542E+04 3.81344E+04 4.82116E+03-4.84887E+04-6.25751E+02 5.41646E+02
 -1      3373 6.86829E+04 3.36967E+04 5.08169E+03-4.25432E+04 4.98857E+02 1.94349E+02
 -1      3374 1.34228E+04 6.35126E+04 3.19628E+03-2.80706E+04 2.97777E+03-6.47860E+02
 -1      3375 2.02334E+04 8.23614E+04 3.69882E+03-3.78643E+04 3.00268E+03-1.31214E+03
 -1      3376 2.78681E+03 1.97137E+04 6.75520E+02-1.51453E+04-1.47213E+03 5.74116E+02
 -1      3377-9.74276E+04-4.73969E+04-3.07447E+03-6.22140E+04-5.28297E+02 1.08955E+03
 -1      3378-7.85196E+04-5.34325E+04-3.38538E+03-5.89592E+04 2.27443E+02 2.56938E+03
 -1      3379-8.64729E+04-5.11133E+04-3.67806E+03-5.93543E+04 2.49433E+02 2.76084E+03
 -1      3380-3.86378E+04 1.56348E+03-4.19952E+02-1.52768E+04-5.27611E+02-7.13777E+02
 -1      3381-6.10280E+03 7.61493E+03 1.99694E+03-1.74386E+04-2.72135E+02-3.98327E+02
 -1      3382-5.94379E+04-5.25749E+04-1.84006E+03-5.02485E+04-2.39162E+02 1.45185E+03
 -1      3383-1.06914E+05-4.32573E+04-4.62971E+03-5.85176E+04 6.00324E+02 1.08904E+03
 -1      3384 6.58361E+04 3.26478E+04 5.49964E+03-4.34386E+04-9.85578E+02 5.25783E+02
 -1      3385-2.10661E+03-8.74372E+03 4.05398E+02-8.26933E+03-2.00945E+03-4.69919E+02
 -1      3386-3.07252E+03-1.76174E+04 9.50001E+01-8.85149E+03-1.67639E+03-2.65383E+02
 -1      3387-1.30086E+05-2.54992E+04-4.65466E+03-4.84712E+04 1.85707E+02 1.43184E+03
 -1      3388-1.32331E+05-1.94462E+04-7.10862E+03-4.29457E+04-4.77019E+02 2.68020E+03
 -1      3389-1.31224E+05-2.79422E+04-6.17228E+03-5.17528E+04 2.64382E+02 1.70579E+03
 -1      3390 1.29409E+04 8.53718E+04 4.93887E+03-3.35560E+04 2.05588E+03-6.26646E+02
 -1      3391 3.66420E+04 8.66600E+04 4.30719E+03-5.01592E+04 1.47618E+03-3.93421E+02
 -1      3392 3.09539E+04 9.02922E+04 3.33471E+03-4.72986E+04 1.75391E+03-1.43843E+03
 -1      3393 2.65266E+04 8.58253E+04 4.28752E+03-4.20766E+04 1.63659E+03-5.75933E+02
 -1      3394 1.44997E+04 1.07328E+04 2.93385E+03-2.06659E+04-2.99403E+02 4.25321E+03
 -1      3395 3.57240E+04 1.57983E+04 2.00715E+03-2.62340E+04 7.30349E+02-1.26852E+03
 -1      3396 9.49570E+03 9.58714E+03 1.50883E+03-1.99373E+04 5.99833E+02-1.42667E+03
 -1      3397 3.02854E+04 1.21652E+04 4.13384E+03-2.41818E+04-9.46199E+02 6.83426E+02
 -1      3398-8.34499E+04-7.52600E+03-2.44708E+03-2.29696E+04-8.50995E+02-1.94092E+03
 -1      3399-1.31084E+05-3.33458E+04-4.50929E+03-5.77649E+04 1.31806E+03-3.11045E+02
 -1      3400-4.33611E+04-5.70793E+04-2.30006E+03-4.61933E+04 7.49728E+02 1.57049E+03
 -1      3401-3.46756E+04-5.50781E+04-2.32459E+03-3.89703E+04-8.26610E+02-3.46317E+02
 -1      3402-6.74451E+03-2.64917E+04-7.35656E+02-1.21041E+04 3.64152E+02-3.46254E+02
 -1      3403-2.14815E+03-9.74593E+03 1.16008E+02-7.14336E+03-2.10593E+03-1.64804E+02
 -1      3404-1.28664E+05-1.52441E+04-3.05872E+03-3.84302E+04 3.00855E+02 4.53769E+02
 -1      3405-1.64325E+03 6.72268E+03 1.51808E+03-1.82875E+04-6.00074E+02 2.30585E+03
 -1      3406 6.92046E+04 6.11528E+04 5.02273E+03-5.88274E+04 1.33823E+03 1.69562E+03
 -1      3407-1.30564E+05-2.26756E+04-4.22276E+03-4.77723E+04 2.34111E+02-7.01842E+02
 -1      3408-5.97036E+03-3.86008E+04-9.02750E+01-1.61234E+04-2.08976E+03-6.04236E+02
 -1      3409-4.87115E+03-2.19778E+04 2.47671E+02-1.16354E+04-1.91421E+03-2.54629E+02
 -1      3410-4.53105E+04-5.89634E+04-1.40808E+03-4.77476E+04-1.34009E+03-1.26579E+03
 -1      3411-1.40947E+05-1.89515E+04-8.24890E+03-4.80901E+04 6.83131E+02 1.13637E+03
 -1      3412-1.21599E+05-1.70872E+04-2.95244E+03-3.73868E+04 2.91247E+01 2.31993E+03
 -1      3413-1.10664E+05-9.73240E+03-2.36443E+03-2.90886E+04 9.29951E+02 3.80042E+03
 -1      3414-1.17480E+05-1.39750E+04-4.83184E+03-3.46217E+04 5.01684E+02 1.71190E+03
 -1      3415 7.70132E+03 5.27800E+04 1.68968E+03-2.28087E+04 1.35365E+03-3.96992E+02
 -1      3416-2.61203E+04-5.82421E+04-2.61849E+03-3.71797E+04-1.64812E+03-3.88943E+02
 -1      3417-3.66069E+04-5.63982E+04-1.44304E+03-4.17924E+04-8.01226E+02-6.10955E+02
 -1      3418 7.30925E+04 4.85200E+04 3.10578E+03-5.66698E+04 1.71491E+03-9.51158E+02
 -1      3419 6.00674E+04 2.51769E+04 6.00384E+03-3.64574E+04 1.63159E+03-1.17705E+03
 -1      3420-6.06441E+04-5.90217E+04-1.86741E+03-5.40955E+04-8.32331E+02-1.87584E+03
 -1      3421-5.25111E+04-6.33330E+04-2.45153E+03-5.44484E+04-3.10851E+02 3.86982E+02
 -1      3422 5.25471E+04 8.35316E+04 4.80073E+03-5.76236E+04 1.18731E+03-9.42047E+02
 -1      3423-5.17709E+04-8.70780E+02-1.63717E+03-1.35797E+04-5.02852E+02-3.02941E+03
 -1      3424-1.24215E+05-3.23741E+04-3.86946E+03-5.50275E+04-9.54963E+01 7.89141E+02
 -1      3425-1.12492E+05-4.16511E+04-3.79705E+03-6.16991E+04 1.44677E+03 1.08014E+03
 -1      3426-1.22802E+05-3.72085E+04-6.01614E+03-5.82481E+04 7.30274E+02 1.04835E+03
 -1      3427 6.83058E+04 7.19619E+04 4.92272E+03-6.26572E+04-1.30050E+03 5.80721E+02
 -1      3428 6.04271E+04 8.17456E+04 5.62519E+03-6.42436E+04-4.55078E+02-2.08587E+02
 -1      3429 5.94590E+04 7.97841E+04 3.38407E+03-6.15477E+04-1.29887E+03 4.49204E+02
 -1      3430 7.80088E+03 4.39648E+04 2.07816E+03-2.23179E+04 3.19962E+03-1.45694E+03
 -1      3431 5.36100E+03 5.01313E+04 1.88097E+03-1.91230E+04 6.85185E+02-2.21887E+02
 -1      3432 5.09554E+04 9.16862E+04 6.35878E+03-6.22041E+04-8.45419E+02 7.50207E+02
 -1      3433 4.35918E+04 8.71949E+04 5.37089E+03-5.33613E+04 5.05370E+02-8.75953E+02
 -1      3434 3.33675E+04 8.78196E+04 4.38694E+03-4.81815E+04 2.88489E+02-3.58687E+01
 -1      3435 5.18108E+04 2.37697E+04 4.59872E+03-3.23260E+04-5.48622E+01 3.42970E+02
 -1      3436-1.02329E+05-8.72836E+03-4.55201E+03-2.55981E+04 1.37771E+03 3.55050E+03
 -1      3437-1.25735E+05-2.72939E+04-4.74782E+03-5.06758E+04-3.29191E+01 5.65390E+02
 -1      3438-7.66665E+03-3.14469E+04-9.31654E+02-1.50837E+04-1.06521E+03-3.38288E+01
 -1      3439-5.23886E+03-2.57291E+04 2.69380E+02-1.27142E+04-2.06730E+03-2.90477E+02
 -1      3440-7.12650E+04-5.80702E+04-3.83816E+03-5.76487E+04 6.45566E+01 7.93026E+02
 -1      3441-6.76975E+04-5.65969E+04-2.50018E+03-5.68341E+04 2.35997E+02-1.23808E+02
 -1      3442-5.18249E+04-5.74225E+04-2.38239E+03-4.84540E+04-5.42536E+02 1.85634E+02
 -1      3443 3.26479E+04 1.33442E+04 5.14773E+03-2.40724E+04-6.30754E+02 3.41972E+03
 -1      3444 9.05661E+03 6.32239E+04 2.07599E+03-2.44853E+04 1.33327E+03-7.94661E+02
 -1      3445 4.61805E+04 4.00822E+04 1.09983E+03-3.87940E+04-1.94168E+02 7.21840E+02
 -1      3446 1.23896E+04 7.35406E+03-2.67498E-01-3.12842E+04-4.21301E+02 1.13043E+02
 -1      3447 6.31637E+04-3.01231E+03-6.83463E+02 1.75436E+04 2.88065E+02 2.00402E+02
 -1      3448-2.27701E+04 9.60288E+02-9.93505E+02 2.43980E+02-1.00122E+02 1.68538E+03
 -1      3449 4.80960E+04 1.36307E+04 2.80710E+03-2.38426E+04-4.08388E+02 5.45377E+02
 -1      3450-1.08958E+05 2.46173E+03-7.54746E+02 5.13643E+03 1.75537E+02-6.93659E+02
 -1      3451-5.68434E+03 2.27148E+03-6.78239E+02-2.02470E+03-2.10166E+02 7.39622E+02
 -1      3452-1.48922E+04-3.49211E+03 6.26375E+02-1.70949E+04-2.01243E+02-6.78528E+02
 -1      3453-6.69278E+04 6.89224E+03-5.34709E+02 9.23026E+03 3.26059E+02-1.19036E+02
 -1      3454-1.50533E+03-5.02859E+02-8.28111E+01 2.01337E+03-2.82665E+02 4.02400E+02
 -1      3455 6.44154E+03 1.11927E+03 1.74520E+02 4.27764E+03-3.29219E+02-5.49299E+02
 -1      3456 7.58068E+03-3.35602E+03 6.96466E+02-2.57088E+03-2.35827E+02-1.45984E+03
 -1      3457-1.56372E+04 8.81359E+03 8.76519E+01 4.61692E+02 7.05568E+01 1.37616E+02
 -1      3458-3.05933E+04-1.21663E+04 3.64841E+01-1.39369E+04-1.23091E+02-3.36363E+02
 -1      3459-8.03769E+04-2.40321E+04 5.58541E+01-3.32260E+04-5.18743E+02 2.67669E+02
 -1      3460 3.95644E+03 9.05935E+02-1.99061E+01-2.40715E+04-2.60635E+02 1.55256E+01
 -1      3461 4.83434E+04 6.28086E+04 1.52544E+03-4.95644E+04 8.52425E+02 4.26193E+02
 -1      3462-3.09303E+04-2.88063E+04-1.51776E+03-3.15870E+04 7.78146E+02-1.70353E+02
 -1      3463-7.92384E+04 1.06185E+03-6.96893E+01 1.26483E+04-4.11010E+01-2.72485E+02
 -1      3464-1.00642E+04-2.20857E+04 4.30022E+02-1.71679E+04-1.35452E+03-3.20570E+02
 -1      3465 1.72150E+04 2.45499E+04 3.75810E+01-1.98510E+04-2.10195E+02-1.29031E+02
 -1      3466-7.85752E+04 3.53346E+03-3.74342E+02-2.35614E+04-4.30905E+01-1.75696E+03
 -1      3467 2.23627E+03 1.39419E+01-7.59721E+00-9.31578E+02-2.69193E+02 1.55634E+02
 -1      3468 3.86748E+04 2.58860E+04 3.27286E+03-3.15482E+04 1.43978E+03 7.35646E+02
 -1      3469 1.56396E+03-2.51607E+03 8.65534E+01-4.01117E+04-3.76388E+02-4.46863E+01
 -1      3470-4.56624E+04-1.84723E+03 2.08137E+02-2.72483E+04-3.23635E+01-1.66606E+03
 -1      3471-7.91376E+04 7.30205E+02-2.72871E+02 7.96279E+03 3.33066E+02-1.30732E+03
 -1      3472 3.65840E+03 2.47869E+04-6.82476E+02-2.98991E+04-6.72500E+02 8.75452E+02
 -1      3473 1.32303E+05-1.88126E+03 1.56915E+03 6.47844E+02 3.21183E+02 1.49420E+03
 -1      3474 2.89615E+03 4.80891E+02 7.87191E+01 2.65449E+03-2.18307E+02-3.49319E+02
 -1      3475 2.34294E+03 3.51973E+03-1.68421E+02-3.75261E+04-4.24182E+02 1.35143E+01
 -1      3476-1.36019E+05 1.96551E+03-1.10012E+03-9.03039E+02 4.99129E+02-1.38878E+03
 -1      3477-2.11825E+04 4.31894E+02-9.77436E+02 1.26501E+03-2.54163E+02 1.47385E+03
 -1      3478 2.38555E+04 8.40552E+03-2.67511E+02-2.70410E+04-3.86625E+02 3.09596E+02
 -1      3479-1.06022E+05 3.79025E+03-1.16121E+03 3.38513E+03 2.84626E+02-8.65605E+02
 -1      3480 7.86121E+04 1.16943E+04 3.68594E+03-1.99096E+04-4.87286E+02 9.97409E+02
 -1      3481-5.70571E+04 9.52827E+02 4.85452E+02 1.02552E+04 2.06228E+02-3.23278E+02
 -1      3482-3.69389E+04 1.16193E+04-1.12382E+02 5.75102E+03 1.05366E+02 4.22439E+00
 -1      3483 9.90812E+04-7.20160E+02 1.70772E+02 5.53015E+03 1.95724E+01 8.90559E+02
 -1      3484 4.53501E+03-3.43800E+03 4.83461E+02-1.13465E+03-2.66555E+02-1.02713E+03
 -1      3485 5.92283E+04 1.81160E+02 1.96681E+02-1.44033E+04 2.79240E+02 2.75673E+03
 -1      3486 2.30526E+04-1.85354E+03 1.08643E+03-1.22535E+03-9.86757E+01-1.83805E+03
 -1      3487 8.44278E+04 2.36826E+04 9.56710E+02-3.34966E+04-7.98681E+02-7.63250E+02
 -1      3488 4.39181E+03 9.95613E+03 1.22403E+02-1.14787E+04 3.34219E+01 4.37227E+02
 -1      3489 1.53790E+02-7.88088E+02-1.07705E+01 9.24673E+02-2.49400E+02 1.89397E+02
 -1      3490-6.69893E+04-2.37963E+04 1.65554E+02-2.66532E+04-1.32547E+02 6.57134E+01
 -1      3491 1.58850E+04 1.30264E+03-4.37871E+02-1.18755E+04 3.61945E+02 2.74966E+03
 -1      3492 5.86174E+03-6.21188E+00-2.19288E+00 1.50153E+03-9.74969E+01-7.11721E+02
 -1      3493-4.82095E+03-6.96536E+01-1.93488E+02 9.97208E+02-9.20973E+01 7.71378E+02
 -1      3494 6.80954E+04 4.30348E+04 1.06953E+03-4.65890E+04-1.45371E+02-1.41254E+03
 -1      3495-3.82776E+04-2.69012E+04-3.27669E+03-3.20887E+04-3.81817E+02-4.83142E+02
 -1      3496 2.60127E+03 1.58833E+03-4.61296E+01-2.63028E+03-2.98296E+02 6.83648E+01
 -1      3497 8.71930E+03 5.43663E+02-1.19182E+02-3.44877E+04-3.23526E+02-2.22725E+01
 -1      3498 3.01128E+04 2.18608E+04 4.46724E+02-2.28806E+04-2.26428E+02-2.09763E+02
 -1      3499 1.93008E+02 4.78417E+01 4.10320E+00-4.20120E+04-3.59947E+02-5.57788E+01
 -1      3500 1.33568E+05-1.93826E+03 1.06854E+03-1.18367E+03-6.35841E+00 1.62257E+03
 -1      3501 1.07780E+05-7.90868E+02 1.90201E+02 5.84875E+03-4.49327E+01 1.12632E+03
 -1      3502-4.08307E+04-7.10910E+04-2.05820E+03-4.73791E+04 4.41771E+02-8.93016E+01
 -1      3503 1.07270E+05-2.16173E+03 1.05313E+03-9.20592E+03 7.66783E+01 1.64880E+03
 -1      3504 7.11738E+03 5.97952E+03-1.46566E+02-3.32471E+04-4.15499E+02 6.58262E+01
 -1      3505 7.28593E+04-2.46807E+03-1.08909E+02 1.42906E+04 1.17851E+02 2.53827E+02
 -1      3506-1.77070E+04 7.88440E+02-3.24652E+02 1.99495E+03-2.81286E+02 1.25438E+03
 -1      3507-4.11850E+04-5.36597E+03 1.15680E+03 2.59317E+04 1.57872E+03-1.31869E+03
 -1      3508 4.41645E+04 6.52436E+03-4.19604E+02-2.08556E+04-2.14151E+02 1.45354E+02
 -1      3509-1.10968E+05 3.88086E+03-1.15081E+03 1.02098E+02-2.03094E+02-7.86829E+02
 -1      3510-6.63133E+04 1.08176E+04 6.78791E+01 2.21213E+03 4.84040E+02-1.26147E+02
 -1      3511 9.18899E+04 3.03084E+04 7.52430E+02-4.26220E+04-3.67000E+02-5.48728E+02
 -1      3512-3.44673E+04-3.27896E+04-3.19662E+02-3.03746E+04-5.61354E+02-4.78249E+02
 -1      3513 1.16614E+05 4.20559E+03 7.87268E+03-6.43421E+03 3.40138E+02 8.13414E+02
 -1      3514 8.30336E+03-2.44754E+03 6.06854E+02 1.13231E+03-2.40110E+02-1.06676E+03
 -1      3515-9.18381E+04-1.66503E+04-1.12519E+03-3.24674E+04-4.31831E+02-1.91128E+02
 -1      3516-4.07316E+03 1.84446E+04-1.81376E+02-4.52104E+03-1.73704E+01 1.40045E+02
 -1      3517 4.55851E+04 2.89890E+02-5.19969E+02-1.42313E+04-1.54353E+02 1.17809E+03
 -1      3518-2.52256E+04-8.99868E+03 1.17200E+02-6.12886E+03-2.48082E+02-1.72568E+02
 -1      3519-1.81210E+04 3.42721E+02-4.30664E+02 2.44481E+03-3.34643E+02 1.31782E+03
 -1      3520-1.31666E+03-1.27687E+02 8.94703E+01-5.67851E+02-7.57053E+01-1.47538E+02
 -1      3521-2.46038E+02 1.80343E+03 5.88472E+01 4.86094E+02 1.97674E+01 1.93145E+02
 -1      3522 1.57285E+04 1.23527E+04-1.15147E+02-2.42194E+04-1.93116E+02 1.30759E+02
 -1      3523-8.88559E+04 2.32570E+02-1.28358E+02 1.07330E+04-2.00731E+02-3.91153E+02
 -1      3524-5.62443E+04 5.05907E+02 2.73698E+02-2.72526E+04 1.10258E+02-1.81162E+03
 -1      3525 6.98619E+02 9.88825E+01-2.50711E+01-3.27784E+02-2.41157E+02 6.75288E+01
 -1      3526 6.09574E+03 4.45889E+02-1.76020E+01-4.14873E+04-3.05179E+02-1.10103E+02
 -1      3527-2.54520E+04-2.50900E+03 8.03354E+02-2.25714E+04-4.35481E+02-1.65653E+03
 -1      3528-6.10926E+03 1.13533E+04 5.58499E+02-2.54707E+04-1.54057E+02 2.11975E+03
 -1      3529 1.31640E+05-1.71381E+03 1.75655E+03-3.07107E+03 9.20527E+01 1.97600E+03
 -1      3530 1.77311E+03 1.50617E+02-5.30496E+01 1.79868E+03-8.15634E+01-2.28536E+02
 -1      3531-1.47295E+03 2.62575E+03-9.11854E+01-4.01622E+04-3.79791E+02 3.07224E+01
 -1      3532 5.73377E+04-1.34256E+03-1.01911E+03 2.06657E+04-2.41144E+02 4.24589E+02
 -1      3533-1.68335E+04 2.80500E+02-3.93839E+02 2.24257E+03-2.35215E+01 1.28191E+03
 -1      3534 1.63639E+04 5.88127E+03-2.36952E+02-2.67445E+04-3.27689E+02 2.88390E+02
 -1      3535 1.08639E+05-1.41505E+03 1.17137E+03 5.93624E+03 1.76637E+02 1.00231E+03
 -1      3536-1.04671E+05 6.45060E+03-8.83950E+02-2.78763E+03 4.37146E+02-7.89572E+02
 -1      3537-9.74610E+04 9.64340E+02-2.35645E+02 1.06327E+04 9.36188E+01-1.07209E+03
 -1      3538 7.26708E+04 4.65994E+04 2.18955E+03-5.03308E+04-2.56226E+02 8.35163E+02
 -1      3539 6.54246E+04 7.18825E+02-3.06026E+02-1.27946E+04-1.29727E+02 7.23640E+02
 -1      3540-8.67868E+04 3.69742E+03-5.23141E+02-1.96808E+04 4.22619E+02-5.22203E+02
 -1      3541-7.65819E+04 6.13388E+02-8.28505E+01 7.95077E+03 6.24432E+01-3.88579E+02
 -1      3542-2.71912E+04 1.97488E+04 1.71804E+02-2.84160E+03 2.10374E+02-1.90941E+02
 -1      3543 1.13760E+05-1.02464E+03 6.02126E+02 4.72948E+03 1.95759E+02 6.03774E+02
 -1      3544 5.29090E+03-1.96745E+03 4.16021E+02 2.30382E+03-2.55599E+02-1.00152E+03
 -1      3545 1.06156E+05-1.09164E+03 3.96485E+03 3.09188E+04 2.98323E+02 7.86932E+02
 -1      3546 1.00389E+03-1.31446E+03 2.73202E+00 1.46891E+02-1.39030E+02-1.75266E+01
 -1      3547-3.82393E+04-4.38845E+04-5.32002E+02-3.67969E+04 4.50012E+01-1.77453E+01
 -1      3548-3.71754E+04-6.34048E+04-4.39438E+02-4.28366E+04 1.21020E+03 6.01033E+01
 -1      3549 1.82022E+04 2.75045E+04-1.31229E+02-1.81827E+04 1.07502E+02 3.73096E+01
 -1      3550-5.14169E+04-1.67293E+04 2.46984E+02-1.67087E+04-1.85730E+02-1.20109E+02
 -1      3551-7.37148E+03 2.15897E+03-1.27948E+03-6.90395E+03 1.04772E+02 2.14750E+03
 -1      3552-3.07009E+03 1.87198E+01 3.54301E+01 8.57356E+02-2.44790E+02 6.70620E+02
 -1      3553-8.82805E+04-3.61531E+04-1.42790E+03-4.94579E+04 4.03547E+02-8.25630E+00
 -1      3554 9.32144E+03 3.04386E+03 4.06228E+01-1.26546E+04-1.19948E+02 9.36129E+02
 -1      3555 1.72778E+04 1.33906E+04-1.95744E+02-3.38441E+04-2.08703E+02 7.41028E+01
 -1      3556-4.52972E+04-1.26145E+03 1.11749E+02-2.55632E+04-6.70757E+01-8.11415E+02
 -1      3557-2.90679E+03-5.67843E+02-9.55298E+01 3.59199E+03-1.11394E+02 4.74115E+02
 -1      3558 8.52866E+03-5.96351E+02 5.01577E+02 3.86597E+03-3.00108E+02-8.31909E+02
 -1      3559 1.22600E+02 1.76123E+02-1.42916E+01-4.37069E+04-3.73932E+02-7.37649E+01
 -1      3560 1.26729E+05-1.62583E+03 2.05267E+03-5.02290E+03 1.80246E+02 2.25559E+03
 -1      3561 9.15978E+03 2.57311E+04-3.94338E+01-1.62561E+04-1.28918E+03 4.71158E+02
 -1      3562 8.55911E+01 4.02488E+03-2.21101E+02-3.40801E+04-3.84546E+02 6.55869E+01
 -1      3563 8.42807E+04-1.11490E+03 4.51085E+02 1.13244E+04 2.34392E+01 1.09317E+02
 -1      3564 9.39150E+04 1.71912E+04 1.04569E+03-3.48110E+04 3.94114E+02-1.03841E+03
 -1      3565-1.60248E+04 7.05670E+01-3.43921E+02 2.36702E+03 3.60466E+01 1.31033E+03
 -1      3566 3.82095E+04 4.48724E+04-7.26894E+02-3.76618E+04-5.72569E+02 6.76031E+02
 -1      3567 3.30132E+04 3.05840E+03-4.34478E+02-1.68469E+04-2.80112E+02 2.21230E+02
 -1      3568-1.09264E+05 5.37705E+03-1.35703E+03-5.73665E+03 6.57553E-01-1.37735E+03
 -1      3569-2.52866E+01 4.06833E+02-1.76900E+00 7.48063E+02-1.64070E+02-1.41249E+02
 -1      3570 3.65755E+04 1.96419E+03-5.59825E+02-2.43187E+04-2.47164E+02 2.01703E+03
 -1      3571-6.32424E+04 1.47352E+04 1.36210E+02-6.55160E+03 8.78960E+01-3.39293E+02
 -1      3572 8.39421E+04-8.04397E+03-2.73900E+02 3.89505E+03 1.67214E+02 5.13809E+02
 -1      3573-4.65683E+04 7.60079E+02 1.56882E+03 1.21101E+04-6.44313E+01-1.01206E+03
 -1      3574 8.36277E+03-1.20540E+03 3.26742E+02 2.91191E+03-1.87731E+02-1.07641E+03
 -1      3575-1.31930E+05 6.76076E+02-9.23552E+02 3.70181E+03 4.47540E+02-1.67317E+03
 -1      3576 8.02776E+03 3.13402E+04-3.18977E+02-1.44064E+04 1.18438E+02-8.49064E+01
 -1      3577-1.82737E+04-4.31150E+03 1.37429E+01-2.47011E+02-4.10248E+02-2.71389E+02
 -1      3578 3.94194E+04 1.21264E+04-2.55876E+03 2.72503E+04-1.09793E+01-5.32463E+02
 -1      3579 1.02381E+04-1.01437E+04-2.01158E+02-2.31642E+04 9.74529E+01 9.22442E+02
 -1      3580 2.60329E+04 3.63410E+04-1.33010E+02-2.89481E+04 1.76520E+02 1.78321E+02
 -1      3581-6.83417E+04-3.10332E+04-7.60392E+02-3.42821E+04-1.82680E+02-1.04436E+02
 -1      3582-3.32244E+04-6.16817E+04-8.74046E+02-3.70125E+04 4.67547E+02-6.25150E+01
 -1      3583-9.61790E+04 1.07749E+03-3.81082E+02 9.16539E+03-1.26531E+02-2.71400E+02
 -1      3584 1.01926E+04 9.99437E+03-3.23510E+01-3.82338E+04-2.36344E+01-8.37429E+01
 -1      3585-9.97188E+03-4.31078E+03 6.24631E+02-1.54238E+04 1.92468E+02-1.48882E+03
 -1      3586 1.17898E+05-1.28178E+03 1.14241E+03-7.30004E+03 1.01871E+02 2.27274E+03
 -1      3587 1.39784E+03 6.78668E+01 5.51752E+01 1.40961E+03-2.06454E+02-3.30664E+02
 -1      3588-6.00921E+03-1.20393E+02-6.96832E+00-4.17898E+04-3.39281E+02-1.28213E+02
 -1      3589 1.06085E+04-2.38864E+03 1.01058E+03-6.30376E+03-2.60617E+02-1.88897E+03
 -1      3590-5.59714E+02 1.16938E+03-9.12716E+00 9.76300E+02-2.61168E+02 8.25140E+01
 -1      3591-9.28906E+04-1.28186E+04-7.72443E+02-3.19202E+04 8.20995E+02 1.24854E+03
 -1      3592-5.45201E+04-5.27565E+04-2.04452E+03-4.77093E+04-9.57148E+01-4.23031E+02
 -1      3593 2.47111E+04 2.77137E+04 4.08919E+02-2.48829E+04-6.37915E+02 1.93783E+02
 -1      3594 1.10282E+04-9.64784E+01-1.23771E+02 2.01093E+03-9.23867E+01-8.41775E+02
 -1      3595-1.40916E+04 1.97427E+02-2.18954E+02 2.12736E+03-7.92055E+01 1.27407E+03
 -1      3596 7.82367E+03 3.92176E+03-2.32899E+02-2.57975E+04-2.81106E+02 2.24811E+02
 -1      3597 2.76496E+04 3.92514E+04 1.71280E+02-2.91417E+04 1.95371E+02 9.55720E+02
 -1      3598-9.79377E+04 5.91535E+03-1.00001E+03-1.17757E+04 2.59553E+02-1.11514E+03
 -1      3599 5.12591E+04-2.16379E+03-3.00338E+02-4.97978E+03 2.66580E+01 4.17599E+02
 -1      3600 5.11787E+04 5.41248E+04 2.36926E+03-4.65219E+04 6.68733E+02 1.10520E+03
 -1      3601-9.29638E+04 9.22795E+02-2.62460E+02 6.08084E+03-8.91468E+01-7.97043E+02
 -1      3602-2.31251E+04 2.42755E+04-1.81186E+02-1.35461E+04 2.97728E+01-2.17208E+02
 -1      3603 1.25558E+05-7.45067E+02 9.07840E+02 4.03837E+03-1.59542E+02 7.51777E+02
 -1      3604 6.00311E+03-2.26656E+02 4.20853E+02 3.64072E+03-2.46701E+02-6.49691E+02
 -1      3605 8.64808E+04-8.16040E+02 1.06027E+02 6.94775E+03 3.01718E+02 1.21781E+03
 -1      3606 8.18512E+04-7.08372E+03-9.14389E+01 2.19763E+04 4.03723E+02 2.82922E+02
 -1      3607-5.67517E+03 1.92284E+04 7.90315E+02-2.77476E+04 1.09379E+03-2.32267E+02
 -1      3608 1.32263E+05-1.24415E+03 1.74935E+03-3.15427E+03 6.19187E+02 1.57121E+03
 -1      3609 4.37425E+04 1.34791E+03-2.21055E+03 2.14672E+04 4.75144E+02 3.08450E+02
 -1      3610-2.99857E+04-5.52048E+02 7.03554E+02-1.35517E+04-9.65146E+01-2.97647E+03
 -1      3611 3.19262E+04 4.74656E+04 8.36236E+02-3.03695E+04 3.90123E+02-2.32333E+02
 -1      3612-4.12310E+04-9.77646E+03-3.89232E+01-9.50557E+03-4.99258E+02 1.57904E+02
 -1      3613-1.97179E+04 1.49366E+03-1.41508E+03-3.08361E+03 1.91680E+02 2.18284E+03
 -1      3614 3.05754E+04 6.10394E+04 1.24864E+03-3.77221E+04 7.68271E+02 3.38371E+02
 -1      3615 2.11568E+04 4.08131E+04 7.29605E+02-3.27191E+04 4.38885E+02 9.13054E+01
 -1      3616-2.84206E+02 2.70347E+01-5.22227E-01-3.96898E+04-1.48470E+02-4.49102E+01
 -1      3617 1.06130E+05-1.49496E+03 1.18272E+03-9.77618E+03-7.01850E+01 2.27128E+03
 -1      3618-2.28402E+04 1.45103E+03-7.39805E+02 5.09698E+02-3.48081E+02 1.63740E+03
 -1      3619-8.37625E+03-3.34789E+02 1.17426E+02-3.43024E+04-3.46903E+02-1.25352E+02
 -1      3620 9.28392E+04-6.10013E+02 3.08767E+02 9.80307E+03 4.73770E+01 2.67856E+02
 -1      3621 7.82395E+04 2.52448E+04 7.74312E+02-3.24074E+04 5.27133E+02 4.26090E+02
 -1      3622-3.91596E+03-1.36623E+02 1.23986E+01 1.29392E+03-1.87954E+02 7.32933E+02
 -1      3623-1.05286E+04 2.61071E+01-9.88066E+01 1.95421E+03-1.28295E+02 1.13690E+03
 -1      3624-4.69353E+04-6.38052E+03 1.71402E+03 2.75609E+04-1.01249E+03 5.23806E+02
 -1      3625 2.10567E+04 1.33812E+03-2.26343E+01-1.31742E+04-1.53627E+02 2.97002E+02
 -1      3626-9.66807E+04 4.76104E+03-5.39387E+02-1.49248E+04 2.67327E+02-1.35074E+03
 -1      3627 1.04944E+05 2.86501E+04 3.14937E+03-4.37704E+04-4.62972E+02-9.10416E+02
 -1      3628 6.35698E+02-1.01623E+03-8.07553E+01 4.14735E+02-2.87190E+02 5.78892E+01
 -1      3629 1.66605E+04 3.44757E+03-9.17403E+02-1.84723E+04 6.61915E+01 1.38553E+03
 -1      3630 2.27355E+04 4.31884E+04 1.51459E+03-3.18730E+04 1.62988E+02 6.19556E+02
 -1      3631-6.14815E+04 1.50877E+04 4.06035E+02-1.85644E+04 3.48659E+02-2.83687E+02
 -1      3632 5.61016E+04 4.43259E+04 9.85928E+02-4.27789E+04 1.82302E+02-8.55842E+02
 -1      3633 6.53444E+04-5.77832E+03-5.98900E+01 7.77019E+03 7.27375E+01 1.29511E+02
 -1      3634 6.92894E+03-5.31864E+01 1.92125E+02 3.59220E+03-8.45898E+01-6.15972E+02
 -1      3635 2.81208E+04 4.16521E+04 4.12849E+02-3.12421E+04 5.19637E+01 2.60077E+02
 -1      3636-1.50708E+04-1.43857E+03-1.78484E+01 2.03937E+03-2.30028E+02-1.57871E+02
 -1      3637 5.79382E+04-1.11534E+03-1.00670E+03 2.17033E+04 2.64933E+02 2.19979E+02
 -1      3638 4.86273E+04 6.19287E+04 1.04954E+03-4.92795E+04 3.75668E+02-3.38316E+02
 -1      3639 1.21705E+02-4.05380E+02-9.54773E+00 3.28142E+02-2.86271E+02 1.97435E+02
 -1      3640 1.01257E+05 2.60804E+02 2.00312E+02 9.91760E+03 3.65050E+02 1.04723E+03
 -1      3641-5.26065E+04-1.96017E+04-9.67534E+01-2.18150E+04-5.04026E+02 1.00663E+02
 -1      3642-1.06960E+05 5.34379E+02-5.23760E+02 6.42578E+03-3.90149E+02-2.62760E+02
 -1      3643-8.21669E+04 1.00787E+03 7.63317E+01 1.33340E+04 1.73652E+02-7.43306E+02
 -1      3644 7.94406E+04-1.79378E+03 7.45418E+02-2.15624E+04 1.09563E+02 5.40164E+02
 -1      3645-5.82645E+04-4.68963E+04-2.87100E+02-4.73900E+04-2.29387E+02 1.92196E+02
 -1      3646-1.07127E+05 4.64777E+03-2.78762E+02-5.86059E+03 8.46846E+02-4.50170E+02
 -1      3647 9.24742E+03 3.74363E+04 7.10614E+02-2.41395E+04 9.28127E+02-2.14217E+01
 -1      3648-3.27999E+04-1.36607E+03 2.59888E+03 1.10356E+04 3.00828E+02-4.40510E+02
 -1      3649 4.35186E+03-1.61078E+03 3.67539E+02-6.17497E+03 4.22785E+02-1.48999E+03
 -1      3650 9.15670E+04-2.48581E+02 1.15265E+03-1.10701E+04 4.84572E+01 2.56574E+03
 -1      3651 1.48643E+03 4.68720E+02 1.78533E+01 1.20715E+03-2.25931E+02-2.34426E+02
 -1      3652-9.70090E+03-8.09733E+03 7.34437E+01-3.87197E+04-1.98773E+02-1.02289E+01
 -1      3653 8.81650E+04 3.57847E+04 7.60133E+02-4.84523E+04-2.36037E+02 1.04803E+02
 -1      3654-8.84735E+04-2.58644E+04-1.39079E+03-3.66236E+04 8.48645E+02-2.20545E+02
 -1      3655-9.20355E+03-1.81537E+02-1.44703E+02 1.81464E+03-1.26240E+02 1.02888E+03
 -1      3656-3.69169E+03-7.57391E+02 7.50484E+01-2.38961E+04-2.83764E+02 1.75678E+02
 -1      3657-5.62351E+04-7.49667E+02 1.18848E+02 2.69042E+04-7.29612E+02 4.76613E+02
 -1      3658 3.71547E+04 3.19830E+03 7.58616E+01-2.32532E+04-1.03440E+02 8.44722E+02
 -1      3659-8.31197E+04 5.25076E+03-5.64026E+02-2.13738E+04-1.04716E+02-1.16375E+03
 -1      3660-4.39367E+03-4.31243E+00 1.53075E+02 4.25054E+03-3.22145E+02 6.28496E+02
 -1      3661 4.05764E+04-1.94443E+03-1.49793E+02 4.38311E+02-2.31123E+01 2.46112E+02
 -1      3662 7.13197E+03-1.08029E+03 5.74759E+02 1.86298E+01-2.03605E+02-7.16543E+02
 -1      3663-8.21475E+02 4.59038E+02-9.17301E+00-7.20838E+01-1.24722E+02-5.33346E+01
 -1      3664 1.07453E+03-3.87553E+01-1.97436E+00 3.08715E+02-2.06669E+02 1.63077E+02
 -1      3665 8.68832E+03 3.74044E+04 8.85372E+02-2.38154E+04-2.30139E-01-1.22224E+02
 -1      3666-1.07860E+05 3.67404E+02-6.63595E+02 4.90289E+03 1.08514E+02-8.86969E+02
 -1      3667-1.06260E+04 2.64399E+04 2.73664E+02-2.46579E+04 2.67118E+02 2.13578E+02
 -1      3668 2.88333E+03 2.98146E+02 1.01182E+02 2.03316E+03-1.53293E+02-3.50700E+02
 -1      3669 1.29267E+05-1.29017E+03 9.48183E+02 2.19852E+03-1.52755E+02 1.32738E+03
 -1      3670 3.74624E+03 3.93815E+02 3.09908E+02 3.63546E+03-2.33861E+02-5.09542E+02
 -1      3671 7.25224E+04-6.47069E+03-2.23996E+02 1.77176E+04 1.66430E+02 3.02018E+02
 -1      3672 4.22469E+04 3.73246E+04 1.76852E+03-3.72259E+04 1.68684E+02 2.41497E+02
 -1      3673 6.19824E+04-3.28301E+03-7.62620E+02 1.79003E+04 2.11588E+02 3.66122E+02
 -1      3674-8.14149E+02-1.35886E+03 1.08138E+03-9.42639E+03 1.25671E+01-2.31527E+03
 -1      3675-3.15377E+04-3.30258E+03-2.54804E+02-4.21812E+03-2.14121E+02 1.92800E+02
 -1      3676-2.19250E+04 1.06122E+03-7.48890E+02 4.13153E+01 2.15380E+01 1.49143E+03
 -1      3677-4.99849E+04-3.26753E+04-3.92118E+00-3.36326E+04-3.11704E+02-2.38468E+02
 -1      3678-4.96018E+04-6.07004E+04-1.42196E+03-4.77751E+04-7.22730E+02 6.07403E+02
 -1      3679-4.59301E+04 7.90124E+02 1.47627E+03 1.12359E+04 3.53486E+02-5.27112E+02
 -1      3680 4.77066E+01-2.31258E+03-3.30088E+02-2.12526E+04 8.36118E+02 1.03592E+02
 -1      3681-1.17409E+05 5.65911E+02-1.12089E+03 4.77904E+03 9.43575E+00-1.71611E+03
 -1      3682 5.82404E+04 4.29176E+04-1.66411E+02-4.29651E+04-5.32610E+02 1.01039E+03
 -1      3683 7.33822E+04-3.59513E+02 7.00751E+02-1.26955E+04 1.07341E+01 2.51653E+03
 -1      3684-9.16449E+04 1.37579E+03-9.06911E+02-1.16045E+04 2.78737E+02-1.63212E+03
 -1      3685 6.71721E+03-2.62903E+04-1.27174E+03-2.23551E+04 1.27633E+03 2.70431E+02
 -1      3686-1.69793E+04-1.32653E+04 1.36305E+02-3.36601E+04-1.39408E+02-3.87165E+01
 -1      3687 1.01703E+05-1.45600E+03 2.73584E+02 7.74276E+03 2.81641E+01 4.26894E+02
 -1      3688-7.33991E+03 1.20868E+02-3.90048E+01 1.43490E+03-1.25528E+02 1.11051E+03
 -1      3689-2.82849E+04-3.24053E+04-4.36855E+02-3.26651E+04-6.95169E+02-1.06529E+03
 -1      3690 9.35907E+03-1.81120E+03 9.23110E+01-1.07693E+04-1.82355E+02 4.06921E+01
 -1      3691-7.88881E+04 3.22882E+03-4.23474E+02-2.15678E+04 4.22000E+02-1.27353E+03
 -1      3692 5.22559E+03 4.29030E+03-3.90721E+02-1.07880E+04 1.71855E+02 1.29830E+03
 -1      3693-5.29854E+04 1.30752E+04-4.31561E+01-2.99377E+04 4.51794E+01-4.54825E+02
 -1      3694-4.22468E+01 3.84990E+01-2.01153E+01 3.98482E+02-1.94884E+02 1.67589E+02
 -1      3695 5.47298E+04-3.77443E+03-2.12607E+00 9.76107E+03 3.83371E+01 1.32485E+02
 -1      3696-1.55267E+03 2.17077E+04 6.58951E+02-2.92676E+04 2.88813E+02 1.04995E+02
 -1      3697 4.69235E+03 4.73782E+02 2.16477E+02 2.88585E+03-1.23973E+02-6.09188E+02
 -1      3698-2.78398E+04-7.88539E+02 3.37867E+02-1.30091E+04 5.53092E+01-1.36327E+03
 -1      3699-1.12133E+04 8.71511E+02 2.75684E+02 2.50215E+03-2.12964E+02-9.02737E+01
 -1      3700 1.93334E+04-3.92760E+02 4.70792E+01 2.83937E+03-3.49436E+02-1.12565E+03
 -1      3701 6.92235E+04-2.98643E+03-2.56479E+02 1.69556E+04 1.21021E+02 4.81789E+02
 -1      3702 6.40097E+04 2.95392E+03 8.74887E+02-2.32486E+04 1.85712E+02-5.90198E+02
 -1      3703-4.09561E+04-7.59333E+03-3.73551E+02-1.25688E+04-2.95536E+02 1.76183E+02
 -1      3704-1.08673E+05 9.32492E+02-5.83252E+02 2.14411E+03-5.14214E+02-5.86213E+02
 -1      3705-5.93161E+04 1.11933E+03 6.41992E+02 1.09418E+04 1.18927E+02-6.92363E+02
 -1      3706 3.18462E+04 3.91011E+04 4.33538E+02-3.12722E+04-9.90210E+02 2.25971E+02
 -1      3707 7.33181E+03-8.98513E+02 8.96544E+02-1.35666E+03-3.46121E+02-8.88010E+02
 -1      3708 5.90861E+04-7.77129E+02-5.34727E+02 1.01054E+04 1.18549E+02 8.62530E+02
 -1      3709 5.86552E+04 3.49376E+01-3.04627E+00-1.43314E+04 4.01372E+01 2.26850E+03
 -1      3710 1.33020E+05-1.03502E+03 1.05853E+03 2.86784E+03-2.10889E+01 1.35932E+03
 -1      3711-9.09399E+03-3.48098E+04-9.65870E+02-2.39576E+04 1.04347E+03 2.02813E+02
 -1      3712-7.36381E+04-2.70711E+04-2.59766E+02-2.99477E+04 1.42986E+02-5.32177E+02
 -1      3713-5.07552E+03-8.35944E+01-3.49417E+01 1.09030E+03-1.32381E+02 9.42369E+02
 -1      3714-1.57658E+04-1.28356E+04 8.50104E+01-2.39729E+04-7.91703E+01-1.14996E+02
 -1      3715-6.63713E+04 1.91695E+03-4.30535E+02-2.63247E+04 2.03613E+02-1.50671E+03
 -1      3716-3.06838E+04-3.35525E+04-2.96469E+02-2.88952E+04-4.20573E+02-1.06821E+01
 -1      3717 2.80386E+04-3.17487E+03 2.83206E+01 1.58879E+03-9.81346E+01 3.60285E+01
 -1      3718-4.53960E+04-5.72486E+04-8.57838E+02-4.44766E+04 4.75325E+02 1.02696E+02
 -1      3719-1.21358E+05 5.00993E+02-1.14002E+03 4.10686E+03-5.83703E+01-8.64134E+02
 -1      3720-1.30136E+04 1.65508E+04 1.22987E+03-2.81891E+04 3.24876E+02 2.03049E+02
 -1      3721 1.32760E+05-2.10364E+03 7.12831E+02-1.38442E+03-7.55980E+01 1.52482E+03
 -1      3722 2.01981E+03 4.22765E+02 1.45779E+02 2.70346E+03-2.26788E+02-4.16044E+02
 -1      3723 6.80453E+04-4.11516E+03 1.04186E+02 1.58459E+04 1.36343E+02 2.38446E+02
 -1      3724-1.37165E+04 1.96661E+03-7.04183E+02-4.13527E+03 2.16772E+02 1.94558E+03
 -1      3725-7.53014E+03-3.07281E+04-2.57467E+02-2.15635E+04-4.62043E+02-2.18366E+02
 -1      3726 7.54344E+04-2.16024E+03 9.42891E+01 1.39502E+04 2.24884E+02 4.71989E+02
 -1      3727 1.48227E+04-2.55525E+03 6.31251E+02-4.96404E+03-7.45607E+01-1.62265E+03
 -1      3728-8.22350E+03 8.53485E+01-1.14696E+02 1.59628E+03-8.56671E+00 1.01440E+03
 -1      3729-2.22942E+04 5.20222E+02 2.02057E+02-1.36122E+03-2.47905E+02 9.51290E+01
 -1      3730-1.86328E+04 8.58330E+02-6.99621E+02 1.63230E+03 3.64862E+01 1.03845E+03
 -1      3731 5.12776E+04 3.51968E+03 5.55433E+01-3.52809E+04 7.54184E+01 5.17811E+02
 -1      3732 1.27990E+03 1.37835E+03 1.50047E+01 1.60884E+03-2.44734E+02-8.32909E+01
 -1      3733-4.11743E+04-1.50216E+04 2.84908E+02-2.23783E+04-3.98257E+02 1.33955E+02
 -1      3734-3.18899E+04-3.73601E+04-4.39654E+02-3.10528E+04-7.07030E+02-5.47408E+00
 -1      3735-6.72956E+04 1.31108E+03 1.91970E+02 9.86913E+03 1.69548E+02-9.91564E+02
 -1      3736-4.66332E+02 4.51929E+02 7.96911E+01 2.94759E+02-1.99646E+02-1.55292E+02
 -1      3737 4.99953E+04 3.94100E+04 2.02152E+03-4.04202E+04-4.03178E+02-1.03008E+02
 -1      3738-2.07798E+04-4.13675E+04-8.59676E+02-3.29225E+04 2.38845E+02 4.32084E+01
 -1      3739 1.07559E+05-3.22584E+03 3.63289E+02 4.59041E+03-1.02514E+02 6.88788E+02
 -1      3740 8.60131E+04-1.03278E+03 1.97775E+02 1.27399E+04 2.59780E+01 7.77443E+02
 -1      3741-4.27512E+03-8.81848E+01 2.10391E+01 1.13982E+03-1.58328E+02 8.77350E+02
 -1      3742-6.51170E+04 3.03242E+03 6.12967E+02 1.90996E+04-3.31220E+01-5.71975E+02
 -1      3743 1.04248E+05-3.09187E+03 5.33161E+02-1.01227E+04 3.24199E+02 2.96637E+02
 -1      3744-3.58028E+03-1.03824E+04-9.29587E+01-1.09574E+04-5.34309E+01-2.22258E+02
 -1      3745-5.61790E+04 7.88185E+02-2.50944E+02-2.49516E+04 1.31966E+01-1.76815E+03
 -1      3746-1.12004E+05 6.91685E+02-1.10294E+03 3.88004E+03 8.35059E+02-9.40727E+02
 -1      3747 5.46435E+02 3.13964E+02-9.24533E+00-4.17676E+02-1.63565E+02 1.35637E+02
 -1      3748-6.09622E+03 2.78301E+03-2.44019E+01-3.36457E+03-3.10664E+01 1.32383E+03
 -1      3749-5.14281E+04 5.21596E+03 7.02866E+01-3.53363E+04 1.35366E+02-4.44409E+02
 -1      3750 4.68439E+04-3.53293E+03-1.05574E-01 1.05537E+04-1.34340E+01 1.40771E+02
 -1      3751-1.06453E+04 1.07177E+04 5.46740E+02-2.44834E+04 5.30528E+01 5.55242E+02
 -1      3752 2.67676E+03 2.87404E+02 1.41597E+02 2.03112E+03-1.77983E+02-4.28016E+02
 -1      3753-7.76116E+03 1.31769E+03 1.44416E+02 2.02695E+03-2.54941E+02-9.75132E+01
 -1      3754 7.87690E+04-1.88957E+03 1.18576E+02 1.33072E+04 7.64379E+01 3.29741E+02
 -1      3755-7.36516E+04-3.46458E+04-1.47096E+03-3.81676E+04-7.36294E+02 4.35029E+02
 -1      3756 8.23944E+04 1.12830E+04 1.63604E+03-3.03201E+04 2.11556E+02-1.00842E+03
 -1      3757-2.19750E+04-4.48190E+04-1.38621E+03-3.28305E+04-5.54542E+01-7.92140E+02
 -1      3758-3.17592E+04-8.36632E+02-6.90861E+01-8.82356E+03-2.33081E+02 1.34581E+02
 -1      3759-1.10155E+05 2.49709E+03-5.66181E+02-3.09288E+03-5.25082E+02-1.35314E+03
 -1      3760-7.49348E+03 5.90894E+02-6.55315E+02 2.34625E+03-9.63616E+01 7.74379E+02
 -1      3761 4.72133E+04 1.55871E+03-1.75350E+02-2.68498E+04 4.65860E+01 1.54659E+03
 -1      3762-1.40364E+03-3.39992E+03 5.43820E+02-8.36050E+03-6.07472E+02-7.47406E+02
 -1      3763-6.25164E+02-5.66193E+02-4.32195E+01 1.45296E+03-2.19419E+02 3.52716E+02
 -1      3764-3.28257E+04-2.11942E+04 2.18551E+02-2.57511E+04-2.42883E+02-1.97136E+01
 -1      3765-7.63431E+04 4.14403E+02-4.38286E+02 7.80934E+03 1.68572E+02-8.11177E+02
 -1      3766-5.16036E+04-3.71319E+04-1.66698E+03-4.15127E+04-1.70289E+02-1.93436E+02
 -1      3767 4.57425E+03 9.25852E+02 1.50846E+02 3.21642E+03-1.94562E+02-4.23144E+02
 -1      3768 5.23062E+03-1.30327E+03 1.54042E+02 1.65705E+03 6.67009E+00-5.60201E+02
 -1      3769 8.92270E+02-7.19990E+02 4.74902E+01-1.32181E+02-2.12323E+02-4.84626E+01
 -1      3770 2.72352E+04 7.12291E+04 2.21038E+03-3.91059E+04 6.20691E+02 8.10617E+02
 -1      3771 3.71382E+04 4.36026E+04 6.71591E+02-3.57103E+04-1.05885E+02-2.48215E+02
 -1      3772-3.30650E+03-1.69269E+02-3.88714E+01 1.08201E+03-2.05451E+02 7.62420E+02
 -1      3773-2.54191E+04-3.63838E+04 3.62900E+02-2.86529E+04 1.78749E+02-3.39389E+01
 -1      3774 1.81786E+04-7.82328E+03-1.28526E+02 1.75987E+03-2.44528E+01 5.18399E+01
 -1      3775-1.29658E+05 1.63117E+03-6.39605E+02 2.88914E+03-1.26174E+02-9.90127E+02
 -1      3776-9.63776E+04 7.43119E+02-1.03681E+02 6.47837E+03 3.53870E+02-1.15964E+03
 -1      3777-3.15742E+04 5.16402E+03 1.63885E+01-2.45962E+04-7.34801E+01 7.31622E+02
 -1      3778 1.25179E+05-1.62008E+03 1.72802E+03-5.64541E+03 3.78721E+00 2.69403E+03
 -1      3779 1.77966E+03 2.61486E+02 1.23416E+02 1.98516E+03-2.16718E+02-3.61468E+02
 -1      3780 6.72352E+04-2.80089E+03 8.31795E+01 1.47495E+04 2.69610E+02 3.04626E+02
 -1      3781-1.27185E+05 1.92115E+03-1.48903E+03-5.11587E+03 5.53106E+02-1.04876E+03
 -1      3782 8.53796E+04-1.56107E+03 2.93052E+02 1.14581E+04 7.64056E+01 6.03680E+02
 -1      3783 2.36461E+04-1.56420E+03 1.09931E+03-1.77444E+03 6.11396E+01-1.52870E+03
 -1      3784 9.59071E+04 1.54594E+04 1.89587E+03-3.35767E+04 1.33053E+02-1.18629E+03
 -1      3785-1.80117E+04 1.97312E+03-4.79528E+01-1.99292E+03-2.01076E+02 8.35380E+01
 -1      3786-1.54343E+04 3.33766E+02-1.70185E+02 2.04054E+03 5.43525E+01 9.89998E+02
 -1      3787 4.78752E+04 1.02687E+04-8.66778E+01-3.21179E+04 1.28265E+02 6.71597E+02
 -1      3788-2.71013E+04-3.79184E+04-7.46545E+02-2.80819E+04 4.34874E+02-5.66229E+02
 -1      3789 3.67031E+04 2.68354E+03-1.41676E+02-2.29136E+04 2.54904E+02 1.80883E+03
 -1      3790-3.44194E+04-3.14312E+03-9.62434E+01-1.65603E+04-1.62803E+02 1.21457E+02
 -1      3791-8.54592E+04 4.04994E+02-6.51436E+02 6.99177E+03 1.82478E+02-9.53596E+02
 -1      3792-1.75032E+04-2.02698E+04-2.50649E+02-2.09541E+04-4.22436E+02 2.18158E+01
 -1      3793 2.22533E+04-1.36559E+03 3.96926E+02 1.58944E+03-5.42903E+02-1.61152E+03
 -1      3794 6.81270E+04 2.29536E+04 7.86209E+02-2.63865E+04-4.73803E+02-6.92915E+02
 -1      3795 3.06508E+04 8.06512E+03-2.13032E+03 1.96380E+04 1.24229E+03-3.58906E+01
 -1      3796-4.36128E+04-3.70608E+02 2.74101E+02-1.43333E+04-4.25750E+01-2.43668E+03
 -1      3797 1.07327E+05-2.20406E+03 8.86902E+02-9.27463E+02-1.36324E+02 7.62507E+02
 -1      3798 2.85673E+04 3.91028E+04 4.10624E+02-2.88745E+04-2.98703E+02-3.46181E+02
 -1      3799-7.80012E+04-3.51144E+04-1.34358E+03-4.01513E+04 3.31345E+02-2.75649E+02
 -1      3800-3.14209E+04-6.30884E+04-8.09572E+02-3.73126E+04 4.24218E+02 1.50096E+02
 -1      3801-1.66309E+04-2.64082E+04 1.50701E+02-1.69196E+04 2.99247E+01-8.77337E+01
 -1      3802-4.78822E+03 2.21394E+03-5.73552E+02 6.85406E+02-3.20949E+01 8.18198E+02
 -1      3803 4.10019E+04-5.96237E+03 3.89308E+01 9.86658E+03 2.88638E+02-8.44055E+01
 -1      3804 2.27675E+03 2.17650E+02 8.81002E+01 1.68407E+03-2.27055E+02-3.43739E+02
 -1      3805 1.22364E+05-8.63304E+02 5.99645E+02 4.62543E+03 1.71345E+02 1.58728E+03
 -1      3806-5.49538E+03 1.09952E+03 9.45036E+01 1.09931E+03-2.44282E+02-9.98064E+01
 -1      3807 7.64351E+04-3.11418E+02 4.70183E+02-1.20984E+04 5.53175E+02 1.41218E+03
 -1      3808 8.78725E+04-1.13290E+03 2.32169E+02 1.14144E+04 1.50899E+02 6.55218E+02
 -1      3809 8.00846E+04 2.09762E+04 9.76207E+02-3.23868E+04-2.44391E+02-5.11047E+02
 -1      3810-2.50355E+04 1.99533E+03-1.23689E+02-7.80325E+03-1.92525E+02 6.31244E+01
 -1      3811-9.73604E+04 5.36002E+03-9.15776E+02-1.23510E+04-2.38858E+02-1.48360E+03
 -1      3812-3.07123E+04-2.52214E+04-2.69957E+03-2.99534E+04 8.54675E+02-6.40640E+02
 -1      3813 3.01165E+04 4.01596E+03-5.96865E+02-2.27173E+04-1.70134E+02 1.53682E+03
 -1      3814-1.12654E+05-3.11351E+04-3.12672E+03-4.76604E+04 8.90265E+02-2.96869E+01
 -1      3815-2.99646E+04-6.28702E+03 4.11329E+00-2.16717E+04-8.73946E+01 9.99283E+01
 -1      3816-9.38235E+04 3.80951E+02-5.54273E+02 6.06509E+03 1.71920E+02-1.07875E+03
 -1      3817 7.58443E+03 4.10627E+02 2.90058E+02 3.09266E+03 1.26205E+02-4.30201E+02
 -1      3818-8.28429E+04-2.40550E+04-1.02430E+03-3.32215E+04-6.25071E+02 7.23708E+02
 -1      3819 1.76863E+04 1.59316E+03-8.92591E+02-1.06029E+04-4.82860E+02 1.58877E+03
 -1      3820-4.70003E+03-1.43326E+04 5.74152E+01-1.09806E+04-1.19758E+03-2.12321E+01
 -1      3821-3.15665E+04-9.57336E+02 7.34107E+02-1.41069E+04 1.83211E+02-2.19707E+03
 -1      3822 3.89292E+04 5.55211E+04 1.05905E+03-3.63712E+04 3.46310E+02-5.71701E+02
 -1      3823-1.46200E+04 8.93744E+01-3.34078E+02 2.39592E+03-6.31842E+01 1.30281E+03
 -1      3824 6.68576E+02-3.92053E+02 6.72137E+01 5.67682E+02-2.83662E+02 1.48136E+02
 -1      3825-4.71514E+02 3.30442E+02 8.75208E+01-1.73793E+02-1.13587E+02-9.87288E+01
 -1      3826 2.37746E+04 4.62433E+04 1.56095E+03-3.36578E+04 6.96237E+02-7.49526E+02
 -1      3827 4.93598E+03-1.80430E+04-9.60571E+01-3.75560E+03-1.21341E+02 1.16340E+02
 -1      3828-1.33388E+05 9.95964E+02-1.10252E+03 2.63092E+02-1.00193E+02-1.01962E+03
 -1      3829 1.07197E+05-1.32017E+03 1.03214E+03-9.85850E+03-6.06478E+01 2.45722E+03
 -1      3830 1.45080E+03 3.48500E+02-6.48089E+00 1.65247E+03-2.53022E+02-2.62454E+02
 -1      3831 6.78973E+04-3.42138E+03 2.02960E+02 1.32474E+04 3.43406E+02 2.40120E+02
 -1      3832 9.53497E+04-6.39077E+02 5.23313E+02 9.72849E+03 5.77830E+01 7.63305E+02
 -1      3833 2.22072E+04-3.95032E+02 7.86535E+02 1.04518E+03 3.86716E+01-1.32726E+03
 -1      3834 7.13414E+04-2.90265E+03-1.29437E+02 1.77023E+04 1.62307E+02 3.65566E+02
 -1      3835 7.97610E+04 2.45426E+04-2.01448E+02-3.33384E+04 2.45822E+00-1.59981E+02
 -1      3836-1.27166E+04 1.96397E+03 1.27028E+02-2.33245E+03-2.06091E+02-5.76872E+00
 -1      3837-1.02081E+04 4.01934E+02 2.88575E+01 1.79808E+03-1.78455E+02 8.74834E+02
 -1      3838-3.58281E+04-9.30574E+03 2.02849E+03 2.25574E+04-5.09224E+02 5.53794E+02
 -1      3839 4.11508E+04 1.38096E+04 1.15506E+02-2.45053E+04-3.97535E+02 4.62623E+02
 -1      3840 1.08136E+05-3.49121E+03 8.79410E+02 5.91142E+02 8.17895E+02 6.09954E+02
 -1      3841-1.04539E+05 2.10896E+03-2.18843E+02 9.33854E+03 2.25190E+02-1.21702E+03
 -1      3842 7.92660E+02-1.47703E+03 5.20952E+00 7.20654E+02-1.56258E+02 2.58145E+01
 -1      3843 1.73925E+04 3.76987E+03-8.03948E+02-1.72837E+04-5.33053E+01 1.36375E+03
 -1      3844-2.79784E+04 1.37989E+03-1.81661E+01-1.45507E+04-5.52847E+01 9.91058E+01
 -1      3845-6.80288E+04 6.19459E+02-4.92367E+02-2.36502E+04 3.24314E+02-5.29092E+02
 -1      3846 1.17326E+03-1.02648E+02-1.81127E+01 8.98603E+02-1.13074E+02 2.02691E+02
 -1      3847-1.02480E+05 5.06496E+02-3.20023E+02 5.56945E+03 7.05280E-03-1.10694E+03
 -1      3848 1.96347E+03 7.65437E+02 3.85048E+01 2.96389E+03-1.29301E+02-1.65926E+02
 -1      3849-2.07158E+04-7.09592E+03 3.10406E+01-2.27397E+04-6.06227E+01 2.64181E+01
 -1      3850 2.54928E+03-2.51766E+04-5.82338E+02-2.93688E+04-9.31286E+02-2.23127E+02
 -1      3851 2.99886E+04 4.22976E+04 6.90634E+02-3.02926E+04-2.56230E+02 3.55921E+02
 -1      3852 1.45253E+03 1.17659E+02 1.19714E+01-7.86417E+02-3.26159E+02 1.40078E+01
 -1      3853 5.69676E+04-1.69435E+03-7.08372E+02 2.01484E+04 7.34421E+02 2.96557E+02
 -1      3854-1.76980E+04-1.18332E+03 1.19001E+03-1.11496E+04-1.61235E+02-2.32314E+03
 -1      3855-7.98620E+01-6.85038E+02-5.07184E+01 6.05457E+02-2.86079E+02 1.61487E+02
 -1      3856 3.39971E+02 3.50280E+03 3.64336E+01-9.28755E+03-1.06463E+03 3.98916E+00
 -1      3857 1.05813E+05-3.51982E+03 9.70288E+02-7.49725E+03-2.72898E+02 1.75537E+03
 -1      3858 2.39009E+03 4.02749E+03-6.93068E+02-6.25962E+03-1.73922E+02 7.32865E+02
 -1      3859-2.99338E+04-4.45362E+04-7.06276E+02-2.86285E+04 8.39327E+01-4.55221E+02
 -1      3860-2.65304E+04-3.24173E+03 5.73464E+02-2.14084E+04 1.68250E+02-5.71596E+02
 -1      3861-1.81408E+03-4.60793E+02-1.16165E+02 2.69112E+03-2.10279E+02 3.74926E+02
 -1      3862-4.23010E+03 4.19312E+02-4.44340E+02 2.24224E+03 2.04012E+01 4.30797E+02
 -1      3863 8.39625E+03 3.59076E+04 8.90939E+02-2.29280E+04 2.03219E+03-8.69723E+02
 -1      3864 6.77824E+03 9.39667E+00 3.08345E+01 4.37554E+03-2.09607E+02-6.01212E+02
 -1      3865 3.46267E+04-1.17223E+04 1.22088E+02 5.45652E+03 1.71108E+02-2.42604E+02
 -1      3866 1.54860E+03 6.24707E+02 4.24451E+01 1.44681E+03-2.43768E+02-2.67123E+02
 -1      3867 8.65859E+04 3.59092E+04 1.98719E+03-4.68734E+04-3.56246E+02-7.76777E+02
 -1      3868-3.29286E+03 6.70752E+02 4.26203E+01 3.89831E+02-2.41776E+02-5.35798E+01
 -1      3869 9.40598E+04-1.71934E+03 6.83712E+02 1.02195E+04 4.07394E+02 6.23164E+02
 -1      3870 6.55373E+04 2.22291E+04-3.93537E+02-2.59203E+04-7.43377E+01 1.90677E+02
 -1      3871 3.82979E+04 5.43022E+04 6.59950E+02-3.54544E+04 7.79602E+02 9.41695E+02
 -1      3872-1.83620E+04 2.18066E+03 1.29057E+02-7.43399E+03-2.27752E+02-1.00378E+00
 -1      3873-8.89581E+04 2.09903E+03-6.90208E+02-1.98419E+04-1.75986E+02-1.98618E+03
 -1      3874 2.48563E+04 3.14154E+04 8.08555E+02-3.03358E+04 4.16713E+02-1.22706E+02
 -1      3875 1.28666E+04 5.67206E+03-4.73474E+02-1.47142E+04-2.51635E+02 1.45833E+03
 -1      3876-1.45112E+03-3.48448E+02 1.08082E+02-8.94781E+02-8.77744E+01-8.68316E+01
 -1      3877-2.61621E+04 1.03639E+02 4.15515E+01-2.03961E+04 8.86136E+01 7.38830E+01
 -1      3878-1.09994E+05 1.15459E+02-6.14259E+02 5.01066E+03 1.27781E+02-1.28993E+03
 -1      3879-6.91878E+04 6.34578E+02-9.99528E+01 9.28529E+03 1.10144E+02-1.22983E+03
 -1      3880-1.88522E+03 3.08634E+04 2.11295E+02-2.62751E+04-1.17569E+03 1.21669E+02
 -1      3881 4.46316E+03 5.88179E+02 5.21779E+01 3.16511E+03 2.58279E+01-4.13533E+02
 -1      3882-1.35966E+05 2.24961E+03-7.24859E+02 7.21943E+02 4.73571E+02-1.58979E+03
 -1      3883-1.01189E+04-4.70184E+03-1.98266E+01-2.08634E+04-7.43591E+01-7.03542E-01
 -1      3884-1.22679E+03-7.03734E+02 1.52617E+03-8.78674E+03-1.30647E+02-2.29576E+03
 -1      3885-2.45800E+04-2.53254E+04-1.09720E+02-2.42447E+04-4.85230E+02 2.33253E+02
 -1      3886-5.19067E+04-5.46981E+04-3.19614E+03-4.62201E+04 1.13272E+02-4.57276E+02
 -1      3887 6.28483E+03 1.84081E+04-1.33546E+02-1.27640E+04-7.66238E+02 9.49278E+01
 -1      3888-5.19306E+04-3.71186E+04-4.03368E+02-3.59734E+04-3.67296E+02-9.01676E+02
 -1      3889-4.63438E+04-6.09081E+04-1.26887E+03-4.75172E+04 3.29072E+02-2.71553E+02
 -1      3890-4.66505E+04 2.87603E+01 1.12276E+03 1.16997E+04 5.31452E+02 5.45769E+01
 -1      3891-9.87755E+03-3.21417E+04 4.65575E+01-1.53858E+04 1.50489E+02 2.23769E+02
 -1      3892 5.83754E+04 4.44896E+04 1.03435E+03-4.42424E+04-1.05263E+02-4.21814E+02
 -1      3893 7.52947E+04-5.64229E+02 2.33471E+02-1.30479E+04-3.81725E+02 2.72431E+03
 -1      3894 2.46607E+04-1.15411E+03 1.52323E+03-2.11877E+03-6.63368E+02-1.83528E+03
 -1      3895 9.61169E+04 1.54173E+04 1.03489E+03-3.30923E+04-5.58668E+02 4.58085E+01
 -1      3896 6.52067E+04-7.18289E+03 2.82103E+02 8.87046E+03 1.35378E+02 1.77015E+02
 -1      3897 6.96688E+04 3.12447E+04 2.25029E+02-3.54579E+04-6.38006E+01 2.90059E+02
 -1      3898 4.28819E+02 1.63280E+03 8.16559E+01 1.26883E+03-1.35152E+02 2.07508E+01
 -1      3899 7.04283E+03 1.22741E+02 5.36674E+01 1.65158E+03-7.23987E+01-7.38896E+02
 -1      3900 1.03399E+05-1.03341E+03 8.03938E+02 8.19096E+03 7.58228E+01 8.61641E+02
 -1      3901 2.06067E+04-2.48417E+02 5.28962E+02 1.90359E+03-2.10515E+01-1.05226E+03
 -1      3902-8.51493E+03 9.21407E+02-4.88644E+00-2.74103E+03-2.68464E+02-2.44806E+01
 -1      3903-6.03442E+03-4.39459E+01-7.20744E+01 1.19237E+03-4.74681E+01 7.20344E+02
 -1      3904 5.85473E+02-5.79781E+02-4.98699E+01-2.81646E+02 2.97040E+01-7.14208E+01
 -1      3905 3.04782E+04 1.19661E+04 1.03344E+01-1.45262E+04-1.39736E+02 5.50409E+02
 -1      3906 2.30757E+03 3.54545E+03-8.70181E+02-9.10458E+03-4.98433E+02 1.33636E+03
 -1      3907-2.17830E+04 1.94087E+03 2.09636E+00-1.41887E+04-1.07701E+02-6.20351E+01
 -1      3908 2.90288E+04 3.40034E+04 2.58306E+02-2.76900E+04-3.32451E+02-7.18823E+01
 -1      3909-1.16627E+05 3.71317E+02-8.26583E+02 4.58759E+03-1.83394E+00-1.33581E+03
 -1      3910 1.02938E+05-4.98944E+02 3.75870E+02 5.75677E+03 1.85531E+02 1.37484E+03
 -1      3911-2.04538E+04-4.23527E+02 3.30271E+00-2.28425E+04 2.13805E+02-8.15850E+01
 -1      3912 1.38070E+04-1.21384E+04-2.66723E+02-2.65635E+04-2.32422E+02-1.48020E+03
 -1      3913-3.22177E+04 5.45098E+03 5.58961E+02-2.17461E+04-4.22487E+02-1.74425E+03
 -1      3914 1.16072E+05-2.23874E+03 7.16247E+02-7.43829E+03-1.15199E+02 1.79293E+03
 -1      3915 6.78228E+04-2.50419E+03-3.95301E+02 1.59358E+04 3.59259E+02 3.10785E+02
 -1      3916 9.43664E+03-1.78984E+03 1.45083E+03-6.93863E+03-9.46098E+01-2.25202E+03
 -1      3917-3.17855E+02 1.04111E+03 3.01251E+01-1.87702E+04 9.99391E+01-5.21736E+00
 -1      3918 9.40227E+04-5.13835E+03-9.17256E+01-1.62571E+04-2.09143E+02 1.59124E+03
 -1      3919-1.03118E+04-1.89533E+04 1.45927E+02-1.63881E+04-2.56767E+02 3.65211E+02
 -1      3920 6.46425E+02 1.46617E+03 1.26807E+02 1.87550E+03-1.77825E+02-2.69201E+01
 -1      3921 1.75253E+04 2.30975E+04-2.27093E+01-2.07292E+04-4.10626E+02 1.68992E+01
 -1      3922-4.32633E+03-7.38639E+01-3.56745E+02 2.83580E+03-1.25150E+02 5.83461E+02
 -1      3923 2.95312E+04 3.96022E+04-1.12806E+01-3.09082E+04-5.56054E+02 1.78291E+02
 -1      3924-2.60479E+04-6.65238E+04-1.51818E+03-3.71809E+04-9.63098E+01-1.24371E+03
 -1      3925 2.67266E+04-1.93599E+04-1.16336E+02-2.64939E+03 9.97169E+01-4.72845E+01
 -1      3926 4.73160E+04 3.00607E+04 6.27582E+02-3.17752E+04-6.52442E+02-1.84690E+02
 -1      3927-9.11994E+04-1.27303E+04-2.27617E+03-2.84675E+04-1.25050E+02-1.01239E+03
 -1      3928-7.88581E+03-3.15705E+04-4.03412E+02-2.26162E+04 2.08267E+03 4.76138E+02
 -1      3929-1.97014E+04 3.13050E+02-1.07858E+02 2.11890E+03-1.78022E+02 1.22038E+03
 -1      3930-1.41478E+03 6.89122E+02 7.98294E+01 3.44217E+02-2.45792E+02-4.80505E+01
 -1      3931 1.00833E+05-2.56534E+03 7.20730E+02 7.89022E+03-3.34088E+01 5.69807E+02
 -1      3932 5.56581E+04 1.92360E+04 2.01365E+02-1.92548E+04-2.59364E+02-5.41535E+01
 -1      3933-1.33176E+03 1.12660E+03 9.32354E+01-5.25856E+02-1.12810E+02 1.12275E+02
 -1      3934-1.25476E+04 7.25503E+02-7.90927E+01-7.34995E+03-2.83494E+02 3.97906E+01
 -1      3935-6.62576E+04 1.67198E+03-2.48911E+02-2.74379E+04 2.24373E+02-1.54327E+03
 -1      3936 2.23990E+03 5.00817E+03-6.18340E+02-7.17485E+03-6.08931E+01 1.26757E+03
 -1      3937-2.18366E+04 1.51698E+03-1.96625E+01-1.95089E+04-6.70508E+01-1.73154E+02
 -1      3938-1.22861E+05 7.14288E+01-1.08667E+03 3.86543E+03 4.81638E+00-1.37705E+03
 -1      3939-4.42042E+03 1.99096E+04 1.19055E+03-2.93630E+04-8.30217E+02 1.43367E+03
 -1      3940 1.80795E+03 2.81912E+02-6.80693E+01 2.12431E+03-1.25713E+02-3.01804E+02
 -1      3941-1.18714E+04-4.94545E+02-2.46194E+01-2.28577E+04 2.85130E+02-7.73817E+01
 -1      3942 1.74405E+04-1.30673E+03 1.33134E+03-4.33754E+03-2.17721E+02-2.12398E+03
 -1      3943 4.68747E+04 1.63481E+03-1.89869E+03 2.26786E+04-4.42762E+02 4.03312E+01
 -1      3944 1.04464E+05-1.52610E+03 1.52929E+02 8.33335E+03 2.41430E+02 8.16603E+02
 -1      3945 8.69084E+03 5.94760E+03-1.27555E+02-1.93996E+04 1.17031E+02-3.92133E+01
 -1      3946-9.17498E+04 7.92185E+01-2.75882E+02 1.18022E+04 1.56462E+02-8.34791E+02
 -1      3947 5.75770E+04-1.71662E+02 5.42141E+01-2.44351E+04 5.56390E+00 7.06053E+02
 -1      3948-9.69227E+04 4.55672E+03-2.46435E+02-1.40767E+04 1.90645E+02-3.71505E+02
 -1      3949-2.80900E+04-4.05789E+04-9.57814E+02-3.11276E+04-2.07782E+02 3.71305E+01
 -1      3950-6.72693E+04 8.48773E+02 6.04829E+01 8.94837E+03 2.32989E+02-3.52192E+02
 -1      3951 3.16518E+04 2.19972E+04-2.07221E+02-2.45180E+04-2.69029E+02-5.28714E+01
 -1      3952-1.17127E+05 1.78871E+03-1.86574E+03-8.52325E+03-4.90858E+02-1.86319E+03
 -1      3953 6.78403E+04-9.75768E+03 1.90085E+02 2.75992E+03 3.52222E+02 2.68131E+02
 -1      3954 5.24208E+04 2.19830E+04 7.90954E+00-2.40833E+04-4.68196E+02 7.33530E+01
 -1      3955-5.42259E+02 7.51003E+02-3.74763E+01 6.65021E+02-2.16685E+02-3.06487E+01
 -1      3956-2.38183E+04-4.50372E+04-7.47422E+02-3.37470E+04 6.15905E+02 5.60229E+02
 -1      3957 1.08596E+05-2.78727E+03 8.26492E+02 5.79264E+03-2.23933E+01 5.46775E+02
 -1      3958 1.42724E+04-4.21817E+02 8.65536E+01 2.03289E+03-1.87854E+02-9.19938E+02
 -1      3959-4.98684E+03 2.33777E+02-4.39165E+01-2.29778E+03-2.40116E+02 7.24529E+01
 -1      3960-3.91937E+03 6.49995E+01-3.56170E+01 9.45477E+02-1.37165E+02 7.55166E+02
 -1      3961 1.81758E+04 4.30462E+03 8.04641E+01-1.68810E+04-2.19011E+02 8.54256E+02
 -1      3962 2.67117E+04 8.64692E+03-5.23258E+00-6.49404E+03-2.50309E+02 1.69274E+02
 -1      3963-4.47975E+03-7.94244E+02-1.48528E+02 3.79211E+03-1.29238E+02 6.69193E+02
 -1      3964 2.03049E+03 6.55568E+02 2.69869E-01-1.22064E+03-1.89989E+02 1.48800E+02
 -1      3965-4.53106E+03 3.57194E+03-1.15773E+03-2.93813E+03-5.45674E+02 1.20520E+03
 -1      3966-1.55719E+04-1.84544E+02-7.07130E+01-1.34544E+04-1.87449E+02-1.46346E+02
 -1      3967 8.87650E+03-2.96094E+02 6.95821E+02 3.41102E+03-1.66712E+02-6.88717E+02
 -1      3968 3.38297E+04 9.24229E+02-2.08839E+03 1.16060E+04 2.79680E+02-4.42425E+02
 -1      3969-1.27585E+05 1.07256E+03-7.96734E+02 3.65726E+03 1.65342E+02-1.37858E+03
 -1      3970 2.49694E+03 8.47102E+02-1.56556E+01 1.82316E+03-2.50502E+02-2.88762E+02
 -1      3971 2.97142E+04 7.04016E+04 1.65834E+03-4.07884E+04 6.53642E+02-1.32011E+03
 -1      3972-1.91795E+04 9.94467E+02 5.06362E+01-2.25090E+04 1.80316E+02-3.10485E+02
 -1      3973 7.81320E+04-1.29078E+03 3.73547E+02 1.28437E+04 1.18108E+02 1.27380E+02
 -1      3974 2.28996E+04-1.50344E+03 1.74424E+03-2.45674E+03 9.66989E+00-1.96778E+03
 -1      3975 9.12084E+04 1.33902E+04 2.39556E+03-3.04648E+04-1.08580E+02-2.54879E+03
 -1      3976-1.41792E+03 9.93316E+01-3.43638E+01-2.19340E+04 5.35091E+02-8.31091E+01
 -1      3977 7.93806E+04-2.68770E+03 6.42694E+02-2.28675E+04 8.29773E+01 1.96836E+03
 -1      3978 4.63158E+04 1.18775E+03-1.65849E+02-2.74425E+04-1.85711E+02 1.72079E+03
 -1      3979 1.94987E+04 7.81899E+03-8.50681E+01-2.08190E+04 2.00520E+02-1.18634E+02
 -1      3980-2.30677E+03-1.56098E+02-2.28465E+01 2.21022E+03-9.18758E+01 3.46159E+02
 -1      3981-3.40307E+04-2.24070E+04-3.21550E+02-2.67813E+04-3.65719E+02-3.24961E+02
 -1      3982-5.30746E+04-3.68024E+04-3.36930E+03-4.41992E+04 5.00971E+02-7.43555E+02
 -1      3983-3.23621E+04-2.17674E+03 2.46850E+03 1.16808E+04-1.45322E+02-1.24747E+03
 -1      3984 1.91764E+04-2.60849E+04 8.15350E+02-1.43737E+04 4.26547E+02 4.05950E+01
 -1      3985-1.28436E+05 9.44382E+02-6.83481E+02 4.29134E+03 4.62634E+01-1.95766E+03
 -1      3986 4.00051E+04 1.47662E+04-1.82394E+02-2.11840E+04-8.36748E+01 9.25280E+01
 -1      3987-5.58150E+04 1.47734E+02 2.32487E+02-1.36384E+04 2.44815E+02-1.54105E+03
 -1      3988 7.22239E+03-1.85767E+04-1.00174E+03-2.69757E+04 8.59146E+02 3.19493E+02
 -1      3989 4.03136E+02 1.26679E+03 7.02489E+01 1.06325E+03-1.79029E+02-3.49746E+01
 -1      3990 1.01798E+05-4.29817E+03 1.00500E+03 2.94434E+03-1.70506E+01 6.69427E+02
 -1      3991 3.77098E+04 9.75319E+03 1.76014E+02-7.73343E+03-3.28756E+02-7.80868E+01
 -1      3992-3.02623E+04-4.00445E+04 8.85584E+01-3.09434E+04-3.76840E+02 8.19945E+02
 -1      3993-7.75528E+03-1.45191E+03-1.89223E+00-6.76619E+03-2.94519E+02-2.84532E+01
 -1      3994-8.83262E+04-2.85722E+04-6.59386E+02-3.97821E+04 7.25877E+01 4.25403E+02
 -1      3995-1.01981E+03 3.81929E+03-5.45862E+02-9.78054E+02-3.40577E+01 8.15867E+02
 -1      3996-1.75076E+04-7.44844E+02 1.66638E+01-1.89713E+04-1.97922E+02-3.81965E+02
 -1      3997-1.30928E+05 1.11223E+03-9.32127E+02 2.94473E+03 1.48692E+02-1.50494E+03
 -1      3998-2.20691E+04 7.13845E+03-1.27750E+02-2.40923E+04-4.80139E+02 2.77741E+03
 -1      3999 2.07953E+03 2.04117E+02 5.79843E+00 1.53457E+03-1.35639E+02-3.11951E+02
 -1      4000 2.52599E+02-1.37345E+03 1.20859E+03-8.50168E+03-5.33691E+02-1.80827E+03
 -1      4001-1.26861E+04 8.64773E+02-1.33754E+01-2.27321E+04 4.49255E+02-3.40721E+02
 -1      4002 1.37665E+04-1.22827E+02 1.07412E+02 2.43752E+03-9.37250E+01-1.18954E+03
 -1      4003 2.45354E+04-8.05287E+02 1.34192E+03-7.85343E+02-1.30332E+02-1.79706E+03
 -1      4004-4.64509E+04-6.84620E+02 2.19345E+03 2.16418E+04 1.21372E+03-6.95384E+02
 -1      4005 1.03785E+04 9.18394E+02 1.21666E+02-2.13755E+04 4.14730E+02 3.14997E+01
 -1      4006-8.56825E+04 6.41418E+02-2.84693E+02 6.78154E+03 4.66838E+00-4.69739E+02
 -1      4007 2.91936E+04 6.42336E+03 8.11045E+00-1.97544E+04 3.96193E+01-1.43830E+02
 -1      4008 7.63325E+04-6.38719E+02 1.88267E+02 7.64260E+03 2.64692E+02 1.09880E+03
 -1      4009-1.74606E+04-2.27607E+04 2.90475E+01-2.18052E+04-5.91139E+02-2.86069E+02
 -1      4010 9.02494E+03 2.51599E+04 1.60081E+01-1.45891E+04-3.83121E+02 2.37995E+01
 -1      4011-9.18386E+04 1.20313E+03-6.01167E+02-1.22026E+04-2.66958E+02-2.43872E+03
 -1      4012-4.19666E+03 2.36796E+04 7.50072E+02-2.64902E+04 1.40872E+03 9.46223E+01
 -1      4013 1.33105E+05-2.90479E+03 1.52222E+03-1.13561E+03 7.55230E+02 1.37983E+03
 -1      4014 7.05963E+04-1.27137E+04-1.67197E+02-6.92938E+03 1.14654E+02 3.50136E+02
 -1      4015 4.23416E+04 6.60822E+03-8.68281E+02 2.48263E+04 1.56444E+03 9.09357E+02
 -1      4016-4.56564E+04-1.05670E+03 1.86062E+02-1.62024E+04 1.44592E+02-2.78724E+03
 -1      4017 3.95121E+04 7.01699E+03 2.14112E+02-1.16140E+04-1.39060E+02 7.94731E+01
 -1      4018 1.02787E+05-3.99948E+03 8.20676E+02 2.53879E+02 3.45876E+01 7.81054E+02
 -1      4019 1.06292E+04 3.68496E+00 1.08911E+02 1.57222E+03-2.08553E+01-8.61841E+02
 -1      4020-1.76761E+03 1.26502E+01-6.71043E+01-1.04904E+03-1.81046E+02 7.85932E+01
 -1      4021 1.99942E+04 4.58061E+03-3.66560E+02-7.93906E+02-2.09165E+02 2.96023E+02
 -1      4022-5.99859E+03 1.73561E+03-6.65429E+02 1.57056E+03-4.28408E+02 7.36399E+02
 -1      4023-1.02706E+04-3.62036E+03-8.11298E+01-1.24487E+04-3.23713E+02-1.90061E+02
 -1      4024 5.74821E+04-8.88496E+02-5.61101E+02 9.45233E+03 1.91309E+02 3.16310E+02
 -1      4025-1.31145E+05 1.46137E+03-1.08588E+03 2.10661E+03 1.26886E+02-1.78812E+03
 -1      4026-1.68547E+04-1.28540E+03 3.19414E+01-2.23892E+04 1.32532E+02-5.89704E+02
 -1      4027-2.30867E+04 1.07553E+03-9.96735E+02-1.02038E+03-3.92573E+02 1.51896E+03
 -1      4028 8.73373E+04-6.30731E+02 2.30505E+02 1.09016E+04 3.02768E+01 2.15831E+02
 -1      4029 2.41421E+04-9.59963E+02 9.33980E+02 2.84812E+02-7.79904E+01-1.75453E+03
 -1      4030 8.32011E+04 2.18296E+04 1.00339E+03-3.37034E+04 3.41286E+02 7.11319E+01
 -1      4031-4.50898E+03 7.90185E+01 7.26529E+01 1.36827E+03-1.96208E+02 7.55610E+02
 -1      4032-2.81197E+03-4.80010E+02-8.24775E+01-2.14643E+04 6.85235E+02-1.85765E+02
 -1      4033 5.60791E+04-7.84697E+02-2.06025E+02-2.71401E+04 1.30493E+02 1.74333E+03
 -1      4034 1.58370E+03-1.02218E+03-5.28487E+00 1.80922E+02-3.03208E+02 2.67921E+01
 -1      4035-7.50238E+02 5.81983E+01 4.17928E+01 2.22945E+02-1.37395E+02-1.36942E+02
 -1      4036 2.91122E+04 4.37222E+03-4.15399E+02-2.43494E+04-5.08129E+01 1.32072E+03
 -1      4037 1.93708E+04-1.20687E+02 5.81496E+00-2.03123E+04 4.46766E+02 8.00155E+01
 -1      4038-9.84952E+02-4.07797E+02-2.25015E+02 1.56961E+03-8.33453E+01 4.22060E+02
 -1      4039-1.09930E+05-3.23008E+04-3.80051E+03-4.70504E+04-4.07667E+02 1.38593E+02
 -1      4040 8.85319E+03-2.65746E+04-4.42641E+01-2.40444E+04 6.10816E+02-3.27120E+01
 -1      4041 3.35794E+04 2.34453E+03 1.04132E+02-1.49628E+04 7.98703E+01-1.03977E+02
 -1      4042-5.68858E+03-1.42502E+04 3.08283E+02-1.29471E+04-1.23713E+03-2.07068E+01
 -1      4043 2.25052E+04 2.65206E+04-2.69991E+01-2.26042E+04-2.31843E+02-1.48728E+02
 -1      4044 5.44429E+04-5.13535E+02-2.96867E+01 2.42555E+04 1.08486E+03 6.90698E+02
 -1      4045 1.06885E+03-1.10171E+02 5.42256E+01 7.98485E+01-2.65345E+02 1.74907E+02
 -1      4046 1.10233E+05-4.54541E+03 7.51802E+02-2.49042E+03-2.50962E+02 1.02046E+03
 -1      4047 3.18122E+04 4.21541E+03 2.25882E+02-3.79660E+03-7.95157E+01 8.54258E+01
 -1      4048 9.47435E+04-6.38517E+02 3.00339E+02 1.13479E+04 2.08258E+02 7.97076E+02
 -1      4049-3.06845E+02 1.08911E+03 1.52441E+02 1.19666E+02-7.71105E+01 6.37315E+01
 -1      4050-7.64430E+04 2.23807E+03-6.77069E+01 1.54845E+04 1.87406E+02-7.11059E+02
 -1      4051 3.80646E+04 2.61709E+04 1.59272E+03-3.51200E+04-5.02435E+02 7.78191E+02
 -1      4052 8.55890E+04-3.61514E+03 5.92204E+02-1.93441E+04 4.70948E+02 5.58302E+02
 -1      4053-3.54405E+03-2.23102E+03-1.65211E+02-4.13059E+03-2.48188E+02 3.70604E+01
 -1      4054-1.12571E+05 2.14466E+03-3.96531E+02-2.07106E+03 1.03897E+03-5.04447E+02
 -1      4055-2.04418E+03 1.47461E+03-6.26403E+02 2.05617E+03-4.03710E+02 6.55333E+02
 -1      4056-1.16989E+04-6.33321E+03 8.19580E+01-1.77004E+04-3.57719E+02-2.88009E+02
 -1      4057-1.31988E+05 1.77179E+03-1.04409E+03 7.17410E+02 1.80807E+02-1.50644E+03
 -1      4058-4.57218E+04-3.88987E+04-1.61647E+03-3.95485E+04-8.58587E+01-1.08718E+02
 -1      4059 7.16680E+02 3.33674E+02-4.62371E+01 1.22660E+03-2.76783E+02-2.42666E+02
 -1      4060-1.35992E+04-2.15010E+02 1.07201E+02-2.20744E+04 4.76858E+02-6.65146E+02
 -1      4061 2.27892E+04-6.45160E+02 1.01142E+03 1.33997E+03-2.33068E+02-1.43108E+03
 -1      4062-6.33998E+04 3.01437E+03 6.11186E+02 1.85044E+04 3.40443E+02-5.83661E+02
 -1      4063 4.65532E+04 8.90994E+02-4.93513E+02-2.46773E+04-1.00032E+02 7.67470E+02
 -1      4064 9.49181E+03-2.29853E+03 1.01158E+02-2.01519E+04 7.12425E+02 7.57331E+01
 -1      4065-6.55052E+03 4.35601E+02-3.31809E+02 3.88142E+03-3.07528E+02 5.75384E+02
 -1      4066 5.84226E+03-2.68423E+03 9.16305E+02-2.48591E+03-2.49232E+02-8.61968E+02
 -1      4067-9.35235E+04-2.98146E+04-9.44076E+02-4.31188E+04-7.49154E+01 4.38958E+02
 -1      4068-9.96497E+04 1.07366E+03-1.47982E+02 5.54367E+03 2.43514E+00-7.97675E+02
 -1      4069 2.57721E+04-1.27143E+03-2.09264E+01-1.77163E+04 2.15237E+02 6.82176E+01
 -1      4070 3.35651E+03 3.62278E+02 1.73105E+02 2.23128E+03-1.61109E+02-3.73252E+02
 -1      4071-6.04425E+04-1.88268E+02-2.23907E+02-1.52025E+04 2.02199E+02-2.96904E+03
 -1      4072 7.40476E+04 3.20485E+04 6.85135E+02-3.57829E+04-2.82710E+02-1.15183E+03
 -1      4073 1.01020E+03-2.34122E+04 1.11249E+02-2.76209E+04-2.97418E+02 6.10264E+01
 -1      4074 1.77482E+03 9.16009E+02 3.25816E+01-1.22324E+03-2.53191E+02 6.85296E+01
 -1      4075 5.71099E+04-1.59682E+04 1.52856E+02-1.88866E+04 1.87449E+02 4.29710E+02
 -1      4076 3.21211E+04 8.30866E+02 5.64442E+01-8.34065E+03 3.96843E+01 1.76420E+02
 -1      4077-1.38965E+04-4.21225E+02 9.72965E+02-1.11549E+04 2.08264E+02-2.61354E+03
 -1      4078 1.03380E+05-5.95579E+03 2.96640E+02-6.71542E+03 1.29764E+02 1.26248E+03
 -1      4079 5.99157E+03 2.12212E+02 8.42653E+01 1.19148E+03-1.30301E+02-5.80853E+02
 -1      4080 1.34170E+04 9.62436E+02-9.40292E+01 2.06109E+03-1.38396E+02 1.92977E+02
 -1      4081-3.40749E+04-4.87942E+04-6.77182E+02-3.18912E+04 9.77186E+01 6.80740E+02
 -1      4082-5.64175E+03 1.03535E+03-3.50823E+02 2.93002E+03-5.94980E+00 7.79842E+02
 -1      4083-4.05798E+03-6.41859E+03-4.41378E+01-7.87822E+03-2.62918E+02-6.68404E+01
 -1      4084 7.62489E+04-1.06039E+03 1.61490E+02 8.34203E+03-1.63643E+01 3.86840E+02
 -1      4085-1.34541E+05 1.43175E+03-1.81164E+03-8.37210E+02 2.08547E+02-1.63607E+03
 -1      4086-1.09620E+05 8.54733E+02-3.29447E+02 5.61238E+03-1.45757E+02-1.11675E+03
 -1      4087-1.47051E+04-6.20894E+03 6.58583E+02-2.25442E+04-3.04301E+02-9.21119E+02
 -1      4088-1.04710E+05 2.87862E+03-5.69782E+02-9.94104E+03-1.69751E+02-1.36487E+03
 -1      4089 9.56287E+04-9.30449E+02 7.04198E+00 9.47714E+03 1.98520E+01 1.49607E+02
 -1      4090 1.91167E+04-9.75102E+02 6.51162E+02 2.00791E+03-1.37509E+02-1.38475E+03
 -1      4091 7.27851E+04 2.61391E+04 5.92715E+02-2.95054E+04 2.23441E+02 8.71024E+01
 -1      4092-2.29478E+04-3.85144E+04-1.90902E+02-2.73005E+04-9.40043E+02-4.06531E+02
 -1      4093-4.69616E+03-1.35547E+03-9.56942E+01-1.96280E+04 9.04562E+02-4.41865E+02
 -1      4094-4.82686E+04-2.94316E+04-7.19156E+02-3.04951E+04-2.06346E+02 4.84991E+02
 -1      4095 1.27586E+04 4.18346E+03-8.57729E+02-1.56194E+04 4.29431E+02 1.25062E+03
 -1      4096 1.72593E+04-3.58358E+03 5.84902E+01-1.97611E+04 4.76410E+02 3.53387E+02
 -1      4097-5.39428E+02-1.97521E+02-5.27805E+01 9.44304E+02-2.33795E+02 3.70780E+02
 -1      4098-4.20750E+04-3.53014E+02 2.55150E+02-1.48663E+04 3.64779E+00-1.24598E+03
 -1      4099 1.11771E+04-1.82162E+04-6.97062E+02-2.83871E+04-2.12497E+02-6.50216E+02
 -1      4100 2.76832E+04-2.54664E+03-9.66015E+01-1.31661E+04 1.09130E+02 1.41370E+02
 -1      4101 1.93238E+04-4.35343E+02 2.25110E+02 2.79284E+03-7.10302E+02-9.26997E+02
 -1      4102 9.80572E+04-5.90925E+03 7.71309E+02-1.18141E+04 1.60867E+02 1.17143E+03
 -1      4103 2.48785E+04-4.02690E+02-1.10042E+02-1.93153E+03-1.48210E+02-1.26956E+02
 -1      4104 4.53163E+03 1.87133E+04-2.08741E+02-1.13748E+04-1.58687E+03 2.34112E+02
 -1      4105-2.22389E+03 6.69825E+02-2.81273E+02 3.45135E+03-7.96936E+01 6.46783E+02
 -1      4106 4.69590E+04 2.14057E+01-9.92705E+02 1.15559E+04-3.87542E+01 1.08256E+03
 -1      4107-5.88073E+03-1.21023E+04 1.49829E+02-1.32274E+04-4.58970E+02-2.68713E+02
 -1      4108-1.32886E+05 9.20483E+02-2.34326E+03-2.89211E+03-4.39956E+02-2.13224E+03
 -1      4109 1.30921E+05-7.64369E+02 9.94069E+02 3.94545E+03-2.07355E+02 1.91610E+03
 -1      4110 7.30844E+04 3.31485E+04 1.09266E+03-3.62595E+04 3.79990E+01 2.62443E+02
 -1      4111-1.60076E+04-4.86449E+03 1.36198E+03-2.33517E+04 2.39175E+02-1.35086E+03
 -1      4112 2.12595E+04-4.36839E+02 5.78804E+02 2.16163E+03-5.49179E+01-1.60495E+03
 -1      4113-7.39468E+04 2.23296E+03-1.24173E+02 1.44703E+04 6.01498E+01-2.86775E+02
 -1      4114 9.18992E+03-3.38752E+03 3.34925E+01-1.86462E+04 8.51114E+02 2.41756E+02
 -1      4115-3.51700E+04-5.00205E+04 1.91960E+02-3.28158E+04 6.81903E+02-1.19880E+03
 -1      4116-2.87420E+04-7.12315E+04-1.91675E+03-3.95861E+04 8.82147E+02 1.40446E+03
 -1      4117-1.14714E+05 7.88297E+02-7.42877E+02 4.59404E+03 1.17135E+02-8.23649E+02
 -1      4118 2.26621E+04-3.68458E+03-2.27273E+01-1.75844E+04 2.14939E+02 3.57683E+02
 -1      4119 6.92275E+03-1.06094E+04-1.63113E+03-2.32209E+04-9.52342E+01-5.73060E+02
 -1      4120-8.93758E+03 2.02319E+03-9.39275E+02-5.83811E+03 1.27661E+01 1.78035E+03
 -1      4121 5.37141E+04-1.33999E+04 1.88520E+02-2.84128E+04 2.60503E+02 2.72685E+02
 -1      4122 2.55977E+04-2.56298E+03 1.95999E+02-7.45807E+03-6.45925E+01 1.12123E+02
 -1      4123 1.04694E+04-2.16696E+03 1.20909E+03-6.97949E+03-5.21445E+01-2.04002E+03
 -1      4124 3.97750E+04 7.56346E+03-6.16020E+02 2.57751E+04-3.64842E+02-3.50226E+02
 -1      4125-8.95588E+03 5.91679E+01-2.32475E+02 2.09774E+03-1.22233E+02 1.13096E+03
 -1      4126 9.73482E+04-5.16184E+03 2.35743E+02-1.43532E+04 2.45643E+02 1.49447E+03
 -1      4127 3.65415E+03 7.48202E+01-3.15314E+01 1.16301E+03-2.01643E+02-4.26624E+02
 -1      4128 6.65310E+02 8.78806E+02-9.29560E+01 1.53675E+03-2.45309E+02-6.14542E+01
 -1      4129 1.20460E+04-6.59446E+02-6.05208E+01 2.34897E+03-1.29763E+02 1.27051E+02
 -1      4130 1.81959E+04 2.61106E+04 1.53180E+02-2.21861E+04-7.70124E+02 1.91977E+02
 -1      4131-4.81576E+03-3.48691E+02-4.41239E+02 3.39317E+03-1.13929E+02 7.48006E+02
 -1      4132-1.00120E+03-4.67527E+03 5.13131E+02-3.23178E+03 1.29782E+02 7.63735E+01
 -1      4133 9.19037E+04-6.87892E+02 3.56357E+02 6.03987E+03-2.74635E+01 6.69940E+02
 -1      4134-1.26208E+05 2.06037E+03-2.29305E+03-5.88213E+03 3.10453E+02-2.23845E+03
 -1      4135 5.10043E+04 3.45026E+04-1.92937E+02-3.50304E+04 1.26345E+02 2.25251E+02
 -1      4136-9.68506E+03-1.91985E+04 1.84711E+03-2.05699E+04-7.74316E+02-7.88941E+02
 -1      4137-1.23784E+03 4.16524E+02 7.71012E+01 1.09096E+02-2.28047E+02-1.39911E+02
 -1      4138 3.05368E+04 4.20373E+04 1.45816E+03-2.92329E+04 1.25799E+03 9.80124E+01
 -1      4139 3.06542E+04 4.01186E+01-8.38750E+02-1.31212E+04-2.02802E+02 3.10935E+03
 -1      4140 1.03896E+05-1.25835E+03 4.46741E+02 7.08264E+03-7.85140E+00 7.43794E+02
 -1      4141 1.73690E+04-6.72229E+02 1.17327E+02 2.18528E+03-7.43055E+01-1.32350E+03
 -1      4142 8.08940E+04-1.10246E+03 1.45318E+02 1.32937E+04 1.69816E+02 6.53530E+02
 -1      4143-8.17872E+03-3.24624E+03 7.35796E+02-1.84843E+04 1.10867E+03-9.88039E+02
 -1      4144-6.06571E+04 2.30137E+03 6.42512E+02 2.28325E+04-4.23983E+01 1.97245E+00
 -1      4145 1.06498E+05-3.24822E+03 8.91054E+02-6.32349E+03 5.84103E+02 5.72953E+02
 -1      4146-1.11962E+05 1.66359E+03-1.14120E+03 5.35099E+03 5.03582E+02-1.09058E+03
 -1      4147-2.10467E+03 2.19412E+03 5.43496E+01-6.61901E+03 1.84388E+02 1.46562E+03
 -1      4148 1.71196E+04-4.07470E+03-1.81171E+02-1.94665E+04 4.86821E+02 6.34731E+02
 -1      4149-4.44902E+02-1.57695E+02-1.18414E+01 6.90807E+02-2.38796E+02 2.90787E+02
 -1      4150 2.55388E+04 4.43987E+04 1.58493E+02-3.37449E+04 4.62210E+02 2.22322E+02
 -1      4151-7.28521E+04-4.38035E+04-9.35571E+02-4.96683E+04-3.81781E+02 1.33740E+02
 -1      4152 3.36601E+04-4.70606E+03-2.20263E+02-2.38066E+04-2.20456E+01-7.38217E+02
 -1      4153 2.27049E+04-3.81046E+03-8.07760E+00-1.29819E+04 1.39367E+01 3.51192E+02
 -1      4154 4.97173E+04 9.19471E+02-5.88921E+02 2.50505E+04-4.67633E+02 1.08245E+02
 -1      4155-8.83051E+04-3.60547E+04-1.09921E+03-4.87374E+04 1.81310E+02 5.85880E+02
 -1      4156 8.36209E+04-5.83978E+03 4.23482E+02-2.06237E+04-1.19050E+02 1.23043E+03
 -1      4157 1.85768E+04-2.58417E+03 7.23097E+01-1.75714E+03-9.83441E+01-1.23880E+02
 -1      4158-3.16315E+03 2.19712E+03-2.54586E+02-1.21876E+02-4.66729E+02 5.56948E+02
 -1      4159-9.37847E+03-4.32002E+03 1.15728E+02-1.34877E+04-5.25140E+02-6.16858E+02
 -1      4160 1.03139E+05 2.90601E+04 1.54330E+03-4.45847E+04 2.81656E+02-3.32098E+02
 -1      4161-1.65286E+03-6.48351E+02-1.92140E+02 1.78496E+03-1.90387E+02 4.64214E+02
 -1      4162-2.50021E+03-3.23416E+02-4.50523E+02 3.13860E+03-1.95007E+02 6.45576E+02
 -1      4163-3.33142E+04-4.27279E+04-2.58092E+02-3.20878E+04-3.71598E+02-3.21778E+01
 -1      4164 3.34712E+04 2.32612E+04 4.30063E+02-2.58778E+04-3.02258E+02-5.42066E+00
 -1      4165 4.81522E+03 6.68596E+02 1.51242E+02 3.71044E+03-1.30193E+02-5.00305E+02
 -1      4166-1.18689E+05 1.18316E+03-1.90961E+03-7.29088E+03 2.94241E+02-2.59489E+03
 -1      4167 2.55338E+04 4.23577E+04 4.66634E+02-3.21230E+04 1.90253E+02 7.38429E+02
 -1      4168-1.59105E+04-3.05049E+04 6.23410E+03-2.92882E+04-1.24530E+03-1.72996E+03
 -1      4169 1.58609E+04 8.35121E+01 7.51970E+01 2.20724E+03-7.87115E+01-9.85730E+02
 -1      4170-8.32252E+04 1.31805E+03-2.15561E+02 1.18497E+04 2.02169E+01-2.41874E+02
 -1      4171 1.31300E+04-3.66580E+03-1.21528E+02-1.91946E+04 9.87180E+02 6.62710E+02
 -1      4172 1.43538E+03 1.37700E+02-1.44284E+01-6.39439E+02-2.76844E+02 1.01867E+02
 -1      4173 3.10229E+04 7.44868E+02-2.34044E+03 1.05201E+04 1.67253E+02 8.95578E+01
 -1      4174-3.43836E+04-2.79464E+03 1.46085E+02-2.37496E+04-3.45432E+02-1.84802E+03
 -1      4175 3.69366E+04 6.54359E+04 1.04887E+03-4.32652E+04 3.91324E+02-2.06233E+02
 -1      4176-1.26421E+05 1.26902E+03-8.46169E+02 3.87098E+03-2.77973E+02-8.17684E+02
 -1      4177-8.81285E+04 6.87382E+02-1.84062E+02 6.86933E+03 3.18272E+02-1.33519E+03
 -1      4178 1.94796E+04-3.11228E+03-2.94165E+01-1.79263E+04 1.22207E+02 6.52684E+02
 -1      4179 1.96716E+03 1.00875E+03 5.59078E+01 2.19661E+03-1.16610E+02-1.04401E+02
 -1      4180 2.95848E+04 7.12358E+04 2.60128E+03-4.00039E+04 7.82579E+02 1.34517E+02
 -1      4181-1.32520E+05 1.80810E+03-1.54783E+03-3.18917E+03 5.30801E+02-1.11633E+03
 -1      4182 1.34765E+04 5.05513E+04 8.14856E+02-2.85355E+04 1.00017E+03-1.64172E+02
 -1      4183 4.92023E+04-5.52833E+03 2.28077E+02-3.45732E+04 3.49253E+02 3.58795E+02
 -1      4184 1.95074E+04-3.20002E+03 9.80108E+00-7.24153E+03-1.14613E+02 4.19308E+01
 -1      4185 2.23272E+04-1.50884E+03 1.45998E+03-2.62056E+03 3.40849E+02-2.07097E+03
 -1      4186-4.43862E+04-1.08372E+04 1.85310E+03 2.84035E+04 7.56698E+02-1.33925E+02
 -1      4187 7.98198E+04-2.66767E+03 7.50773E+02-2.08850E+04 2.61461E+02 1.56591E+03
 -1      4188 9.01256E+03-1.28656E+03-2.37994E+01 1.79270E+03-1.17670E+02 1.38500E+02
 -1      4189-1.14783E+05-4.19205E+04-3.56458E+04-1.96661E+04-1.05657E+03-8.44083E+02
 -1      4190-3.05530E+03-4.10384E+02-3.69917E+02 2.73075E+03-6.62618E+01 6.58216E+02
 -1      4191 1.06761E+05-2.89822E+02 5.63505E+02 4.94302E+03 2.42512E+02 9.10240E+02
 -1      4192-1.05542E+05 1.68283E+03-1.36012E+03-1.01215E+04 1.49460E+02-2.30808E+03
 -1      4193 2.41560E+04-1.06841E+03 8.71973E+02 4.17567E+02-2.63482E+02-1.61829E+03
 -1      4194 7.68888E+04 2.41061E+04 9.51532E+02-3.10324E+04-4.64334E+02-5.83866E+02
 -1      4195 5.46039E+01 8.61301E+02 4.29855E+01 6.50560E+02-1.84232E+02-8.93541E+01
 -1      4196-6.37266E+02-1.06648E+03-3.22508E+00 1.02602E+03-2.70613E+02 1.73167E+02
 -1      4197 4.93829E+03 1.56277E+03-8.02509E+02-9.59168E+03 2.57773E+02 2.33806E+03
 -1      4198 1.53574E+04 4.36019E+04 7.51541E+02-2.90813E+04-1.08030E+01 2.50791E+02
 -1      4199 4.81070E+03 1.36759E+02-7.65192E+01 1.63403E+03-1.21208E+02-6.10383E+02
 -1      4200 1.05033E+05-2.44693E+03 5.43129E+02 1.79973E+03-1.68510E+02 8.21924E+02
 -1      4201 1.34793E+04-1.60889E+02 1.09278E+01 2.14261E+03-1.63508E+02-9.81108E+02
 -1      4202-1.78296E+04-2.49201E+04 5.20360E+03-3.04923E+04-7.82362E+02-3.01167E+03
 -1      4203 8.83776E+02 1.42820E+03-7.96349E+01-1.20279E+03-2.37872E+02-3.57385E+01
 -1      4204 5.45204E+04 5.40039E+04 1.27752E+03-5.06197E+04 2.31503E+02 5.93941E+01
 -1      4205-5.07976E+03 1.35232E+03-2.41956E+02-1.31458E+03 1.32883E+02 9.14742E+02
 -1      4206 1.79857E+04-6.22918E+02-2.30437E+03-2.18030E+04 1.18754E+02 1.35087E+03
 -1      4207 4.32382E+04-6.43933E+02-1.20152E+03 1.07788E+04 2.35725E+02 4.12443E+02
 -1      4208 1.16157E+05-6.02569E+02 5.53422E+02 5.09650E+03 1.87561E+01 1.71477E+03
 -1      4209 1.77652E+04-2.29772E+03 1.84382E+01-1.33607E+04-1.91368E+02 3.49892E+02
 -1      4210 9.22621E+04-1.14747E+03 6.48427E+02-1.11297E+04 2.91149E+02 1.62169E+03
 -1      4211-4.75902E+04-3.15451E+03 1.71545E+03 2.20812E+04 6.54599E+02-2.74999E+02
 -1      4212 6.66522E+04-2.11430E+03 2.33782E+02-2.58554E+04 7.40833E+01 1.54620E+03
 -1      4213 1.32062E+04-2.44901E+03-4.83771E+01-2.26349E+03-2.25438E+02 1.98627E+01
 -1      4214-9.39037E+04-3.57716E+03-1.77621E+03 3.34311E+04 4.97130E+02-7.45585E+01
 -1      4215-2.60709E+04-2.80489E+04-7.04896E+02-2.92862E+04 2.29840E+02-1.86731E+02
 -1      4216-8.87614E+02-4.27836E+02-1.75699E+02 2.48494E+03-1.20796E+02 4.82546E+02
 -1      4217-9.10303E+04 7.52359E+02-1.05676E+03-1.15619E+04 1.79668E+02-2.28961E+03
 -1      4218-8.85377E+04-2.29669E+04-1.14536E+03-3.42899E+04-7.90121E+02 4.20134E+02
 -1      4219 3.22269E+04 5.86889E+02-7.36811E+02-1.27489E+04-4.90889E+01 1.54700E+03
 -1      4220-1.41581E+04 5.65983E+02 2.71095E+00 2.97378E+03-4.13746E+02 1.26029E+03
 -1      4221 1.09027E+04 3.46005E+02 1.54752E+02 1.80898E+03-1.19486E+02-9.58514E+02
 -1      4222-1.65275E+03-3.67404E+02 2.56296E+02-1.46635E+03-1.52403E+02-8.00125E+01
 -1      4223-9.32276E+04 4.23335E+02-5.81798E+02 1.02904E+04-1.13457E+02-4.50346E+02
 -1      4224 2.88175E+04 2.96235E+04 8.40916E+02-3.25799E+04-3.37100E+02 1.58966E+02
 -1      4225 2.67882E+04 2.43641E+04 1.54401E+03-3.65168E+04-4.15852E+03 3.99465E+03
 -1      4226 5.85534E+04-9.30357E+02-3.32352E+02 1.00826E+04 1.33570E+02 4.60018E+02
 -1      4227-1.58577E+04-3.35325E+03 1.01338E+03-1.89596E+04-1.19555E+02-1.70536E+03
 -1      4228-1.31204E+05 1.43917E+03-5.52856E+02 2.23382E+03 8.27092E+01-1.02756E+03
 -1      4229 1.58162E+04 1.23864E+03-9.13885E+02-1.86068E+04-4.02912E+02 8.63907E+02
 -1      4230-3.79466E+04-4.07764E+04 1.64901E+02-3.53459E+04-6.06043E+02 2.31255E+00
 -1      4231 2.17477E+04 4.06488E+04-3.22834E+02-2.73875E+04-1.13786E+03 3.38288E+02
 -1      4232 2.32172E+04-1.30147E+03 9.70166E+02-2.49855E+02 1.33533E+01-1.49631E+03
 -1      4233 1.43270E+04-1.75095E+03 9.13721E+01-8.18058E+03-2.86717E+02 1.00013E+02
 -1      4234 6.35134E+04-2.88514E+03-7.15600E+02 1.86439E+04 2.33157E+02 5.69327E+02
 -1      4235-5.92941E+04 1.76262E+03 1.49376E+03 2.17798E+04 3.63400E+02-2.68256E+02
 -1      4236 5.79636E+04-2.72554E+02 6.98077E+01-2.45767E+04 5.71961E+01 1.89253E+03
 -1      4237 1.05099E+05-2.57068E+03 1.55031E+02 3.50881E+03 3.67133E+02 8.51246E+02
 -1      4238-1.01386E+05 1.84921E+02-4.52325E+02 9.89778E+03 3.83445E+02-1.02924E+03
 -1      4239 7.08239E+03-1.37741E+03-6.50812E+01 5.14810E+02-2.51178E+02 1.05668E+02
 -1      4240-1.09818E+05 1.38412E+03-2.29347E+03-1.24936E+03 2.62777E+02 4.90560E+01
 -1      4241-7.75148E+04 2.17451E+03-6.91354E+02-2.26571E+04 2.37862E+02-5.52062E+02
 -1      4242-6.13354E+02 1.73191E+03 1.42236E+01 7.24919E+02-8.47991E+01 1.10444E+02
 -1      4243-1.77603E+03-2.72283E+02-1.43770E+02 1.85154E+03-1.43904E+02 5.64702E+02
 -1      4244 1.20613E+05-5.58654E+02 9.49258E+02 3.82220E+03 2.75476E+01 9.49134E+02
 -1      4245-7.30661E+04 2.58095E+02-9.62821E+02-1.32206E+04 1.79244E+01-2.29840E+03
 -1      4246 1.72424E+03-3.04620E+04-6.89258E+02-2.70124E+04-7.61565E+02-2.85737E+02
 -1      4247-1.23781E+04 2.39000E+03-7.55486E+02-4.91030E+03-1.21520E+02 1.77595E+03
 -1      4248 1.02367E+05-5.17026E+03 5.81807E+02-4.71143E+03-3.81649E+02 1.23684E+03
 -1      4249 8.89535E+03 6.12003E+01 1.79225E+02 1.51386E+03-9.52827E+01-9.24681E+02
 -1      4250 3.73750E+04 2.51487E+04 2.51053E+03-3.17839E+04-7.33018E+02 2.38985E+02
 -1      4251 4.01437E+03 4.30306E+03-2.74049E+00-9.29037E+03 4.81140E+01 6.32606E+02
 -1      4252-3.42629E+04-2.46842E+03 9.38678E+01-2.25867E+04-2.57529E+02-7.72555E+02
 -1      4253-2.40607E+03-7.65153E+02-7.84559E+01 3.08743E+03-1.65841E+02 3.86657E+02
 -1      4254-2.73434E+03 1.31920E+03-3.61997E+02 1.89426E+03-1.01023E+02 5.79735E+02
 -1      4255 1.74145E+04 1.92992E+04-7.02716E+03-2.82034E+04-1.78724E+03 2.43328E+03
 -1      4256 9.20091E+03 1.19645E+03 6.52138E+02 4.22986E+03-1.71450E+02-6.35121E+02
 -1      4257 6.92881E+04-6.58109E+02 2.11444E+02 8.89323E+03 6.42889E+01 6.23905E+02
 -1      4258 1.24235E+04 1.41062E+03-2.65865E+02-1.32505E+04-4.96042E+02 3.11152E+02
 -1      4259-6.43099E+04 2.83240E+03 9.19767E+02 1.78652E+04 1.42265E+02-3.66444E+02
 -1      4260 9.64183E+03-1.17925E+03-4.50933E+00-3.38548E+03-2.74201E+02 4.76657E+01
 -1      4261-8.01488E+04 6.94767E+03 4.35324E+02 2.33406E+04 9.87151E+01-7.23855E+01
 -1      4262 7.01244E+02 8.30516E+02 5.95296E+01 9.93282E+02-1.77174E+02-1.48979E+02
 -1      4263-1.38906E+04-4.89018E+04-1.04468E+03-2.93322E+04 9.70770E+02 3.15416E+02
 -1      4264-3.76506E+02-2.97273E+02-1.16675E+02 1.66594E+03-2.24762E+02 4.55852E+02
 -1      4265-9.51565E+04-3.15367E+04-1.12987E+03-4.25454E+04-3.18191E+01 1.28207E+01
 -1      4266-6.03652E+04 9.62215E+02 7.49541E+02 1.03231E+04-3.76434E+01-1.03770E+03
 -1      4267-7.78858E+04-1.13617E+04-4.02783E+03-2.01950E+04-4.35265E+02-4.13277E+02
 -1      4268-5.65822E+04 1.10784E+02-4.18994E+02-1.50200E+04 1.66072E+02-2.29636E+03
 -1      4269-1.31810E+05 1.20400E+03-9.10743E+02 2.44719E+03 5.68274E+02-1.94971E+03
 -1      4270 2.15572E+03 1.19973E+03-1.21793E+02-1.98611E+03-1.54653E+02 1.14502E+02
 -1      4271 2.54568E+04-5.51056E+03-1.68043E+02-1.80429E+04 1.48076E+02 1.14131E+03
 -1      4272-2.12716E+04-3.65517E+04-1.21472E+02-2.56687E+04-4.88118E+02 1.34174E+02
 -1      4273 6.55615E+03 1.09621E+02 6.09378E+01 1.25113E+03-1.40026E+02-7.93940E+02
 -1      4274-1.02965E+05 1.58427E+03-5.00943E+02 7.24007E+03 6.95753E+01-1.41645E+02
 -1      4275-1.33855E+04-4.91109E+04-9.32302E+02-2.75375E+04 4.10393E+02-1.23630E+02
 -1      4276 7.74340E+04-9.48068E+02 1.95322E+02 7.73527E+03 3.68703E+01 8.77517E+02
 -1      4277-2.58511E+03-4.35206E+03 2.99889E+02-9.99567E+03 3.11948E+02-1.27910E+03
 -1      4278-1.32800E+05 1.64716E+03-1.01502E+03-2.11132E+03-1.89390E+02-1.68959E+03
 -1      4279 1.05674E+04 1.32318E+04-2.24862E+03-1.87996E+04-1.03702E+03 9.36973E+02
 -1      4280 2.90015E+02 9.62545E+01-6.03432E+01 7.73049E+02-1.32452E+02-1.05310E+02
 -1      4281 1.58968E+04-1.68872E+03 8.29378E+02-3.89905E+03-2.39186E+02-1.94496E+03
 -1      4282 8.07101E+04 1.17575E+04-5.81033E+02-2.99314E+04-3.61856E+01 6.09273E+02
 -1      4283-1.25604E+02 1.34847E+03-4.59206E+00 1.04805E+03-2.33553E+02 3.49849E+01
 -1      4284-8.87952E+04-1.77571E+04-3.20468E+02-3.63178E+04 3.09161E+02 4.67642E+02
 -1      4285 9.92585E+03 2.03107E+02 7.59424E+01 1.66557E+03-8.79753E+01-8.85485E+02
 -1      4286 1.87624E+04-8.21389E+00 3.01392E+02 1.90995E+03 1.21798E+02-1.19118E+03
 -1      4287 9.19103E+03 8.07902E+02 8.48878E+00-7.73277E+03-4.06235E+02 2.52649E+01
 -1      4288-2.25905E+04-3.86976E+04-4.68332E+02-2.68801E+04-7.36159E+02-1.66480E+02
 -1      4289-7.05865E+04 3.31635E+03 4.00798E+02 1.70835E+04 2.65501E+02-4.00422E+02
 -1      4290 1.76028E+03-4.28878E+02-3.20356E+01-1.21880E+03-2.48203E+02-1.19133E+02
 -1      4291 3.16083E+04 6.29594E+04 9.07171E+02-3.93321E+04 4.01197E+02 1.71208E+02
 -1      4292 4.05883E+03-8.76432E+02-3.15765E+01-1.67740E+02-2.80554E+02 7.13371E+01
 -1      4293-8.46494E+04 7.53349E+03 1.82896E+02 3.85095E+03 1.20879E+02-6.06008E+02
 -1      4294-8.92189E+02-3.54908E+02-7.68916E+01 1.31363E+03-2.31002E+02 4.52639E+02
 -1      4295-2.57306E+04-4.42775E+04 1.48429E+02-3.41759E+04 2.68394E+02 9.94366E+01
 -1      4296 1.25926E+05-1.80631E+03 4.72782E+02 2.96330E+03-2.28757E+02 1.21259E+03
 -1      4297 9.46439E+04-8.80752E+02-1.33479E+02 6.58944E+03 3.01722E+02 1.20313E+03
 -1      4298 7.90935E+03-2.06270E+04-5.34580E+02-3.03454E+04-2.03049E+02-4.83932E+02
 -1      4299-4.64221E+04-1.21573E+04-1.91806E+03-2.39099E+04-2.98663E+02-3.72587E+02
 -1      4300-1.42313E+04 1.13519E+04 8.01682E+02-2.48311E+04 2.41669E+02-6.53295E+02
 -1      4301 1.26623E+05-1.83739E+03 1.08874E+03-5.01553E+03 1.49927E+02 1.39382E+03
 -1      4302-2.21038E+04 1.42475E+03-1.03266E+03-1.11194E+03 1.99804E+02 1.84069E+03
 -1      4303 1.02703E+05-2.58185E+03 1.20403E+03-1.13594E+04 1.22051E+02 2.10979E+03
 -1      4304 5.57209E+03 1.19123E+02-2.89789E+01 1.26062E+03-1.48999E+02-7.20681E+02
 -1      4305-2.58052E+03 1.58087E+02-3.12317E+02 2.83014E+03-7.44118E+01 5.64268E+02
 -1      4306 8.67877E+04-7.84489E+02 3.37259E+02 6.77315E+03 1.77755E+01 1.00135E+03
 -1      4307-7.07344E+04-4.44665E+04-1.51137E+03-4.87373E+04-1.18770E+02 1.29777E+03
 -1      4308-2.53785E+04-4.17411E+04-6.63964E+02-3.17834E+04 4.15882E+02-1.00038E+03
 -1      4309 6.43434E+03 9.11909E+03-3.95969E+02-1.17327E+04-5.94105E+02 3.95598E+02
 -1      4310-2.18096E+04 1.33801E+02-5.06994E+02 1.70778E+03-3.86366E+02 1.42774E+03
 -1      4311 4.62600E+04 3.14928E+02-2.13737E+02-1.44259E+04 4.09720E+01 2.36536E+03
 -1      4312-2.37035E+04-2.35531E+04 1.77070E+02-2.41654E+04-3.39979E+02-5.23253E+00
 -1      4313-7.58166E+04 2.05968E+03-3.27139E+02 1.36010E+04 1.05725E+02-5.08975E+02
 -1      4314 5.77940E+03 3.36730E+01 3.33929E+01-3.37458E+03-3.57121E+02 4.44300E+01
 -1      4315 8.54122E+04 2.79688E+04 1.22772E+03-3.63356E+04-5.06277E+01-3.51807E+02
 -1      4316-7.32222E+04 6.37265E+03 2.53425E+02 1.85655E+04 2.51462E+02-4.35702E+02
 -1      4317-2.52945E+02-1.23221E+03-3.44904E+01 7.97462E+02-2.31327E+02 4.93200E+01
 -1      4318-3.00809E+02-3.61543E+02-2.67493E+01 9.44858E+02-2.95248E+02 3.33472E+02
 -1      4319-2.98554E+04-7.20153E+04-2.75398E+03-3.95100E+04 5.71840E+02 1.95420E+02
 -1      4320 4.95546E+04 3.26729E+04 1.31937E+02-3.31776E+04-4.22087E+02-3.87487E+02
 -1      4321-6.19424E+04-4.01370E+02 7.24303E+02-1.22781E+04 8.98412E+01-5.83259E+02
 -1      4322 3.71170E+04 8.82897E+03-1.62653E+03 2.40705E+04-7.76494E+02-3.00558E+02
 -1      4323-2.88308E+04-1.14994E+04-2.05504E+03-2.59132E+04-3.45482E+02-2.39158E+02
 -1      4324 1.05237E+05-1.17320E+03 2.96602E+02 9.29722E+03 1.36384E+02 1.00719E+03
 -1      4325-1.06767E+05 2.83143E+03-1.21462E+01 4.46633E+03-1.52978E+01-5.33881E+02
 -1      4326-8.66929E+04 9.77189E+02-2.02266E+01 1.29019E+04 1.50419E+02-7.20602E+02
 -1      4327 6.74812E+04-9.62492E+02 3.00547E+02-2.43540E+04-2.04337E+00 4.93390E+02
 -1      4328-1.03701E+05 2.76538E+03-4.87801E+02-1.06202E+04 8.33352E+02-5.76466E+02
 -1      4329 9.29364E+04-7.13056E+02 3.19681E+02 6.35879E+03 1.70782E+02 1.10215E+03
 -1      4330 7.00241E+03-2.48595E+03 2.71475E+02-3.68149E+03-8.40982E+01-9.73440E+02
 -1      4331-8.28130E+04-2.64341E+04-5.33229E+02-3.50107E+04 2.58494E+02-3.21168E+02
 -1      4332 3.11502E+04 3.79649E+02-1.11236E+03-1.27091E+04 3.80944E+01 2.50681E+03
 -1      4333 3.70565E+03 3.34592E+03-2.99606E+01-5.44963E+03-3.51358E+02-3.42974E+01
 -1      4334 1.79189E+04-6.01879E+02 1.61498E+02 1.90597E+03-1.41897E+02-8.37084E+02
 -1      4335-7.93363E+04 1.78980E+03-2.32159E+02 1.34465E+04 1.37302E+02-4.78146E+02
 -1      4336 2.52805E+04 1.96051E+03-4.89468E+01-1.94597E+04-3.17057E+02 7.48856E+02
 -1      4337-9.44450E+03-1.95976E+04 4.16248E+01-1.60539E+04-8.89882E+02 6.27032E+01
 -1      4338-5.71174E+03 2.86984E+01 3.12957E-01 4.29898E+03-1.30872E+02 7.47977E+02
 -1      4339 2.32883E+03-5.10502E+02 1.57937E+01-3.61245E+02-2.78083E+02 6.40629E+01
 -1      4340 8.38744E+03-1.83166E+03 6.60233E+02 1.80352E+03-1.36818E+02-8.31002E+02
 -1      4341-6.77363E+04 6.18641E+03-4.28930E+01 8.92683E+03 1.61153E+02-2.38592E+02
 -1      4342-4.71338E+04-1.26404E+03 3.75100E+02-2.71165E+04-2.71029E+02-1.54218E+03
 -1      4343-5.79458E+02-4.05684E+02 2.68158E+01 9.40748E+02-3.05977E+02 3.22209E+02
 -1      4344 2.08417E+03 5.91974E+02 9.53697E+01 1.93738E+03-2.47602E+02-2.83321E+02
 -1      4345 1.31879E+05-1.18998E+03 7.70644E+02 3.13565E+02-1.18897E+02 1.20265E+03
 -1      4346 2.70469E+04 4.48836E+04 7.26429E+02-3.37949E+04 4.26061E+02-8.75452E+02
 -1      4347-7.82818E+04-4.67384E+04-1.44544E+03-5.28149E+04-4.91208E+02-7.87469E+02
 -1      4348 3.07039E+04-5.52854E+03-7.24593E+02-2.39575E+04-6.89880E+01-2.85498E+03
 -1      4349-4.12550E+04-6.37641E+03 6.10343E+02-2.14313E+04-2.36785E+02-2.40113E+02
 -1      4350-1.93699E+04 1.44088E+03-5.74862E+02 9.84595E+02 1.84365E+02 1.06121E+03
 -1      4351 8.91902E+04-1.47990E+03 3.18143E+02-1.97455E+04-3.60310E+02 1.61075E+03
 -1      4352-1.61562E+04-8.34796E+03-7.60912E+02-2.84858E+04-2.77404E+02-1.48132E+02
 -1      4353 1.07912E+05 3.09182E+04 3.03075E+03-4.56857E+04 8.32188E+02-9.58106E+02
 -1      4354-3.58353E+03-4.71551E+02-1.91416E+02 2.79852E+03-6.61755E+00 4.81679E+02
 -1      4355 1.01172E+05-3.82344E+02 3.94337E+02 5.46489E+03 1.32181E+02 1.14636E+03
 -1      4356-1.23203E+05 8.14665E+02-1.03060E+03 4.72425E+03 5.41881E+00-1.83690E+03
 -1      4357-7.55980E+04 1.78651E+02-7.77723E+02-1.20942E+04 6.95367E+02-1.63578E+03
 -1      4358 1.88073E+03-2.39646E+04-2.75953E+02-2.62538E+04 1.46008E+03 5.16449E+02
 -1      4359-4.41570E+02-1.29118E+03-2.52139E+01 1.61304E+03-1.56044E+02 6.92348E+01
 -1      4360 1.73935E+04 1.16068E+03-1.38828E+03-1.12660E+04-1.68595E+00 2.32438E+03
 -1      4361-3.51079E+04-2.50215E+04-1.57021E+03-3.22220E+04-1.15370E+03-7.01456E+02
 -1      4362-8.66541E+04 8.65254E+02-3.58638E+02 1.12123E+04 1.52280E+02-7.40067E+02
 -1      4363 2.95672E+03 9.82802E+02 7.66160E+01-2.44743E+03-3.79246E+02 1.85492E+01
 -1      4364-6.90922E+04 3.98148E+03-1.73996E+02 1.61110E+04 8.86256E+01-4.47351E+02
 -1      4365-1.03983E+05-2.85081E+04-1.83401E+03-4.44570E+04-5.22643E+02 1.13179E+03
 -1      4366 1.23562E+03-3.98927E+02 4.56158E+01-1.47433E+02-2.75364E+02 4.89372E+01
 -1      4367-3.70406E+04-3.78210E+03 1.57110E+02-2.34969E+04-3.48695E+01-1.43297E+03
 -1      4368 4.31678E+04 7.46817E+04 2.11284E+03-5.06058E+04 4.35192E+02 9.48151E+01
 -1      4369-5.09394E+04 1.75051E+03 2.54109E+02-5.08709E+03 7.97226E+01-2.66013E+02
 -1      4370-5.11018E+04-3.57026E+03 2.53244E+02-3.56002E+04-1.62295E+02-4.42715E+02
 -1      4371-3.72950E+04-6.78438E+04-2.08819E+03-4.52076E+04 4.72796E+02-2.62797E+02
 -1      4372-1.49260E+04-1.22883E+03 9.50346E+02-1.07644E+04-4.51810E+02-1.72822E+03
 -1      4373 1.50664E+04 4.57976E+04 9.42984E+02-2.97882E+04 9.61746E+02-5.98899E+02
 -1      4374 1.63327E+04-3.16957E+02 7.63632E+00 2.53503E+03-8.22234E+01-1.25515E+03
 -1      4375-2.32840E+04-8.51062E+03 3.21994E+02-2.70594E+04-3.71078E+02-1.51630E+02
 -1      4376-3.11392E+04-8.11556E+03 3.11186E+03 2.13661E+04 9.27565E+02-7.26936E+02
 -1      4377-1.09755E+05 3.44251E+03-1.34266E+02-1.69157E+02-2.45171E+02-8.00723E+02
 -1      4378-6.71378E+03-4.73692E+03-3.23137E+02-3.04557E+04-3.32210E+02-1.34903E+02
 -1      4379 8.80672E+04 2.90785E+04 5.55542E+02-3.99692E+04 7.57102E+01-3.52508E+02
 -1      4380 1.08638E+05-8.74580E+01 4.69249E+02 5.07549E+03 1.71992E+02 1.25897E+03
 -1      4381 7.30314E+03-1.89404E+03 5.81684E+02 2.75556E+02 1.46855E+00-6.51832E+02
 -1      4382 6.70812E+04-8.59685E+02-8.95382E+01 8.75251E+03 1.81229E+02 9.82019E+02
 -1      4383-1.05918E+05 1.93104E+03-8.87148E+02-1.00089E+04-4.67282E+02-2.18945E+03
 -1      4384-3.98381E+03 2.82957E+04 1.09803E+03-2.37982E+04 1.33424E+03 1.21793E+02
 -1      4385 1.29438E+05-2.69373E+03 9.38567E+02 9.76227E+02 8.08930E+02 1.38156E+03
 -1      4386 3.65512E+03 1.22754E+03-1.40634E+03-8.98093E+03 1.28750E+02 2.32884E+03
 -1      4387 1.27939E+04-2.60232E+02 1.78694E+02 1.87085E+03-1.13550E+02-9.21140E+02
 -1      4388-8.92226E+04 1.28766E+03-1.22202E+02 1.14009E+04 5.19214E+01-7.06128E+02
 -1      4389 8.87665E+02 2.04126E+02-1.23929E+02-7.53976E+02-5.66532E+01-4.37868E+01
 -1      4390 5.68903E+04 5.36943E+04 2.62173E+03-4.92891E+04 3.05904E+01 6.71503E+01
 -1      4391 1.25707E+02-7.34111E+02-1.00491E+00 3.89890E+02-2.36625E+02 2.74492E+01
 -1      4392-3.26274E+04-1.97372E+04 1.90951E+01-2.45432E+04-5.66508E+02 6.75544E+01
 -1      4393-5.61391E+04 3.97422E+03-9.30353E+01 1.09912E+04 7.81581E+01-2.00437E+02
 -1      4394 4.61155E+04 2.08306E+01-1.07740E+03 1.12870E+04 3.41509E+02-9.63744E+01
 -1      4395-2.74136E+04-4.23147E+03 3.77493E+02-2.24747E+04-1.65988E+02-1.29473E+03
 -1      4396 1.30356E+05-1.60364E+03 1.18572E+03-3.69419E+03-6.90002E+01 2.24219E+03
 -1      4397-2.03674E+04 1.21799E+03-1.31106E+03-2.14206E+03-1.91749E+02 1.42539E+03
 -1      4398-3.50214E+04-2.33372E+03 5.63326E+02-1.66984E+04-2.16624E+02-4.45037E+02
 -1      4399-6.15744E+04-2.71982E+03-9.01317E+02-2.32780E+04 1.53453E+02 1.39367E+03
 -1      4400-5.46626E+03-1.13671E+02-2.20770E+01 1.53213E+03-1.28976E+02 7.33015E+02
 -1      4401-1.70470E+04 2.47014E+02-3.00108E+02 2.19335E+03-1.47214E+02 1.13764E+03
 -1      4402 6.85869E+04-1.18326E+03 1.01252E+03-2.59049E+04 3.53945E+02 1.91419E+03
 -1      4403-1.15735E+04-6.90517E+03 3.82419E+02-3.12130E+04-3.79366E+02-8.80900E+01
 -1      4404 7.19273E+04 4.57403E+04 8.77163E+02-5.07033E+04-3.98009E+02 2.47964E+02
 -1      4405-1.76222E+02-5.11711E+02-1.34254E+02 1.99527E+03-6.12216E+01 2.94796E+02
 -1      4406-5.70704E+02-4.25175E+02-2.31773E+01-3.04985E+04-3.47807E+02-2.26844E+01
 -1      4407 1.15608E+05-3.74148E+02 8.15985E+02 4.71185E+03 2.21940E+02 1.35196E+03
 -1      4408 3.81509E+04 6.54846E+04 1.40672E+03-4.26133E+04 2.87482E+02 2.25511E+02
 -1      4409 2.00826E+04 3.70525E+04-5.06295E+02-2.54264E+04-3.68254E+02-2.40912E+02
 -1      4410-7.65795E+03 1.73579E+03-1.40508E+03-6.62872E+03-1.24885E+02 2.54150E+03
 -1      4411 9.12602E+04 2.26756E+02 3.47779E+02 1.16340E+04 1.47318E+02 7.59708E+02
 -1      4412-9.70489E+04-3.73200E+04-1.47995E+03-5.28545E+04-6.68991E+01-6.47539E+02
 -1      4413-9.69910E+04 7.37003E+02-4.86840E+02 9.41657E+03 2.26870E+01-7.08865E+02
 -1      4414-7.03838E+04 2.19085E+03 1.35606E+02 1.70301E+04 5.65750E+01-5.50353E+02
 -1      4415 3.29225E+04 3.18869E+04 2.68803E+02-3.43439E+04-1.57798E+02 7.77827E+02
 -1      4416 9.57163E+04-4.02534E+03 6.41936E+02-1.44856E+04 3.38165E+02 3.98829E+02
 -1      4417-6.85478E+04 2.73174E+03 8.00016E+00 1.49931E+04 4.84422E+01-2.11839E+02
 -1      4418-1.13695E+05 3.48133E+03-6.88083E+02 1.23931E+03 6.30387E+02-9.81244E+02
 -1      4419-1.58590E+04-4.34382E+03 6.08237E+02-1.73283E+04-1.80777E+02-1.47874E+03
 -1      4420-1.90629E+04-2.19040E+04-1.04903E+02-2.13482E+04-2.02569E+02 3.81848E+02
 -1      4421-2.50033E+04-3.99136E+04-7.34854E+02-2.79043E+04 1.13370E+03 5.62692E+02
 -1      4422-3.90647E+04 1.96115E+03 1.14323E+02-9.59618E+02-1.75540E+02 4.38350E+01
 -1      4423-3.00937E+02 1.28332E+02 1.26804E+02 1.24852E+03-1.46012E+02-1.57609E+02
 -1      4424-4.93525E+04-1.04902E+04 4.56579E+02-3.24950E+04-1.43950E+02-5.00912E+02
 -1      4425 9.81391E+03 2.41791E+04-6.04351E+02-1.59673E+04-5.72388E+02 5.64784E+01
 -1      4426-3.91236E+04-4.26490E+04 5.47416E+02-3.69417E+04-7.04870E+02-8.29323E+02
 -1      4427 2.11947E+04 4.16113E+04 7.52305E+02-2.65839E+04-8.80843E+02 4.12689E+02
 -1      4428-1.70820E+04-6.09101E+03 2.90048E+02-2.58492E+04-3.47271E+02 4.47484E+01
 -1      4429-5.56354E+04 1.90242E+03 1.34512E+03 2.02503E+04 8.83412E+02-8.26625E+02
 -1      4430 3.89662E+04 4.16685E+04 4.73444E+02-3.67728E+04-7.95185E+02-1.36859E+02
 -1      4431-1.07905E+05 4.51165E+03 2.99301E+02-7.00872E+03-3.69178E+02-2.27575E+03
 -1      4432-6.10843E+03 3.16399E+02-1.60955E+02 2.79512E+03-2.25554E+02 5.27310E+02
 -1      4433 1.76327E+02 5.65235E+02 9.42491E+00 1.08952E+03-2.40625E+02-1.74806E+02
 -1      4434-4.73968E+03-3.84291E+03 2.03051E+02-3.41021E+04-4.17414E+02-6.90572E+01
 -1      4435 6.93215E+02-3.63030E+03 9.24587E+02-6.04950E+03-8.95779E+02-7.88317E+02
 -1      4436-5.42458E+02 1.27760E+03 7.17672E+01 4.74677E+02-1.74232E+02 6.65699E+01
 -1      4437-1.36252E+03-7.16122E+02 5.12909E+00 1.41027E+03-2.31273E+02 3.22729E+02
 -1      4438 3.42274E+03 5.77710E+02 1.61863E+02 2.87840E+03-1.40530E+02-3.21602E+02
 -1      4439 1.22255E+05-2.00900E+02 1.00107E+03 4.12004E+03 9.56463E+01 1.44520E+03
 -1      4440 8.38310E+03-8.29679E+02 2.41848E+02 2.92928E+03-1.01452E+02-6.31239E+02
 -1      4441 6.57210E+03 3.95436E+03 5.09633E+02-3.01891E+04-4.27877E+02 2.26528E+01
 -1      4442-7.50314E+04 5.83790E+02-4.49334E+02-1.38824E+04-2.97831E+02-2.76606E+03
 -1      4443 9.06898E+04 3.68672E+04 9.91359E+02-5.04996E+04-3.00950E+01-1.12905E+03
 -1      4444-1.52196E+04 1.21811E+03-1.29120E+03-4.27888E+03-3.68972E+02 2.30820E+03
 -1      4445 8.91074E+03-5.32013E+01 8.41510E+01 1.15581E+03-3.36262E+01-7.08889E+02
 -1      4446-9.58899E+04 2.02582E+03-3.31914E+02 1.00581E+04 1.66948E+02-6.50943E+02
 -1      4447-4.81276E+04 3.42718E+03-1.01287E+02 1.09181E+04 3.03630E+01 7.64909E+01
 -1      4448 6.91006E+04-8.43593E+02 2.29854E+02 8.57343E+03 2.05996E+02 3.28552E+02
 -1      4449-1.51714E+04-6.52959E+03 1.01827E+03-1.67745E+04-1.95809E+02-1.27537E+03
 -1      4450-1.04512E+05 5.33330E+02-4.03554E+02 5.68209E+03 1.80836E+02-1.21363E+03
 -1      4451 1.14728E+05-2.67096E+03 6.77426E+02-8.43411E+03 3.07176E+02 2.04113E+03
 -1      4452-3.71250E+03-1.28557E+04 2.95979E+02-9.95523E+03-6.07812E+02-1.32386E+02
 -1      4453-1.18179E+05 2.12988E+03-1.26847E+03-7.08486E+03 9.74610E+01-1.35435E+03
 -1      4454-2.11859E+04-1.38652E+03 1.82036E+01-1.32727E+04-1.54517E+02-2.94744E+01
 -1      4455-8.52897E+04-1.17689E+04-1.83577E+03-3.03666E+04 2.30908E+02 6.86724E+02
 -1      4456-5.16994E+04-5.13317E+04-2.41102E+03-4.72016E+04 3.07770E+02 1.28714E+02
 -1      4457 2.34171E+04 2.55031E+04-2.88261E+02-2.34177E+04-3.58339E+02 5.42362E+01
 -1      4458-1.32467E+04 5.61695E+01-3.34807E+02 1.69326E+03-5.36444E+01 1.04146E+03
 -1      4459-5.69419E+04-4.43339E+04-1.31641E+03-4.24147E+04 3.67050E+02 1.00731E+03
 -1      4460-7.54436E+03-6.17396E+03 1.10019E+02-3.29431E+04-3.49057E+02 4.08098E+01
 -1      4461-3.13740E+04-5.94356E+04-1.09388E+03-3.52346E+04 4.33100E+02 7.38893E+00
 -1      4462 7.60961E+02 9.79433E+02 7.44266E+01 1.20472E+03-2.00560E+02-1.47859E+02
 -1      4463-1.31061E+04-4.91677E+04-9.54997E+02-2.76613E+04 1.10012E+03 4.34456E+02
 -1      4464-7.43925E+02-1.39538E+02-2.79285E+01 1.19286E+03-1.41075E+02 4.27607E+02
 -1      4465 3.21577E+01-1.19204E+02 2.43108E+01-3.54338E+04-5.07413E+02-1.37220E+01
 -1      4466 1.26919E+05-5.97485E+02 7.35708E+02 4.15899E+03-2.23437E+02 1.44685E+03
 -1      4467 1.56318E+04 8.27737E+03 7.61413E+02-2.87005E+04-5.08449E+02 1.57109E+02
 -1      4468 2.32296E+04-3.53339E+02 7.62755E+02 2.25362E+03-2.62196E+02-1.63710E+03
 -1      4469 4.38834E+04 5.71004E+02-1.72698E+03 2.02058E+04 6.52933E+02-1.59535E+02
 -1      4470 1.31369E+03 2.72535E+02 2.61179E+01-2.68219E+02-1.29957E+02 1.27637E+02
 -1      4471-2.04260E+04 1.38867E+03-1.73585E+03-2.49357E+03-1.15466E+02 2.16012E+03
 -1      4472 3.29494E+04 6.28150E+04 9.01707E+02-3.90507E+04 6.33476E+02-4.62171E+02
 -1      4473-1.05096E+05 2.07614E+03-2.48678E+02 8.15310E+03 6.79555E+00-8.78323E+02
 -1      4474-6.68928E+04 3.05380E+03-2.38866E+02 1.31144E+04 1.75381E+02-3.05577E+01
 -1      4475-2.41079E+03-4.18607E+03 1.13836E+03-9.90742E+03-4.79774E+02-1.34183E+03
 -1      4476 3.46320E+04 9.95182E+02-1.53913E+03 1.22592E+04 5.66993E+01 8.35158E+02
 -1      4477-2.73303E+04 3.14565E+03-8.16490E+01 1.02277E+03-1.37102E+02-1.27748E+02
 -1      4478-4.15517E+04-1.40345E+04 5.65931E+02-2.50311E+04-3.63965E+02-4.96238E+02
 -1      4479 1.27170E+05-9.41337E+02 1.05174E+03 4.52571E+03 9.29198E+01 1.99375E+03
 -1      4480-2.03143E+02 1.61244E+03 4.32167E+01 1.15662E+03-1.22686E+02 4.51679E+01
 -1      4481-9.65721E+04-1.55350E+04-1.14816E+03-3.46504E+04 3.74651E+01 7.55552E+02
 -1      4482 5.85438E+04 2.82716E+02 1.36432E+02-1.30839E+04 2.22210E+02 1.49755E+03
 -1      4483-7.40720E+03-3.68688E+03 1.61044E+02-2.52183E+04-3.09691E+02-1.28576E+02
 -1      4484-6.87323E+04 3.24772E+03 2.76778E+02 1.65027E+04 1.74591E+02-4.07867E+02
 -1      4485-9.42570E+04 4.49974E+03-9.95938E+02-1.68085E+04-7.38564E+01-1.60698E+03
 -1      4486-2.01551E+03-3.52937E+03 3.91997E+01-3.75731E+04-4.25495E+02-7.10417E+01
 -1      4487-2.82364E+04-4.59254E+04 7.52366E+02-3.37807E+04 2.15997E+02 9.57053E+02
 -1      4488 1.29873E+05-8.18203E+01 1.54631E+03 3.01326E+03-2.00517E+02 1.31227E+03
 -1      4489 4.99315E+03-3.62989E+02-1.10933E+02 3.09517E+03-2.84373E+01-2.69116E+02
 -1      4490 5.19519E+03 4.11625E+03-6.51403E+01-3.41471E+04-5.02065E+02 3.36767E+01
 -1      4491-7.23982E+04-2.42550E+04-1.19293E+03-2.71784E+04-1.06940E+03 5.44623E+02
 -1      4492 2.80677E+03 2.08963E+03-6.59000E+02-8.63423E+03-4.92994E+02 1.83399E+03
 -1      4493 5.21637E+04 6.04878E+04 1.43231E+03-4.87886E+04-8.75151E+02-8.39538E+02
 -1      4494-1.10904E+04 9.15989E+01-2.33757E+02 2.21699E+03-2.81744E+01 1.22966E+03
 -1      4495 3.92476E+02 3.60089E+01-3.72059E+01-6.45056E+01-1.09976E+02 1.56108E+02
 -1      4496-2.31440E+04 7.97704E+02-1.63403E+03-9.42635E+02-2.82069E+02 1.91147E+03
 -1      4497 2.73832E+04 1.06452E+04 1.16015E+03-2.64079E+04-3.64647E+02 9.77395E+01
 -1      4498 5.01180E+03 3.95264E+01 2.27209E+01 1.21302E+03-1.32164E+02-5.66329E+02
 -1      4499-1.02556E+05 2.16064E+03-5.63092E+02 7.43727E+03 2.55617E+02-6.13747E+02
 -1      4500-6.10587E+04-4.56390E+04-5.85650E+02-4.69115E+04-2.29409E+02-1.31908E+03
 -1      4501-3.32414E+04-1.58421E+03 2.17494E+03 1.16447E+04 8.17314E+02 1.22818E+02
 -1      4502-4.13095E+04 6.43850E+03 6.69093E+01 9.44634E+03 1.35431E+01-2.76970E+01
 -1      4503 8.38992E+04-8.16972E+02 2.83333E+02 6.84441E+03-1.32246E+02 4.71560E+02
 -1      4504-3.26958E+02-4.77082E+03 7.92239E+02-6.67339E+03 1.27996E+02-1.15301E+03
 -1      4505 9.19508E+04-1.05354E+03 4.55564E+02-1.20494E+04-2.10577E+02 2.57520E+03
 -1      4506-9.01045E+03 2.00411E+03 1.23416E+02-1.10596E+04-1.84209E+02-3.76363E+02
 -1      4507-8.17556E+04-2.10700E+04-5.60691E+02-3.37300E+04-1.48150E+02 6.88435E+01
 -1      4508 4.53086E+04-2.03220E+01-4.27491E+02-1.59312E+04 3.12550E+01 3.08366E+03
 -1      4509 7.66056E+04-1.82156E+03 4.10893E+02 1.45004E+04-3.68839E+00 7.28955E+02
 -1      4510-9.05736E+03-9.35475E+01-2.11370E+02 1.39580E+03 1.17934E+01 8.51901E+02
 -1      4511-2.53334E+04-2.52462E+04 4.42122E+02-2.55635E+04-3.32749E+02-4.95516E+01
 -1      4512 4.30943E+03 1.81840E+04-6.56007E+01-9.91949E+03-7.12024E+02 1.44961E+02
 -1      4513-4.72515E+04-3.25283E+03 1.37085E+03 2.23747E+04-3.37567E+02 1.95977E+01
 -1      4514 1.04767E+05-5.20538E+03 9.31525E+02-3.36674E+03 7.32574E+02 5.82531E+02
 -1      4515 1.63803E+02-3.75214E+03 1.37156E+02-3.43446E+04-3.38118E+02 8.80307E+01
 -1      4516-1.06797E+05 5.25895E+02-8.05176E+02 7.82878E+03 2.48980E+02-1.00687E+03
 -1      4517-5.75668E+04 1.79448E+02 3.07487E+01-2.50358E+04 1.10055E+02-6.38651E+02
 -1      4518-6.65594E+02 8.64138E+02-1.37170E+01 4.34575E+02-2.06797E+02 4.26148E+01
 -1      4519-2.85303E+02-2.54154E+02 4.51348E+01 8.19240E+02-2.19965E+02 3.08683E+02
 -1      4520 1.01736E+02-1.26149E+01-3.79076E+01-3.90481E+04-4.60248E+02-1.37657E+01
 -1      4521 1.25803E+05-2.25139E+03 6.02550E+02 1.82321E+03-1.02457E+02 1.50449E+03
 -1      4522-1.32745E+03-9.95257E+01-5.69415E+01 7.68035E+02-2.02447E+02 3.14489E+02
 -1      4523-1.74734E+03-1.08386E+02 2.50957E+01 9.74497E+02-2.77953E+02 4.89149E+02
 -1      4524-1.65263E+03-1.23898E+02-5.13809E+01 7.26928E+02-1.76827E+02 3.69519E+02
 -1      4525-2.03329E+03 7.12513E+01-3.83854E+01 8.62963E+02-9.22134E+01 3.42261E+02
 -1      4526-2.07481E+03-2.05368E+02-9.45272E+00 9.34213E+02-2.65663E+02 5.56312E+02
 -1      4527-2.38019E+03-1.33903E+01-1.37995E+01 1.19186E+03-2.40944E+02 6.53527E+02
 -1      4528-2.84298E+03-9.77925E+01-1.62443E+02 1.00745E+03-5.86826E+01 3.87560E+02
 -1      4529-2.64558E+03-9.30836E+01-4.99690E+01 1.46416E+03 7.34128E+01 3.80417E+02
 -1      4530-2.98541E+03-2.43083E+02-2.01864E+02 1.33841E+03-1.87641E+02 7.10483E+02
 -1      4531-3.69906E+03-1.74842E+02-1.29510E+02 1.65970E+03-1.18580E+02 6.67586E+02
 -1      4532-4.65759E+03-1.53804E+02-1.59377E+02 1.56579E+03 1.37849E+02 3.92415E+02
 -1      4533-6.92821E+03-8.05157E+01-2.16576E+02 2.05230E+03 5.63223E+00 3.74876E+02
 -1      4534-5.25639E+03-4.54899E+02-2.60838E+02 1.83646E+03-6.62561E+01 7.58605E+02
 -1      4535-7.13651E+03-2.83879E+02-2.69247E+02 2.26000E+03-1.52419E+02 7.87318E+02
 -1      4536-7.96977E+03-1.28737E+02-2.89106E+02 2.15941E+03 3.74305E+01 5.17254E+02
 -1      4537-1.14781E+04 4.92919E+01-5.89685E+02 2.38751E+03 1.30511E+02 5.24927E+02
 -1      4538-8.53345E+03-1.36003E+02-1.57896E+02 2.45856E+03-1.98790E+02 9.12052E+02
 -1      4539-1.00213E+04-1.09913E+02-4.41883E+02 2.89863E+03-6.91813E-01 1.02339E+03
 -1      4540-1.03240E+04 1.35836E+02-1.81066E+02 2.35105E+03 2.85102E+02 4.95375E+02
 -1      4541-1.00073E+04 9.89603E+02-6.81846E+02 2.60994E+03 2.71501E+02 3.52332E+02
 -1      4542-1.04371E+04-1.78718E+02-4.89291E+02 2.57954E+03-6.24106E+01 1.01523E+03
 -1      4543-1.08588E+04 6.77685E+02-8.44840E+02 2.90016E+03-1.52758E+02 8.83958E+02
 -1      4544-1.19960E+04 1.51103E+03-6.13999E+02 1.02182E+03 3.55632E+02 5.52556E+02
 -1      4545-1.34104E+04 1.37882E+03-4.57706E+02 2.36189E+02 2.30024E+02 5.70781E+02
 -1      4546-1.19135E+04 1.07034E+03-1.00286E+03 1.52044E+03-5.04015E+02 9.03620E+02
 -1      4547-1.30254E+04 1.36537E+03-6.40685E+02 9.20532E+02-2.90327E+02 1.13157E+03
 -1      4548-1.37968E+04 1.97886E+03-2.55479E+02-1.47477E+03 1.26064E+02 8.85202E+02
 -1      4549-1.11355E+04 2.61613E+03-1.21993E+02-3.94136E+03 2.70908E+02 1.06398E+03
 -1      4550-1.47609E+04 1.50622E+03-8.44663E+02-1.30104E+03-1.61836E+02 1.25932E+03
 -1      4551-1.34643E+04 1.70753E+03-1.23701E+03-2.90820E+03-1.51524E+02 1.56999E+03
 -1      4552-9.96095E+03 2.11893E+03-8.33358E+02-5.74715E+03 1.97770E+02 1.25995E+03
 -1      4553-2.19508E+03 2.36331E+03-1.01891E+03-8.95828E+03 4.60082E+02 1.71364E+03
 -1      4554-8.74297E+03 2.31832E+03-6.38535E+02-5.81305E+03 2.80996E+01 1.57111E+03
 -1      4555-3.10075E+03 2.25304E+03-1.22738E+03-7.76619E+03-3.39534E+02 1.88094E+03
 -1      4556 6.22914E+03 2.55698E+03-6.51606E+02-1.28585E+04 6.02734E+02 1.93346E+03
 -1      4557 1.43887E+04 2.10593E+03-7.77282E+02-1.44168E+04 2.52656E+02 2.02737E+03
 -1      4558 5.26905E+03 2.42987E+03-1.38369E+03-1.12685E+04 9.61296E+00 1.68391E+03
 -1      4559 1.54758E+04 1.37426E+03-1.70216E+03-1.54677E+04 2.77251E+00 1.93139E+03
 -1      4560 2.86331E+04 2.02112E+03-2.00068E+02-1.89204E+04 9.69838E+00 1.96353E+03
 -1      4561 4.15619E+04 1.19483E+03-2.92521E+02-2.23577E+04-1.02712E+02 2.04743E+03
 -1      4562 2.94641E+04 2.16304E+03-5.71089E+02-1.85631E+04-2.30780E+02 2.16402E+03
 -1      4563 3.87526E+04-6.70620E+00-1.14096E+03-2.00895E+04-1.17225E+02 2.19744E+03
 -1      4564 7.65904E+02 4.60645E+02-7.46461E+01-6.01063E+02-1.70459E+02 1.14627E+02
 -1      4565 1.58476E+03 1.63813E+03 9.52892E+00-1.74402E+03-1.71811E+02-7.02594E+00
 -1      4566 3.94583E+02-3.68705E+02-9.32478E+01-2.44219E+01-2.06739E+02 2.93322E+01
 -1      4567 9.90660E+02 3.02836E+02-1.08246E+02-7.37381E+02-2.21886E+02 2.66758E+01
 -1      4568 9.31235E+02 1.93558E+03-9.67063E+01-1.65146E+03-2.41392E+02-1.76981E+00
 -1      4569 3.03371E+03 8.02671E+03-3.37263E+02-7.18703E+03-3.46066E+02 1.05611E+02
 -1      4570-1.91648E+02-2.20376E+02-6.01989E+01 3.83316E+02-2.17894E+02 2.22179E+02
 -1      4571 1.63731E+02-2.26976E+02-4.37839E+01 1.26052E+02-2.88082E+02 1.29274E+02
 -1      4572 1.44687E+03 1.83584E+02 5.62268E+01-4.51779E+02-2.11465E+02 1.19097E+02
 -1      4573-6.25467E+02-5.80277E+02-5.14084E+01 8.01892E+02-3.21056E+02 2.66021E+02
 -1      4574-5.36291E+00-6.25222E+02-6.83118E+01 4.45244E+02-2.82260E+02 1.05591E+02
 -1      4575 1.06367E+03-2.95642E+02 4.95807E+01 1.21846E+02-3.01716E+02 1.47414E+02
 -1      4576 2.02753E+03-1.94898E+02 6.01474E+01-1.36760E+02-2.61251E+02 1.30018E+02
 -1      4577 3.21663E+03 6.07198E+02 1.08247E+02-2.06595E+03-2.85018E+02 7.89127E+01
 -1      4578 5.55598E+03-7.67083E+01-7.42074E+01-2.47654E+03-2.42055E+02 1.78701E+02
 -1      4579 3.07300E+03-4.03831E+02-2.22192E+01 3.65014E+02-2.35657E+02 1.95776E+02
 -1      4580 3.33820E+03-6.18997E+02-8.03049E+01 1.26440E+03-6.77510E+01 2.54618E+02
 -1      4581 8.67383E+03-9.93986E+02-1.48059E+02-1.96756E+03-2.08176E+02 2.55399E+02
 -1      4582 1.43318E+04-1.63121E+03 1.88549E+01-1.56500E+03-1.69969E+02 1.63946E+02
 -1      4583 5.84042E+03 2.29421E+03 8.00349E+01-5.58962E+03-3.52557E+02 3.53828E+02
 -1      4584 1.03548E+04 6.37426E+02-8.95869E+01-6.84698E+03-2.69336E+02 3.64862E+02
 -1      4585 8.20022E+03 5.22435E+03 1.31081E+01-1.09707E+04-4.06221E+02 4.50150E+02
 -1      4586 1.43961E+04 1.27124E+03-4.30673E+01-1.24546E+04-2.17571E+02 4.13968E+02
 -1      4587 1.49963E+04-1.48402E+03-6.86939E+01-6.25272E+03-1.10824E+02 2.50663E+02
 -1      4588 2.01390E+04-2.23041E+03 9.91377E+01-5.51725E+03-7.34844E+01 2.23024E+02
 -1      4589 1.95935E+04-1.82396E+03-1.36525E+01-1.20741E+04-1.01431E+02 4.03445E+02
 -1      4590 2.47769E+04-2.56969E+03 1.60077E+00-1.14992E+04 6.85560E+01 3.73146E+02
 -1      4591 5.86947E+03 1.97542E+04-1.06412E+03-1.43089E+04 4.30932E+02 3.14553E+02
 -1      4592 9.52689E+03 3.38098E+04-4.70033E+03-2.10617E+04 2.62699E+03 5.24813E+02
 -1      4593 2.66482E+04 6.61050E+04-6.30500E+03-4.22439E+04 1.10507E+04-5.15097E+03
 -1      4594-1.20296E+04-4.56279E+04-2.69714E+03-8.36569E+04 3.65990E+04 3.14819E+02
 -1      4595 1.19072E+04 8.73321E+03-4.06263E+02-1.77923E+04-2.86340E+02 5.39837E+02
 -1      4596 1.78741E+04 7.06714E+02-2.16496E+02-1.79249E+04-1.31772E+02 6.10645E+02
 -1      4597 1.86205E+04 9.53961E+03-2.25990E+03-2.54073E+04 7.09758E+02 3.83929E+02
 -1      4598 1.99347E+04-5.60740E+02-5.04323E+02-2.18665E+04 1.17750E+02 5.28022E+02
 -1      4599 2.20051E+04-2.46584E+03 5.59167E+01-1.66369E+04 5.60202E+01 4.67389E+02
 -1      4600 2.62463E+04-2.63365E+03-7.09028E+01-1.63657E+04 8.20621E+01 3.08525E+02
 -1      4601 2.08374E+04-3.44997E+03-4.93015E+01-2.02746E+04 2.63768E+02 4.97214E+02
 -1      4602 2.18254E+04-2.28539E+03 1.10496E+02-2.07466E+04 3.30446E+02 3.48832E+02
 -1      4603 2.20207E+04 5.14827E+03-1.74881E+03-2.63313E+04 1.38500E+03-1.76228E+03
 -1      4604 1.64019E+04-3.38815E+03-4.04186E+02-2.08312E+04 2.72036E+02 7.23880E+01
 -1      4605 1.59003E+03-6.22553E+03 3.55137E+02-1.88244E+04 8.82769E+02 1.85793E+02
 -1      4606 1.37095E+03-3.02025E+03 2.11809E+02-1.91219E+04 6.95276E+02-1.40273E+01
 -1      4607 1.27132E+04-3.57483E+03-1.12639E+02-2.10986E+04 5.31266E+02 1.01317E+02
 -1      4608 1.57380E+04-1.31898E+03-3.82091E+01-2.19386E+04 4.06562E+02 1.05674E+02
 -1      4609 3.01047E+03-2.15825E+03 4.29091E+01-2.17792E+04 6.35102E+02-2.93907E+01
 -1      4610 4.16502E+03-7.89175E+02-1.20021E+02-2.33860E+04 4.01613E+02-7.31202E+01
 -1      4611 3.93274E+03-6.33319E+02-6.22642E+01 2.52680E+03-1.11045E+02 2.89291E+02
 -1      4612 4.03484E+03-5.34262E+01-1.67370E+02 2.95717E+03-1.93989E+02 3.49588E+02
 -1      4613 1.86240E+04-1.29779E+03-1.95326E+02-1.04074E+03 2.01504E+01 2.07890E+02
 -1      4614 2.16712E+04 9.34526E+02 1.67834E+02-2.97388E+02 1.90434E+02 1.80390E+02
 -1      4615 6.76251E+03 1.43391E+03-1.77150E+02 1.52601E+03 1.78647E+01 3.68896E+02
 -1      4616 1.05515E+04 4.35966E+03 9.29357E+01-1.88829E+03 6.03145E+00 5.78281E+02
 -1      4617 2.64469E+04 4.75445E+03 1.13795E+02-2.13695E+03-8.33611E+01 1.45151E+02
 -1      4618 3.30988E+04 9.20970E+03-1.38058E+02-6.92703E+03-2.36517E+02 2.26315E+02
 -1      4619 2.63606E+04-1.35396E+03-3.48829E+01-5.87618E+03 4.22800E+01 2.84328E+02
 -1      4620 3.42623E+04 2.83557E+03 1.77888E+02-7.59837E+03 1.52934E+01 1.92999E+02
 -1      4621 3.04950E+04-9.24773E+02 5.99517E+01-1.19500E+04 7.04401E+01 3.12382E+02
 -1      4622 3.85489E+04 5.64506E+03-1.01331E+02-1.50613E+04 2.11491E+02 3.33509E+02
 -1      4623 4.22269E+04 8.98517E+03 1.81065E+02-1.17730E+04 1.67847E+02 4.21862E+02
 -1      4624 5.62059E+04 1.99460E+04-4.15669E+01-2.06574E+04 9.88156E+01 6.31510E+02
 -1      4625 4.72066E+04 1.81593E+04 4.59236E+01-2.22970E+04 1.18264E+02 5.42900E+02
 -1      4626 6.32783E+04 3.36011E+04 4.75846E+02-3.56015E+04 7.62825E+01 7.31395E+02
 -1      4627 1.07568E+04 6.20492E+03 3.27237E+02-6.71229E+03-2.47827E+01 9.28117E+02
 -1      4628 2.22855E+04 9.34844E+03-3.94541E+01-1.59787E+04 3.76916E+02 6.05287E+02
 -1      4629 4.55359E+04 1.63139E+04-6.95854E+02-1.72175E+04 6.52668E+02 5.32524E+02
 -1      4630 5.59422E+04 1.89345E+04-5.14544E+02-2.42146E+04 2.65708E+02 8.48794E+02
 -1      4631 3.13509E+04 9.30509E+03-5.86200E+01-2.69727E+04 5.75668E+01 8.61787E+02
 -1      4632 4.41892E+04 4.80508E+03-1.50749E+02-3.37597E+04 2.54067E+02 7.99504E+02
 -1      4633 6.53344E+04 1.67282E+04 1.95054E+02-3.27933E+04-7.44148E+01-1.08547E+02
 -1      4634 6.28249E+04 7.65857E+03 3.28694E+02-3.23306E+04 1.45064E+02-1.09537E+03
 -1      4635 7.09705E+04 2.61902E+04-1.23377E+02-2.87883E+04 8.86949E+00-1.98984E+01
 -1      4636 8.55217E+04 2.85939E+04 1.86512E+03-3.70543E+04 1.06653E+03 3.72257E+02
 -1      4637 1.01394E+05 2.55075E+04 1.22380E+03-4.21712E+04 1.12074E+03-5.37877E+02
 -1      4638 1.04377E+05 3.25970E+04 1.41116E+03-5.17057E+04-1.54963E+02 2.16830E+02
 -1      4639 8.95545E+04 3.00081E+04 1.53566E+03-3.66729E+04 5.39669E+02-4.68916E+01
 -1      4640 9.81349E+04 2.54336E+04 9.36437E+02-4.03056E+04 3.56858E+02-8.42890E+02
 -1      4641 8.05793E+04 3.98908E+04 1.11402E+02-4.88670E+04 4.00503E+02 9.69147E+02
 -1      4642 8.52824E+04 4.34205E+04 2.89169E+03-5.34970E+04 3.66888E+01 2.92807E+02
 -1      4643 1.14535E+05 1.99854E+04 2.38236E+03-4.16794E+04 3.86559E+02-1.14920E+03
 -1      4644 1.17659E+05 2.01247E+04 4.47790E+03-4.17923E+04 4.39880E+02-1.61537E+03
 -1      4645 3.06234E+04 1.09395E+03 9.33402E+01-1.82384E+04 1.92180E+01 2.88708E+02
 -1      4646 3.60136E+04 1.05634E+04-5.98454E+01-2.11028E+04 6.92076E+01 3.88760E+02
 -1      4647 2.50929E+04 3.01789E+03-3.23955E+01-2.15994E+04 1.71349E+02 1.77028E+02
 -1      4648 2.61084E+04 1.52660E+04-9.32074E+01-2.30828E+04-7.05791E+01-3.86512E+01
 -1      4649 4.10333E+04 2.99431E+04 1.61607E+02-2.96666E+04-4.69132E+02 3.75724E+02
 -1      4650 4.95700E+04 4.59989E+04-1.94614E+02-4.21205E+04-4.93776E+02 1.59385E+03
 -1      4651 4.87024E+04 5.12131E+04 1.37354E+03-4.53959E+04-1.47636E+02-3.17168E+02
 -1      4652 2.95472E+04 3.34208E+04 3.29533E+02-2.84718E+04-5.69587E+02 3.84820E+02
 -1      4653 2.55684E+04 4.71035E+04 9.44640E+00-3.27281E+04-1.08260E+03 1.30086E+02
 -1      4654 1.81368E+04 3.82331E+04 3.46201E+02-2.44364E+04-1.27130E+03 5.91467E+02
 -1      4655 2.85588E+04 3.35005E+04 1.01590E+03-2.70103E+04-7.05297E+02 2.75870E+02
 -1      4656 1.79546E+04 3.37704E+04-1.66530E+02-2.29231E+04-6.84423E+02 1.45734E+02
 -1      4657 1.61545E+04 3.48700E+03 3.86465E+01-2.29880E+04 1.88024E+02 1.41862E+01
 -1      4658 1.39005E+04 1.50874E+04 7.05005E+01-2.02544E+04-3.20631E+02 2.97281E+01
 -1      4659 4.42199E+03 1.70285E+03-2.07480E+02-2.31195E+04 6.77419E+01-3.45296E+01
 -1      4660 4.28196E+03 7.98527E+03-3.22732E+01-1.61813E+04-5.77732E+02 5.83295E+01
 -1      4661 1.23056E+04 3.36810E+04 5.78076E+02-1.98889E+04-1.61689E+03 5.70536E+02
 -1      4662 1.19564E+04 3.38270E+04 7.30835E+00-1.91101E+04-1.03734E+03 1.93402E+02
 -1      4663 5.82450E+03 2.84708E+04-2.27974E+02-1.25027E+04-1.26363E+03 8.18385E+01
 -1      4664 5.19353E+04 3.65448E+02 2.06822E+02-2.35366E+04-9.80064E+01 1.97060E+03
 -1      4665 6.41155E+04-1.09886E+03 2.04938E+02-2.09424E+04 8.55072E+01 2.22741E+03
 -1      4666 5.29045E+04 6.48318E+02-3.20569E+01-2.10689E+04 3.77962E+02 2.14884E+03
 -1      4667 6.39435E+04-7.53730E+02 2.42334E+02-2.03193E+04 1.16588E+02 2.27302E+03
 -1      4668 7.93429E+04-1.09771E+03 6.21755E+02-1.71755E+04-1.79712E+02 2.58241E+03
 -1      4669 9.07160E+04-1.74735E+03 3.74273E+02-1.69154E+04-4.13737E+02 2.30909E+03
 -1      4670 8.02740E+04 7.34761E+01 1.56609E+03-1.66594E+04 2.61245E+02 2.32880E+03
 -1      4671 9.18039E+04-1.30973E+03 7.45469E+02-1.51145E+04 6.20255E+01 1.98719E+03
 -1      4672 1.02305E+05-2.11743E+03 8.56658E+02-1.37806E+04-3.07994E+02 1.82537E+03
 -1      4673 1.12139E+05-2.64875E+03 1.07544E+03-1.03709E+04-3.51064E+02 1.70462E+03
 -1      4674 1.03634E+05-2.08973E+03 7.20229E+02-1.21932E+04 1.15955E+02 2.07787E+03
 -1      4675 1.11222E+05-2.31080E+03 9.42350E+02-9.64614E+03 1.49839E+02 1.92473E+03
 -1      4676 1.15978E+05-3.30250E+03 3.87948E+02-7.18791E+03-3.42122E+01 1.52774E+03
 -1      4677 1.19186E+05-3.21262E+03 3.78827E+02-4.59957E+03-2.57525E+02 1.08749E+03
 -1      4678 1.17219E+05-1.91224E+03 1.34620E+03-6.45377E+03 1.13592E+02 1.90274E+03
 -1      4679 1.20875E+05-2.38619E+03 8.51408E+02-3.58967E+03-1.13308E+02 1.54874E+03
 -1      4680 1.24181E+05-2.27462E+03 7.69808E+02-1.19911E+03-5.67826E+02 9.69943E+02
 -1      4681 1.12485E+05-2.91599E+03-3.27563E+02 8.73737E+02-3.06465E+02 6.82298E+02
 -1      4682 1.19444E+05-1.55676E+03 9.62634E+02-7.20724E+02-5.63439E+01 9.56450E+02
 -1      4683 1.16101E+05-2.05261E+03 6.60023E+02 1.86759E+03 9.77018E+01 7.34297E+02
 -1      4684 1.21640E+05-1.43311E+03 1.32625E+03 2.67265E+03-3.13214E+02 4.61492E+02
 -1      4685 1.14067E+05-2.13320E+03 2.49438E+01 4.27784E+03-5.28087E+02 4.74933E+02
 -1      4686 1.17770E+05-1.05590E+03 1.43662E+03 3.49690E+03 2.77211E+02 8.65762E+02
 -1      4687 1.17680E+05-4.76755E+02 9.93811E+02 4.88929E+03 1.19410E+02 9.67286E+02
 -1      4688 1.17155E+05-8.55380E+02 1.03491E+03 5.07743E+03-3.39829E+02 4.36641E+02
 -1      4689 1.08879E+05-9.39063E+02 5.37045E+02 5.95191E+03-2.72429E+02 2.80548E+02
 -1      4690 1.14827E+05-4.57362E+02 7.86462E+02 5.80135E+03 2.62052E+01 1.10174E+03
 -1      4691 1.10367E+05-3.45436E+02 8.40130E+02 6.04784E+03 5.45323E+02 8.95620E+02
 -1      4692 1.04271E+05-7.84051E+02 6.50813E+02 6.99134E+03-1.54289E+02 2.07857E+02
 -1      4693 9.73139E+04-6.14807E+02 3.41684E+02 7.15990E+03-2.45366E+01 2.90361E+02
 -1      4694 1.04217E+05-3.98269E+02 4.68392E+02 7.31288E+03 3.30244E+02 7.60172E+02
 -1      4695 9.87884E+04 7.97804E+01 1.96718E+02 7.25203E+03 1.87033E+02 9.22327E+02
 -1      4696 9.30049E+04-1.01749E+03 2.46724E+02 7.51231E+03-1.44646E+02-2.92857E+01
 -1      4697 8.47624E+04-1.18421E+03-4.01876E+01 8.55963E+03-3.08928E+02-1.96909E+01
 -1      4698 9.21003E+04-7.40772E+02 4.23411E+02 7.97573E+03 3.25864E+01 6.54052E+02
 -1      4699 8.63127E+04-3.27377E+02 8.48118E+02 9.31072E+03 1.23650E+02 4.22262E+02
 -1      4700 7.73497E+04-1.30879E+03-6.68177E+01 9.78138E+03-2.00155E+02-9.34031E+01
 -1      4701 6.96022E+04-1.30404E+03 2.28096E+02 1.16707E+04 2.31712E+02-1.06577E+02
 -1      4702 7.84426E+04-1.33834E+03 1.92674E+02 1.06460E+04 7.58314E+01 5.16982E+02
 -1      4703 7.20324E+04-1.24415E+03 8.41361E+01 1.21418E+04 2.35846E+02 7.50266E+02
 -1      4704 6.45192E+04-2.06967E+03-2.40337E+02 1.47697E+04 4.27662E+02-1.75729E+02
 -1      4705 5.49238E+04-1.78109E+03-8.79021E+02 1.48320E+04 4.75865E+02-2.25297E+02
 -1      4706 6.36705E+04-1.76623E+03-4.46101E+02 1.17167E+04 2.78831E+01 6.07380E+02
 -1      4707 5.57198E+04-8.51871E+02-3.20667E+02 1.42681E+04 2.52859E+02 4.25627E+02
 -1      4708 4.54181E+04-8.71714E+02-1.11434E+03 1.59742E+04 5.68102E+02-1.14962E+02
 -1      4709 3.21424E+04 3.64401E+03-1.14090E+03 1.47808E+04 9.62003E+02 2.37238E+02
 -1      4710 4.34467E+04-5.36871E+02-1.66206E+03 1.60728E+04 4.46278E+02 2.68650E+02
 -1      4711 2.83966E+04 3.74777E+03-1.96552E+03 1.31554E+04 2.43950E+02-5.31988E+02
 -1      4712 5.35780E+04-7.21461E+02 1.53741E+02-3.51059E+04 8.87049E+01 6.20944E+02
 -1      4713 6.55789E+04-6.60138E+03 5.07931E+01-3.11423E+04 2.09310E+01 8.07248E+02
 -1      4714 4.81865E+04-7.67860E+02-2.44268E+02-3.56728E+04 2.02270E+01-6.93725E+02
 -1      4715 3.37819E+04-1.38790E+04-1.44590E+02-3.29830E+04-1.55788E+01-1.02173E+02
 -1      4716 7.50615E+04-9.95762E+03-3.28804E+02-2.28907E+04-2.98068E+02 7.21048E+02
 -1      4717 8.25506E+04-9.56083E+03 5.63566E+02-1.26471E+04-4.89742E+02 1.11658E+03
 -1      4718 3.18549E+04-2.05811E+04 5.30247E+02-2.70682E+04-5.69765E+02 4.75953E+02
 -1      4719 3.67957E+04-2.21276E+04 5.13745E+02-1.82540E+04-3.57644E+02 4.67804E+02
 -1      4720-1.20974E+04-1.68578E+04-1.36983E+03-2.70012E+04-8.96602E+02-2.20847E+03
 -1      4721-1.22288E+04-1.45866E+04-2.74147E+03-2.37494E+04-9.35073E+02-1.65182E+03
 -1      4722-1.63946E+04-2.24052E+04-8.80840E+02-3.02769E+04-1.19221E+03-1.31088E+03
 -1      4723-7.90352E+03-2.86440E+04 1.69803E+02-3.12578E+04-1.83782E+03-3.94973E+02
 -1      4724-3.98044E+04-2.98060E+04-7.13975E+02-3.67785E+04-1.17578E+03-7.20570E+02
 -1      4725-2.13053E+04-1.97013E+04-1.44118E+03-2.75601E+04-7.14489E+02-1.07075E+03
 -1      4726-1.83039E+04-2.95434E+04-1.54719E+03-3.11316E+04-7.93269E+02-1.39313E+02
 -1      4727-5.30685E+04-2.90970E+04-3.19503E+03-3.75774E+04-8.57930E+01-8.44880E+02
 -1      4728-8.50133E+03-3.34088E+04-9.62516E+00-2.44737E+04-1.39741E+02-2.70957E+02
 -1      4729-5.44689E+04-4.80289E+04-2.06632E+02-4.65803E+04-6.36681E+02-5.65056E+02
 -1      4730-5.60836E+04-4.42356E+04-1.72447E+03-4.84629E+04-5.86400E+02-8.92155E+02
 -1      4731 8.36179E+04-8.41759E+03 4.20716E+02-1.43815E+03-4.78465E+02 3.91183E+02
 -1      4732 8.55863E+04-5.91715E+03 2.93219E+02 5.26182E+03-2.49249E+02 4.03200E+02
 -1      4733 4.53967E+04-1.70174E+04 5.33118E+02-4.68788E+03-4.27014E+02 4.57774E+02
 -1      4734 4.67067E+04-1.21928E+04 1.64895E+02 2.49711E+03-6.98505E+02 2.02569E+02
 -1      4735 8.32567E+04-2.78633E+03 1.31986E+02 9.71802E+03-1.15620E+02 5.82484E+02
 -1      4736 8.00272E+04-1.68418E+03 2.34732E+02 1.30273E+04 7.77000E+01 3.59844E+02
 -1      4737 5.23551E+04-6.15239E+03-2.63195E+02 1.01264E+04-1.83239E+02 4.70441E+01
 -1      4738 5.36732E+04-3.94781E+03 9.06641E+01 1.18776E+04-3.45135E+02 2.51152E+02
 -1      4739 8.74056E+02-3.11234E+04 2.13026E+02-1.44309E+04-3.09822E+02 6.26006E+02
 -1      4740 1.52838E+04-1.95770E+04 1.15934E+02-2.45350E+03-4.43730E+02 4.39127E+02
 -1      4741-3.27405E+04-4.59526E+04-4.38778E+02-3.12030E+04 2.62920E+02 2.13478E+02
 -1      4742-1.17308E+04-2.75562E+04 1.20464E+03-1.19109E+04-4.58323E+02 5.95734E+02
 -1      4743 2.23400E+04-1.15707E+04-2.69566E+02 2.83958E+03-1.33224E+02 1.81716E+02
 -1      4744 3.34136E+04-4.94072E+03 3.99547E+01 5.97562E+03-1.77893E+02 4.08595E+02
 -1      4745-1.17254E+03-1.55670E+04 1.18653E+02-6.80415E+03-3.61517E+02 6.65710E+02
 -1      4746 1.16204E+04-5.58392E+03-1.69530E+02-4.79810E+03-1.64382E+02 4.94068E+02
 -1      4747-4.64561E+04-6.31236E+04-8.17742E+02-4.79596E+04-7.00745E+02 1.93082E+03
 -1      4748-4.51062E+04-6.99731E+04-2.09224E+03-5.21070E+04 2.58156E+02-3.09985E+02
 -1      4749-3.11117E+04-4.52755E+04-2.82844E+02-3.03901E+04-6.21236E+01 3.43893E+02
 -1      4750-3.12235E+04-7.37856E+04-8.01755E+02-4.32258E+04 3.96077E+02 1.04687E+03
 -1      4751-3.15963E+04-5.16661E+04-1.09772E+03-3.43954E+04-1.78303E+02 1.39541E+03
 -1      4752-2.51007E+04-5.81446E+04-9.53389E+02-3.65171E+04 8.46867E+02 1.38808E+03
 -1      4753-2.94866E+04-5.32702E+04-3.88873E+02-3.41512E+04 5.03378E+02 1.00880E+03
 -1      4754-2.33882E+04-6.28429E+04-1.13378E+03-3.59466E+04 1.25528E+03 1.91534E+02
 -1      4755-1.93929E+04-2.13220E+04 3.80371E+02-2.06614E+04-1.73306E+02 8.22104E+02
 -1      4756-5.70196E+03-5.69908E+03-1.93317E+02-1.83207E+04-2.65073E+02 8.47458E+02
 -1      4757-2.39158E+04-2.76382E+04 2.56004E+02-3.12088E+04-1.00128E+02 7.12403E+02
 -1      4758-1.40538E+04-5.91121E+03-1.17621E+02-3.03060E+04-1.39447E+02 6.45649E+02
 -1      4759-1.77959E+04-5.59736E+04-1.54647E+03-3.21713E+04 1.45785E+03 5.40538E+02
 -1      4760-1.79296E+04-6.31711E+04-2.35897E+03-3.34623E+04 1.44606E+03 3.51101E+02
 -1      4761-1.65267E+04-2.53018E+04-2.79532E+02-3.43271E+04 5.02790E+02 4.57997E+02
 -1      4762-1.26042E+04-4.69411E+03-9.24019E+01-3.92374E+04-1.33503E+02 4.08487E+02
 -1      4763-6.14529E+03-1.08160E+04-3.05584E+02-3.36621E+04 3.92031E+02 2.33239E+02
 -1      4764-4.79493E+03-1.74049E+03 1.20850E+02-4.39966E+04-3.37765E+01 1.54420E+02
 -1      4765 7.44883E+04-2.47442E+03 2.34067E+01 1.47903E+04 4.12889E+01 2.97486E+02
 -1      4766 7.16003E+04-4.00307E+03-3.45447E+01 1.73656E+04 1.18226E+02 4.15397E+02
 -1      4767 5.75300E+04-3.75173E+03-2.07827E+01 1.27214E+04-7.30073E+01 2.22126E+02
 -1      4768 6.23720E+04-5.96741E+03-3.26263E+02 1.19342E+04 2.90715E+01 2.80808E+02
 -1      4769 7.01757E+04-5.66265E+03-4.99862E+02 2.14329E+04 3.52705E+02 8.74762E+02
 -1      4770 6.43213E+04-1.36737E+02-6.67412E+02 2.88566E+04 7.08444E+02 1.11891E+03
 -1      4771 7.72239E+04-9.09457E+03 3.31907E+02 1.17821E+04 1.80067E+02 1.19019E+03
 -1      4772 9.75673E+04-8.83180E+03 7.86499E+02 1.44325E+04 4.90846E+02 2.73202E+03
 -1      4773 4.07061E+04-3.47661E+03 2.04514E+02 5.19972E+03-1.88231E+01 4.37652E+02
 -1      4774 5.23453E+04-3.99486E+03 2.28446E+02 1.84673E+03 5.46801E+01 5.41137E+02
 -1      4775 2.29353E+04-1.67001E+03 4.14979E+01-6.26650E+03-1.67903E+02 6.69123E+02
 -1      4776 3.52308E+04-1.89318E+02 2.12229E+01-1.02143E+04-7.33702E+01 8.43415E+02
 -1      4777 6.43547E+04-5.81485E+03-4.24135E+02-2.58993E+03 1.69204E+02 1.31783E+03
 -1      4778 8.09489E+04-3.50580E+03-1.37897E+02-8.58055E+03-2.64686E+02 1.84345E+03
 -1      4779 4.66372E+04 1.23412E+03-3.63586E+02-1.53008E+04-2.59512E+02 1.11075E+03
 -1      4780 5.29912E+04 7.05457E+03 3.13408E+02-2.18250E+04-6.11748E+02 1.00001E+03
 -1      4781 3.24723E+04 2.64479E+04-2.87635E+03 3.05491E+04 1.99003E+03 8.49062E+02
 -1      4782 1.37294E+05 2.81374E+03 9.28455E+03 8.77977E+03-1.48074E+02-4.84965E+02
 -1      4783 1.02193E+05 1.78480E+04 1.22217E+04-1.98638E+04-9.27407E+02-2.44305E+03
 -1      4784 5.65521E+04 1.73836E+04 8.70863E+03-2.25685E+04-8.89356E+02-1.79527E+03
 -1      4785 6.26982E+03 5.40479E+02-3.72167E+01-1.90892E+04-2.15317E+02 6.10473E+02
 -1      4786 1.79173E+04 3.59756E+03-1.32026E+02-2.21986E+04-2.84510E+02 6.76705E+02
 -1      4787-4.32586E+03 1.36318E+03-1.77828E+02-3.04944E+04-3.64080E+02 4.57334E+02
 -1      4788 6.72981E+03 5.19768E+03-6.04126E+01-3.12251E+04-3.99932E+02 3.90423E+02
 -1      4789 2.72252E+04 5.92228E+03-4.58134E+02-2.46324E+04-4.78839E+02 9.18156E+02
 -1      4790 3.12660E+04 9.57768E+03 2.05017E+02-2.62297E+04-6.95306E+02 4.57943E+02
 -1      4791 1.45765E+04 7.06809E+03-8.15026E+01-3.03727E+04-4.52212E+02 4.83280E+02
 -1      4792 1.71685E+04 8.42793E+03 8.19420E+01-2.95060E+04-5.39683E+02 3.81475E+02
 -1      4793-5.12079E+03 2.02233E+03 1.37403E+02-3.85250E+04-4.59942E+02 3.16764E+02
 -1      4794 1.40212E+03 4.33479E+03-2.34084E+02-3.75381E+04-5.13767E+02 2.94450E+02
 -1      4795-2.25661E+03 1.24524E+03 2.27620E+02-4.36122E+04-3.18264E+02 5.32622E+01
 -1      4796-1.01719E+02 1.37503E+03-6.55111E+01-4.11197E+04-4.96357E+02 1.05800E+02
 -1      4797 5.41612E+03 5.07363E+03-1.84777E+02-3.54209E+04-4.21624E+02 1.01068E+02
 -1      4798 9.56280E+03 6.49068E+03 1.71677E+02-3.16447E+04-5.75692E+02 2.01515E+02
 -1      4799 1.97133E+03 2.50253E+03 6.10336E+01-3.76518E+04-5.25270E+02 1.16611E+02
 -1      4800 1.93387E+03 1.50999E+03-1.29405E+02-3.39726E+04-6.06204E+02 5.49513E+01
 -1      4801 3.52546E+04 1.31911E+04 3.93024E+03-2.41576E+04-4.24665E+02-1.40031E+03
 -1      4802 2.04416E+04 9.50321E+03 1.92900E+03-2.68357E+04-5.95443E+02-4.28306E+02
 -1      4803 1.05762E+04 5.93509E+03 1.29562E+03-2.79537E+04-4.58044E+02-3.69131E+02
 -1      4804 4.00896E+03 2.47615E+03 8.64608E+02-2.85491E+04-4.65238E+02-1.22409E+02
 -1      4805-2.45530E+04-4.81258E+04 6.46658E+03-3.58254E+04 9.64046E+03 7.90994E+03
 -1      4806-6.69563E+03-4.03483E+04 4.06179E+03-1.96892E+04 2.55825E+03-2.21800E+02
 -1      4807-3.27553E+03-2.05041E+04 1.36600E+03-1.12534E+04 2.87962E+02-2.83420E+02
 -1      4808-3.16669E+03-1.31799E+04-4.57018E+01-8.91953E+03-5.82254E+00-2.38506E+02
 -1      4809-1.98903E+04-9.68485E+03 2.63618E+03-2.60727E+04 4.51962E+01 1.02886E+03
 -1      4810-1.28305E+04-2.62671E+03 4.36530E+02-2.24578E+04 4.15274E+02-3.10665E+02
 -1      4811-1.77482E+04-1.40993E+04 1.83987E+03-2.77370E+04 1.54084E+02-2.67435E+02
 -1      4812-1.74009E+04-4.13157E+03 2.89978E+02-2.52082E+04 3.78989E+01-6.86349E+02
 -1      4813-9.25599E+03-5.99858E+02-1.24449E+02-2.32027E+04 5.69305E+02-2.50797E+02
 -1      4814-8.14627E+03-3.49167E+02 1.43123E+02-2.43896E+04 3.26986E+02-5.09860E+01
 -1      4815-1.66737E+04-8.06676E+02 3.93473E+01-2.44405E+04 2.18246E+02-3.66432E+02
 -1      4816-1.69837E+04-1.76818E+02 4.41738E+01-2.47554E+04 2.10611E+02-2.13291E+02
 -1      4817-1.11386E+04-1.43843E+04 3.39194E+02-2.12117E+04-1.83990E+02-5.77858E+02
 -1      4818-1.61996E+04-5.30019E+03 1.33926E+02-2.22298E+04-3.01053E+02-5.72113E+02
 -1      4819-7.88035E+03-9.47328E+03 6.60727E+01-1.44129E+04-3.28174E+02-4.25688E+02
 -1      4820-1.48309E+04-4.27072E+03 5.88013E+01-1.77025E+04-2.87836E+02-4.28089E+02
 -1      4821-1.99195E+04-4.92179E+02-1.42536E+01-2.27909E+04-2.47594E+01-4.80533E+02
 -1      4822-2.34645E+04 1.84726E+01-2.11064E+01-2.28217E+04 1.11500E+02-2.40252E+02
 -1      4823-1.97269E+04-7.42562E+02 3.19650E+01-1.81506E+04-1.22398E+02-3.47543E+02
 -1      4824-2.56728E+04 8.73819E+02 9.20810E+01-1.81428E+04 1.18732E+01-3.90869E+02
 -1      4825-2.29871E+03-5.73209E+03 5.81646E+01-4.94760E+03-9.88032E+01 8.87248E+01
 -1      4826-1.58997E+03-1.07617E+03-2.62548E+01-1.77433E+03-7.16597E+01 1.19115E+01
 -1      4827-8.30123E+02-1.22773E+02 1.31930E+02-5.76278E+02-8.34561E+01-5.52615E+01
 -1      4828-1.33866E+02 6.23571E+02 8.36723E+01 2.73466E+02-1.02640E+02-1.15033E+02
 -1      4829-4.77318E+02 7.38318E+02 7.58690E+01 1.23310E+02-1.32503E+02-4.31105E+01
 -1      4830 1.75258E+02 1.25409E+03 1.06943E+02 7.70613E+02-1.56777E+02-5.13249E+01
 -1      4831-7.20050E+03-4.99047E+03-1.23930E+02-9.51333E+03-2.37867E+02-2.71027E+02
 -1      4832-1.19799E+04-2.05995E+03-1.28345E+02-1.06547E+04-8.44669E+01-3.34468E+02
 -1      4833-4.64962E+03-1.77798E+03-2.14444E+01-4.03371E+03-1.38002E+02-1.79750E+02
 -1      4834-8.97580E+03-9.13753E+02-4.30434E+01-5.62678E+03-1.51389E+02-2.01884E+02
 -1      4835-1.81085E+04 5.38085E+02-1.36768E+01-1.13496E+04-6.18238E+01-3.45785E+02
 -1      4836-2.46460E+04 1.49545E+03 2.33743E+01-1.20057E+04-5.09979E+01-4.18616E+02
 -1      4837-1.36493E+04 6.47870E+02 1.02349E+02-5.72724E+03-1.46972E+02-2.56566E+02
 -1      4838-1.96309E+04 1.42692E+03 4.70506E+01-5.91607E+03-9.73692E+01-2.26805E+02
 -1      4839-1.90666E+03 9.29155E+01 1.41828E+01-7.03924E+02-1.64096E+02-1.30667E+02
 -1      4840-4.83416E+03-1.06072E+02-2.70713E+01-1.68007E+03-1.65363E+02-1.28576E+02
 -1      4841-2.79183E+01 5.23436E+02 6.84569E+01 4.11959E+02-1.32348E+02-1.01381E+02
 -1      4842-5.45898E+02 2.53011E+02 7.24914E+01 2.44440E+02-1.13571E+02-1.38920E+02
 -1      4843 8.03905E+02 5.20638E+02 7.16081E+01 9.43158E+02-1.32419E+02-1.97120E+02
 -1      4844 5.75590E+02 1.09509E+03 1.21758E+02 1.04277E+03-2.13004E+02-6.49989E+01
 -1      4845-1.12904E+02 6.99090E+02 5.32417E+01 8.45267E+02-2.29227E+02-1.42010E+02
 -1      4846 1.40165E+03 8.57106E+02 5.74324E+01 1.34874E+03-2.44771E+02-1.99691E+02
 -1      4847-9.84465E+02 2.86916E+02-4.12682E+01 5.35117E+02-2.35024E+02-1.38924E+02
 -1      4848-7.91388E+03 6.56413E+02-9.58723E+00-1.42336E+03-1.43782E+02-9.95990E+01
 -1      4849-1.13201E+04 1.14729E+03 6.22805E+01-6.18512E+02-6.79598E+01-2.37932E+02
 -1      4850-1.46038E+03 3.13383E+02 4.12442E+01 1.04789E+03-2.15578E+02-2.30983E+02
 -1      4851-2.54466E+03 5.50228E+02 5.30148E+01 1.61660E+03-1.66912E+02-1.56795E+02
 -1      4852-6.24072E+03-1.53836E+03 3.58205E+01-2.36709E+04 1.22694E+02 2.17886E+01
 -1      4853-3.64248E+03-2.73507E+03 1.13896E+02-1.85298E+04-3.03672E+02 2.16190E+01
 -1      4854-1.67849E+04-3.39187E+03-2.01998E+00-2.48743E+04 3.11913E+00-8.22558E+01
 -1      4855-1.43734E+04-1.26649E+04-1.33904E+02-2.15328E+04-5.35069E+02-4.28423E+01
 -1      4856-1.30134E+04-2.87675E+04 2.14756E+01-2.01810E+04-1.16811E+03-5.50056E+02
 -1      4857-1.04840E+04-3.27510E+04-3.70227E+02-1.77384E+04-1.55485E+03-5.09702E+02
 -1      4858-2.56084E+04-3.89684E+03-3.18856E+01-2.38203E+04 2.34427E+01-2.25991E+02
 -1      4859-2.65688E+04-1.53365E+04 6.52335E+01-2.47416E+04-2.64595E+02-6.48902E+01
 -1      4860-3.14625E+04-2.18973E+03-4.79976E+01-1.98335E+04 5.96777E+00-3.22806E+02
 -1      4861-3.68208E+04-1.09986E+04-5.36674E+00-2.28004E+04 4.46150E+01-2.96545E+02
 -1      4862-2.15186E+04-2.81033E+04 2.10130E+01-2.51213E+04-8.72891E+02-4.11190E+02
 -1      4863-2.96870E+04-2.55672E+04 3.51827E+02-2.74416E+04-4.58070E+02-3.52600E+02
 -1      4864-2.88504E+04-4.62666E+04-5.29301E+02-3.36190E+04-9.38020E+02-5.92730E+02
 -1      4865-1.74820E+04-3.18151E+04-3.69488E+01-2.27268E+04-9.51850E+02-3.86052E+02
 -1      4866-2.86792E+04-3.13637E+04-4.55817E+02-2.76698E+04-6.41144E+02-3.18193E+02
 -1      4867-2.76025E+04-4.72811E+04-8.38502E+02-3.33218E+04-1.14107E+03-3.25173E+02
 -1      4868-4.11896E+04-2.62913E+04 5.24117E+02-2.89867E+04-2.87457E+02-2.86980E+02
 -1      4869-4.97231E+04-4.59521E+04 2.81155E+02-4.33702E+04-3.70591E+02-1.52264E+03
 -1      4870-5.02895E+04-5.22194E+04-1.14591E+03-4.65602E+04-3.98304E+02-6.48480E+02
 -1      4871-3.16492E+04-2.51784E+02-1.01966E+02-1.31546E+04-2.20991E+01-3.10401E+02
 -1      4872-3.90267E+04-6.07814E+03-1.19641E+01-1.58292E+04 1.17777E+02-4.24242E+02
 -1      4873-2.55728E+04 8.18055E+02 1.22946E+02-5.88577E+03-1.99075E+01-3.74289E+02
 -1      4874-3.41718E+04-2.92353E+03-3.32379E+01-8.39266E+03-1.22463E+02-4.13475E+02
 -1      4875-4.98239E+04-1.88425E+04-2.78357E+02-2.33796E+04 5.08644E+00-4.90276E+02
 -1      4876-6.20056E+04-3.26245E+04 2.66157E+01-3.52068E+04 1.23701E+02-7.15952E+02
 -1      4877-4.41739E+04-9.76887E+03-3.78441E+02-1.25198E+04-2.26081E+01-3.88228E+02
 -1      4878-5.56605E+04-1.90799E+04 5.12064E+01-2.06108E+04 1.84090E+02-5.55627E+02
 -1      4879-1.64447E+04 8.54895E+02 9.55954E+01-4.23819E+02-9.07803E+01-1.31529E+02
 -1      4880-2.11332E+04-9.64070E+02 1.34083E+02-4.70660E+01-2.57271E+02-9.43538E+00
 -1      4881-3.82183E+03 8.58406E+02 9.12041E+01 2.39878E+03-1.41893E+02-1.58296E+02
 -1      4882-5.04368E+03-9.93071E+01-4.71628E+01 2.80648E+03 1.38207E+00-2.98159E+02
 -1      4883-2.66398E+04-3.77694E+03 3.86938E+02-2.19742E+03 6.13173E+01-2.36173E+02
 -1      4884-3.76531E+04-1.13639E+04 2.27704E+01-8.89755E+03-3.15277E+01-5.77609E+02
 -1      4885-3.60618E+03-1.61325E+03 1.37555E+02 2.28527E+03-9.34766E+01-4.16877E+02
 -1      4886-5.98540E+03-3.65483E+03 2.12872E+02-8.24097E+02-5.46494E+01-4.57859E+02
 -1      4887-8.61071E+04-4.17773E+04-5.62391E+02-5.07670E+04 3.01199E+02-1.29132E+03
 -1      4888-8.65138E+04-4.24149E+04-1.20891E+03-5.45628E+04 1.69096E+02 2.57940E+02
 -1      4889-7.44506E+04-2.89055E+04-4.37499E+02-3.21543E+04 1.66395E+02-6.65647E+01
 -1      4890-1.06545E+05-3.19929E+04-6.76665E+02-5.15336E+04 3.63058E+02-6.02576E+02
 -1      4891-9.10232E+04-3.05226E+04-1.23457E+03-3.92187E+04 1.18594E+03-3.01606E+02
 -1      4892-1.02752E+05-2.55034E+04-1.00283E+03-4.28916E+04 1.15262E+03-1.66160E+02
 -1      4893-9.13489E+04-3.13696E+04-2.12402E+03-3.83624E+04 3.38841E+01-3.71305E+02
 -1      4894-1.02336E+05-2.46799E+04-1.31320E+03-4.13973E+04 2.26034E+01 3.94434E+02
 -1      4895-1.08159E+05-2.18356E+04-2.22219E+03-4.05608E+04 3.49257E+02 7.71269E+02
 -1      4896-1.11768E+05-2.11955E+04-2.71973E+03-4.19562E+04-4.83830E+01 9.23266E+02
 -1      4897-4.46230E+04-1.55524E+04 7.97232E+02-1.50456E+04 3.85819E+02-4.33027E+02
 -1      4898-5.77399E+04-2.04460E+04 3.03466E+02-2.52561E+04 4.51881E+02-4.94520E+02
 -1      4899-9.73384E+03-5.85527E+03-1.98117E+02-6.60153E+03 1.60196E+02-6.86885E+02
 -1      4900-1.99186E+04-9.19483E+03 1.38643E+02-1.59273E+04 1.40836E+02-7.61998E+02
 -1      4901-6.39964E+04-1.69982E+04-1.47828E+02-3.32046E+04 3.60575E+02 3.42664E+01
 -1      4902-6.09647E+04-8.61127E+03 1.88351E+01-3.53320E+04 1.44850E+02 7.19703E+02
 -1      4903-3.18106E+04-8.75195E+03-1.41244E+02-2.80075E+04-3.38766E+01-7.94261E+02
 -1      4904-4.28663E+04-4.87640E+03 2.79568E+01-3.29041E+04 2.42192E+02-8.85444E+02
 -1      4905 2.21399E+03 2.09839E+02 7.51397E+01 1.14906E+03-1.95617E+02-2.65864E+02
 -1      4906 2.79280E+03 3.11621E+02-2.70765E+01 1.45727E+03-2.85814E+02-4.09193E+02
 -1      4907 2.13072E+03 1.46212E+02 5.93252E+01 1.00634E+03-1.28167E+02-2.24720E+02
 -1      4908 3.07077E+03 1.07044E+01 8.37799E+01 1.15366E+03-8.96995E+01-2.69790E+02
 -1      4909 3.03603E+03 2.10451E+02-7.56585E+00 1.26158E+03-2.13958E+02-4.42573E+02
 -1      4910 3.55656E+03 4.69941E+01-5.57342E+01 1.41006E+03-1.92943E+02-4.77711E+02
 -1      4911 3.25248E+03 1.16354E+02 1.49207E+02 1.23772E+03-2.83333E+01-2.66219E+02
 -1      4912 3.42151E+03-8.07483E+01-3.02246E+01 1.67067E+03 5.71110E+01-2.33258E+02
 -1      4913 3.96242E+03 1.30779E+02-5.97440E-01 1.56606E+03-1.79148E+02-5.19716E+02
 -1      4914 5.10661E+03-1.31158E+01 6.52704E+01 1.73806E+03-1.97442E+02-6.08187E+02
 -1      4915 6.84058E+03 5.05245E+01 3.40292E+02 1.62078E+03 2.16291E+01-3.31767E+02
 -1      4916 7.24593E+03 6.75738E+01 2.54003E+01 2.29038E+03 8.44737E+01-2.96081E+02
 -1      4917 7.07741E+03 3.00358E+02 2.48251E+02 1.93881E+03-2.31760E+02-7.27640E+02
 -1      4918 8.54818E+03 2.84193E+02 2.10882E+02 2.42845E+03-1.58167E+02-7.34303E+02
 -1      4919 9.33601E+03 1.21291E+02 2.87858E+02 2.45365E+03 6.81422E+01-3.08675E+02
 -1      4920 1.22304E+04-2.11674E+02 2.37657E+02 2.54607E+03-6.07187E+01-2.66564E+02
 -1      4921 1.05203E+04 3.21665E+02 2.59679E+02 2.47768E+03-1.50843E+02-7.37090E+02
 -1      4922 1.20496E+04-2.27638E+02-5.01643E+01 2.84144E+03-1.33106E+02-9.37773E+02
 -1      4923 1.52007E+04-5.06499E+02 2.98361E+02 2.30590E+03 1.41209E+02-2.63796E+02
 -1      4924 1.65838E+04-2.64667E+02 4.31960E+02 2.00644E+03 5.55494E+02-1.22913E+02
 -1      4925 1.38396E+04-7.13804E+02-2.41243E+00 2.75851E+03-1.83295E+02-9.67538E+02
 -1      4926 1.36133E+04-6.16457E+02 7.01472E+02 2.59891E+03 2.70772E+01-1.46498E+03
 -1      4927 1.23081E+04-8.52877E+02 3.57036E+02 1.36554E+03 8.04860E+02-4.84673E+02
 -1      4928 1.41180E+04-1.41979E+03 1.06859E+03-9.04649E+01 6.46369E+02-5.05988E+02
 -1      4929 1.37804E+04-6.60280E+02 8.88614E+02 1.52455E+03-2.20025E+02-9.99372E+02
 -1      4930 1.51960E+04-1.45318E+03 7.02881E+02 4.56486E+02-1.91455E+02-1.16685E+03
 -1      4931 1.11693E+04-2.53733E+03 3.81488E+02-2.20676E+03 6.66685E-01-7.23939E+02
 -1      4932 1.55462E+04-2.05228E+03 4.25568E+02-3.44385E+03 2.37240E+02-1.14582E+03
 -1      4933 1.53892E+04-1.00725E+03 1.28442E+03-1.42436E+03-3.88971E+02-1.42486E+03
 -1      4934 1.50253E+04-1.90999E+03 8.44858E+02-2.72247E+03 3.10286E+01-1.58566E+03
 -1      4935 1.22699E+04-2.20588E+03 9.06885E+02-5.57821E+03 3.36117E+02-1.31855E+03
 -1      4936 5.07878E+03-2.68850E+03 1.04674E+03-8.75072E+03 4.88339E+02-1.49597E+03
 -1      4937 1.10925E+04-2.17333E+03 8.76421E+02-5.52192E+03 1.00217E+02-1.52718E+03
 -1      4938 4.97244E+03-2.46326E+03 1.09217E+03-7.97246E+03-3.77683E+02-1.89813E+03
 -1      4939-4.05372E+03-2.65144E+03 6.58501E+02-1.32678E+04 4.76353E+02-1.83244E+03
 -1      4940-1.27434E+04-1.53467E+03 9.72119E+02-1.44712E+04 2.02477E+02-2.08302E+03
 -1      4941-3.65488E+03-1.98566E+03 1.23779E+03-1.16798E+04-4.14289E+02-2.00104E+03
 -1      4942-1.26559E+04-7.81808E+02 1.74655E+03-1.37700E+04-2.55648E+02-2.07732E+03
 -1      4943-2.75970E+04-2.74208E+03 1.94557E+02-2.00259E+04 2.75673E+01-1.92001E+03
 -1      4944-4.07881E+04-1.90798E+03 3.95922E+02-2.49287E+04-3.57655E+01-1.96026E+03
 -1      4945-2.81452E+04-2.23996E+03 2.41454E+02-1.82620E+04-2.41293E+02-1.76513E+03
 -1      4946-3.79272E+04-1.06592E+03 9.98335E+02-2.01637E+04-4.04960E+02-2.06053E+03
 -1      4947 1.94745E+04 6.04797E+04 1.77430E+03-3.34607E+04 1.89381E+03-1.06637E+03
 -1      4948 1.79313E+04 6.91984E+04 3.15053E+03-3.32463E+04 1.70599E+03-5.21460E+02
 -1      4949 4.31410E+03 6.83284E+03-1.91204E+02-3.42449E+04 4.05907E+02-2.12489E+02
 -1      4950 5.34292E+03 1.85488E+03-9.08085E+01-4.45343E+04 4.37199E+01-2.20207E+02
 -1      4951 1.73071E+04 2.92187E+04 5.70514E+02-3.33191E+04 3.07072E+02-1.80144E+02
 -1      4952 1.22947E+04 3.98235E+03-2.07457E+02-3.98002E+04-1.34020E+02-3.24921E+02
 -1      4953 2.54667E+04 6.33153E+04 1.26859E+03-3.72791E+04 8.77976E+02-1.52576E+03
 -1      4954 3.28698E+04 7.53439E+04 1.16254E+03-4.58672E+04 7.07788E+02-8.10089E+02
 -1      4955 3.19001E+04 5.44411E+04 9.19121E+02-3.60674E+04-1.80609E+02-1.54708E+03
 -1      4956 2.51742E+04 5.96716E+04 9.96397E+02-3.58518E+04 1.05091E+03-1.49344E+02
 -1      4957 3.05288E+04 5.54381E+04 1.47332E+03-3.59780E+04 4.89857E+02-4.79020E+02
 -1      4958 4.79613E+04 6.53480E+04 8.06305E+02-4.84966E+04-4.40634E+02-1.32565E+03
 -1      4959 4.73814E+04 6.81570E+04 1.17755E+03-5.13469E+04-3.89828E+02 5.01130E+02
 -1      4960 3.29632E+04 4.76340E+04 5.74892E+02-3.08831E+04 3.84981E+02-4.15529E+02
 -1      4961 2.36880E+04 2.55756E+04 7.77764E+01-3.12131E+04-1.23219E+02-4.96811E+02
 -1      4962 1.39006E+04 5.66385E+03-8.99344E+01-3.04728E+04-2.21047E+02-6.54828E+02
 -1      4963 1.76652E+04 1.91902E+04-7.57743E+02-2.00289E+04-6.48338E+02-6.78462E+02
 -1      4964 5.51975E+03 5.14757E+03 1.99732E+02-1.85845E+04-2.39518E+02-6.36619E+02
 -1      4965 2.00080E+04 1.59309E+04 2.01344E+03-2.69780E+04-7.21099E+02 2.88109E+03
 -1      4966 1.41734E+04 1.33642E+04 2.46434E+03-2.57115E+04-2.09740E+02 1.31078E+03
 -1      4967 4.80090E+04 4.53436E+04-2.51105E+01-4.20713E+04-5.15546E+02-4.40216E+02
 -1      4968 5.85252E+04 4.66045E+04 3.07384E+03-4.76572E+04 3.10706E+02 7.92123E+02
 -1      4969 1.94727E+04 2.14667E+04 2.01572E+02-3.10489E+04-1.18461E+03 1.64615E+03
 -1      4970 1.22836E+04 3.06359E+04 1.15333E+03-3.13116E+04-1.71998E+03 8.01100E+02
 -1      4971 2.08676E+04 2.03062E+04 2.42132E+03-2.79505E+04-1.31414E+02 9.58610E+02
 -1      4972 1.61578E+04 2.77291E+04 6.68773E+02-3.11526E+04-6.17028E+02 5.07508E+02
 -1      4973 7.47042E+03 3.37777E+04 6.65497E+01-2.41764E+04-1.25703E+02-1.42977E+02
 -1      4974-4.82451E+04 1.43113E+03 3.77504E+02-3.26195E+04-2.30580E+01 1.29937E+03
 -1      4975-3.42846E+04 1.26220E+04 1.70337E+02-3.38827E+04-3.02506E+02 4.63496E+02
 -1      4976-5.43822E+04 9.71236E+02 4.07293E+01-3.45877E+04 1.35573E+02-9.75778E+02
 -1      4977-6.60765E+04 6.69929E+03 2.37954E+01-3.16197E+04-1.56223E+02-8.45375E+02
 -1      4978-2.72426E+04 2.11345E+04-1.46005E+02-2.82158E+04-5.24834E+02 3.51679E+01
 -1      4979-3.94154E+04 2.16926E+04-4.42021E+02-1.78743E+04-6.94824E+02-2.70437E+02
 -1      4980-7.50901E+04 1.03477E+04 2.60518E+02-2.34822E+04-3.97826E+02-1.14970E+03
 -1      4981-8.56739E+04 9.15806E+03-5.77184E+01-9.22138E+03-7.54316E+02-7.24947E+02
 -1      4982 3.31570E+04 4.66869E+04 6.38958E+02-3.06866E+04-6.57979E+02-6.23578E+02
 -1      4983 1.77153E+04 3.29036E+04-3.70971E+00-1.71129E+04-2.70817E+02-7.75952E+02
 -1      4984-1.48827E+03 3.02137E+04-1.52629E+01-1.40499E+04-2.95714E+02-5.64025E+02
 -1      4985-1.12618E+04 2.13286E+04 2.87856E+02-4.10158E+03-4.38647E+02-4.11215E+02
 -1      4986 2.93822E+03 1.52277E+04 2.11651E+01-7.20419E+03-5.36532E+02-7.42619E+02
 -1      4987-1.12139E+04 5.00496E+03-2.12524E+02-5.25614E+03-4.05373E+02-9.20130E+02
 -1      4988-2.36678E+04 1.09763E+04-3.28259E+02 3.03860E+03-1.88417E+02-1.26790E+02
 -1      4989-3.14316E+04 5.72029E+03-1.96084E+02 5.17770E+03-4.08746E+02-5.56052E+02
 -1      4990-4.15062E+04 1.90595E+04-1.36089E+02-4.51819E+03-3.38080E+02-3.68154E+02
 -1      4991-4.87639E+04 1.19884E+04-1.02574E+02 3.56905E+03-2.36397E+02-9.31931E+01
 -1      4992-8.91621E+04 6.55926E+03-6.10285E+02-1.13415E+03-4.67453E+02-6.82386E+02
 -1      4993-8.61235E+04 5.38509E+03 1.87469E+02 5.40628E+03-3.38876E+02-4.13405E+02
 -1      4994-5.23808E+04 6.38434E+03 2.66968E+02 9.41824E+03-6.42273E+01-4.58270E+02
 -1      4995-5.40676E+04 3.46251E+03-3.51649E+02 1.21419E+04-2.33698E+02-4.41195E+02
 -1      4996-8.54541E+04 2.88918E+03-6.49797E+01 9.48368E+03-1.54971E+02-2.73898E+02
 -1      4997-7.92404E+04 1.71097E+03-1.66085E+02 1.31300E+04-2.06649E+02-2.82669E+02
 -1      4998 2.03880E+03-7.28378E+02 5.89632E+01-4.40069E+04-3.40188E+02-1.75968E+02
 -1      4999 2.83609E+02-1.23491E+03 1.35523E+02-4.12964E+04-5.02300E+02-1.12264E+02
 -1      5000 5.97092E+03-1.53572E+03 1.18167E+01-3.95757E+04-2.97012E+02-3.64440E+02
 -1      5001-1.40940E+03-3.94025E+03 3.21795E+01-3.80909E+04-4.06813E+02-2.48967E+02
 -1      5002-1.50571E+03-2.13265E+03-5.69633E+01-3.75111E+04-5.42449E+02-8.55332E+01
 -1      5003-2.67810E+03-2.32466E+03-3.41928E+01-3.30649E+04-7.68162E+02-1.14747E+02
 -1      5004-5.58613E+03-5.38303E+03 2.73353E+01-3.50016E+04-5.98207E+02-2.50261E+02
 -1      5005-8.19348E+03-5.82117E+03 3.42200E+00-3.24406E+04-4.59343E+02-3.24795E+02
 -1      5006 3.19826E+03-2.07336E+03-1.16788E+02-3.11387E+04-3.37833E+02-4.43128E+02
 -1      5007-5.91623E+03-5.14035E+03 1.45847E+02-3.12461E+04-4.20252E+02-5.33224E+02
 -1      5008-6.51523E+03-7.09725E+02 9.82987E+00-1.93217E+04-2.77973E+02-5.68935E+02
 -1      5009-1.82002E+04-3.59770E+03 2.09544E+02-2.17237E+04-3.29583E+02-5.55447E+02
 -1      5010-1.37735E+04-7.10790E+03 3.42982E+02-3.05881E+04-4.44833E+02-6.06675E+02
 -1      5011-1.73298E+04-8.42285E+03-1.03223E+02-2.96283E+04-4.58204E+02-3.24070E+02
 -1      5012-2.76602E+04-5.96638E+03 3.06765E+02-2.42359E+04-4.70490E+02-6.56201E+02
 -1      5013-3.17927E+04-9.45220E+03-2.49690E+02-2.57087E+04-6.46889E+02-5.67530E+02
 -1      5014-3.21924E+03-2.26831E+03-5.38842E+02-2.86394E+04-4.10886E+02 1.52421E+02
 -1      5015-1.03648E+04-5.58510E+03-1.75544E+03-2.73939E+04-3.59945E+02 4.42235E+02
 -1      5016-1.99551E+04-9.24052E+03-3.76578E+03-2.54206E+04-6.38649E+02 5.60035E+02
 -1      5017-3.43476E+04-1.30883E+04-4.49755E+03-2.42862E+04-6.04656E+02 1.06173E+03
 -1      5018-2.40255E+04 1.67485E+03-2.77937E+01-6.71378E+03-3.37348E+02-6.35809E+02
 -1      5019-3.35913E+04 3.43952E+02 4.36321E+02-1.12854E+04-1.09399E+02-7.73223E+02
 -1      5020-4.08300E+04 3.49599E+03 2.32841E+02 4.35448E+03-1.91155E+02-4.10295E+02
 -1      5021-5.42603E+04 4.93116E+03 3.55206E+02 4.20866E+03-6.51832E+01-6.47073E+02
 -1      5022-4.72230E+04-1.40372E+03-3.63730E+01-1.53999E+04 1.18875E+02-1.03527E+03
 -1      5023-5.42298E+04-6.91894E+03-3.58524E+02-2.05115E+04-8.04979E+02-9.84149E+02
 -1      5024-6.63266E+04 6.06701E+03 3.57504E+02-1.64575E+03-3.29005E+01-1.02176E+03
 -1      5025-7.66939E+04 2.22187E+03-5.20936E+01-1.16174E+04-5.52335E+02-1.91821E+03
 -1      5026-6.10504E+04 3.57446E+03 6.41976E+01 1.40481E+04-2.14337E+02-3.80223E+02
 -1      5027-6.65994E+04 6.39451E+03 3.80332E+00 1.41581E+04 7.10078E+01-6.04898E+02
 -1      5028-7.54647E+04 2.26481E+03-5.08013E+01 1.46502E+04-5.69178E+01-2.91243E+02
 -1      5029-7.18915E+04 4.15893E+03 2.54692E+01 1.69636E+04-5.62591E+00-3.41291E+02
 -1      5030-7.68462E+04 9.20083E+03 3.99140E+02 1.58321E+04 2.10711E+02-1.00170E+03
 -1      5031-9.53404E+04 9.60653E+03-4.99968E+02 1.61475E+04 2.73783E+02-2.04245E+03
 -1      5032-6.94924E+04 5.31743E+03 5.45728E+02 2.18977E+04 1.78958E+02-8.34644E+02
 -1      5033-6.60438E+04 1.37011E+03 7.22391E+02 2.80477E+04 1.05051E+03-1.90000E+03
 -1      5034-5.45711E+04-1.76072E+04-7.98873E+03-2.27405E+04-5.72745E+02 1.58852E+03
 -1      5035-9.14785E+04-2.36870E+04-1.41651E+04-2.15637E+04-1.71417E+03 2.43520E+03
 -1      5036-1.30039E+05 1.00007E+03-8.37586E+03 1.95384E+04 2.74519E+02-1.69770E+03
 -1      5037-4.11435E+04-2.32870E+04 1.30671E+03 3.41440E+04 2.73111E+03-2.89891E+03
 -1      5038-5.19112E+04-2.23782E+02 1.03132E+02-2.53049E+04 6.67803E+01-1.46171E+03
 -1      5039-6.30522E+04 1.14552E+03 1.25990E+01-2.14878E+04 1.46459E+02-2.14975E+03
 -1      5040-5.20436E+04-4.36203E+02-4.77751E+01-2.14823E+04 8.77666E+00-1.88140E+03
 -1      5041-6.34746E+04 8.48406E+02-4.08195E+02-2.07268E+04 8.18086E+01-2.22204E+03
 -1      5042-7.86316E+04 1.36491E+03-6.20682E+02-1.79839E+04-1.78479E+02-2.37086E+03
 -1      5043-9.02495E+04 2.29657E+03-4.84692E+02-1.71324E+04-4.32155E+02-2.25260E+03
 -1      5044-7.96184E+04 4.48630E+02-1.31220E+03-1.72425E+04 3.28842E+02-1.97769E+03
 -1      5045-9.14956E+04 1.61728E+03-8.65834E+02-1.53521E+04 1.40444E+02-1.78865E+03
 -1      5046-1.03402E+05 2.65237E+03-1.14672E+03-1.34794E+04-3.28098E+02-1.90937E+03
 -1      5047-1.09096E+05 2.93042E+03-1.09751E+03-1.23831E+04-4.70137E+02-1.19925E+03
 -1      5048-1.03210E+05 1.98285E+03-1.24261E+03-1.22339E+04 2.31339E+02-2.03253E+03
 -1      5049-1.11526E+05 2.74560E+03-1.27023E+03-1.00414E+04-1.76035E+02-1.52557E+03
 -1      5050-1.14693E+05 2.48375E+03-8.45041E+02-8.11090E+03-4.90458E+02-1.11640E+03
 -1      5051-1.17795E+05 3.44850E+03-4.45261E+02-4.54874E+03-3.72361E+02-1.15541E+03
 -1      5052-1.19047E+05 2.91463E+03-1.17865E+03-4.78725E+03 2.03256E+01-2.00673E+03
 -1      5053-1.19387E+05 3.06949E+03-1.01654E+03-3.77091E+03-4.05572E+01-1.83889E+03
 -1      5054-1.25843E+05 2.23418E+03-7.29553E+02-1.21440E+03-6.96719E+02-1.06838E+03
 -1      5055-1.16280E+05 2.21518E+03-5.70141E+02 8.22742E+02-6.48570E+02-6.47483E+02
 -1      5056-1.20608E+05 2.21165E+03-1.22277E+03-4.25599E+02 1.84588E+02-1.25643E+03
 -1      5057-1.20231E+05 1.68722E+03-1.07420E+03 1.41138E+03-1.05854E+02-8.96754E+02
 -1      5058-1.19699E+05 1.54835E+03-9.42944E+02 2.98293E+03-4.62666E+02-6.46451E+02
 -1      5059-1.20208E+05 1.25784E+03-9.81139E+02 4.07490E+03-4.34439E+02-6.41301E+02
 -1      5060-1.18893E+05 1.54944E+03-7.29696E+02 3.29992E+03 2.56704E+02-1.22785E+03
 -1      5061-1.18588E+05 1.10748E+03-8.18990E+02 4.52143E+03 2.14777E+02-7.25644E+02
 -1      5062-1.16559E+05 1.29644E+03-8.40553E+02 5.30069E+03-2.46905E+02-3.46524E+02
 -1      5063-1.11064E+05 7.32196E+02-8.56712E+02 5.83456E+03-3.54573E+02-2.97479E+02
 -1      5064-1.15564E+05 1.00510E+03-6.36193E+02 5.60215E+03 1.09311E+02-6.81789E+02
 -1      5065-1.11778E+05-3.29863E+02-1.13562E+03 5.98916E+03 2.67057E+02-7.81738E+02
 -1      5066-1.04709E+05 6.47436E+02-4.58546E+02 6.87986E+03-3.98297E+02-2.58332E+02
 -1      5067-9.73217E+04 2.68104E+02-4.94488E+02 7.68028E+03-2.54287E+02-1.36119E+02
 -1      5068-1.05251E+05 2.96051E+02-6.11775E+02 7.17764E+03 1.73697E+02-9.84870E+02
 -1      5069-9.97619E+04 2.48789E+02-3.97770E+02 7.24042E+03 1.36570E+02-1.04641E+03
 -1      5070-9.16189E+04 8.39405E+02-2.80323E+02 8.32431E+03-1.49473E+02-1.91794E+00
 -1      5071-8.40777E+04 1.08526E+03-2.16447E+02 9.33212E+03-1.49019E+02-1.37220E+01
 -1      5072-9.32939E+04 5.17262E+02-5.26337E+02 7.87416E+03-2.03605E+01-9.41657E+02
 -1      5073-8.61431E+04 6.69060E+02-5.40866E+02 9.45479E+03 2.01323E+02-7.53200E+02
 -1      5074-7.71229E+04 1.19223E+03-9.14923E+01 1.06803E+04-8.61726E+01 9.27998E+01
 -1      5075-6.93900E+04 1.49948E+03-1.57019E+02 1.18325E+04 1.70333E+02 1.36115E+02
 -1      5076-7.91438E+04 9.65608E+02-4.20549E+02 1.06378E+04 3.01585E+01-6.04523E+02
 -1      5077-7.23520E+04 1.39336E+03-9.45371E+01 1.24594E+04 2.15984E+02-5.03943E+02
 -1      5078-6.38381E+04 2.31209E+03 4.47494E+02 1.46646E+04 2.88238E+02-1.10913E+02
 -1      5079-5.43068E+04 1.77140E+03 9.42269E+02 1.54250E+04 6.07004E+02 1.17014E+02
 -1      5080-6.43773E+04 2.15156E+03 5.58531E+02 1.42326E+04 1.31852E+02-5.40740E+02
 -1      5081-5.67344E+04 1.01030E+03 7.90906E+02 1.62083E+04 3.33050E+02-5.59197E+02
 -1      5082-4.53311E+04 7.02977E+02 1.05476E+03 1.72912E+04 1.10712E+03-2.58441E+02
 -1      5083-2.94951E+04-5.13552E+03 1.36155E+03 1.55758E+04 1.31948E+03-2.39684E+02
 -1      5084-4.52129E+04 7.08040E+02 2.45396E+03 1.67695E+04 7.12801E+02-7.00411E+02
 -1      5085-3.12042E+04-5.58186E+03 2.09284E+03 1.59873E+04 1.22281E+02-4.44040E+01
 -1      5086-2.14006E+03-4.50810E+02-5.34943E+01 1.28823E+03-2.29645E+02 5.54394E+02
 -1      5087-2.75461E+03-5.52143E+02 5.26990E+00 1.61843E+03-1.21751E+02 3.85936E+02
 -1      5088-2.54695E+03-3.09064E+02-6.85643E+01 1.26274E+03-1.93854E+02 6.60931E+02
 -1      5089-2.74407E+03-7.11956E+01 4.27554E+01 1.50428E+03-1.90352E+02 5.98681E+02
 -1      5090-3.05698E+03-4.97106E+02 6.21773E+00 1.70068E+03-9.53643E+01 4.19495E+02
 -1      5091-3.74152E+03-3.22710E+02-5.08051E+01 1.96625E+03-1.39012E+02 4.35224E+02
 -1      5092-3.17991E+03-7.89658E+01-6.89764E+01 1.67618E+03-1.65126E+02 6.18881E+02
 -1      5093-4.00289E+03-4.99809E+01 3.94068E+01 1.92859E+03-6.42509E+01 6.30703E+02
 -1      5094-4.01249E+03-3.83288E+02-1.51904E+02 2.25820E+03-1.67194E+02 4.53551E+02
 -1      5095-4.03811E+03-5.10255E+02-1.13654E+02 3.02238E+03-2.61835E+02 4.43230E+02
 -1      5096-5.23514E+03-1.21849E+02-1.28344E+02 2.28404E+03-4.99371E+01 8.29394E+02
 -1      5097-6.73407E+03-3.00210E+02-3.25357E+02 2.95879E+03-1.21946E+02 8.27984E+02
 -1      5098-6.16692E+03-3.92276E+02-1.68588E+02 3.06500E+03-1.68555E+02 5.93213E+02
 -1      5099-8.45325E+03-2.15400E+02-1.65317E+02 3.36744E+03-9.79978E+01 7.94346E+02
 -1      5100-8.37580E+03-1.17160E+02-1.29367E+02 3.25673E+03-5.35199E+01 9.79684E+02
 -1      5101-9.45023E+03 2.86191E+02-3.92409E+01 3.52828E+03-2.00042E+02 7.49046E+02
 -1      5102-9.77282E+03-8.04515E+01-2.09833E+02 3.86261E+03-1.00368E+02 7.73557E+02
 -1      5103-1.23425E+04 4.13695E+02-3.84849E+02 3.94769E+03-3.24072E+02 1.06527E+03
 -1      5104-1.07823E+04 3.09564E+02-4.86507E+02 2.98885E+03-7.75948E+01 9.28319E+02
 -1      5105-1.23268E+04 1.83798E+02-6.42597E+02 3.13273E+03-1.19876E+02 8.82269E+02
 -1      5106-1.38716E+04 5.67671E+02-1.43792E+02 3.97223E+03-4.56314E+02 8.94125E+02
 -1      5107-1.55313E+04 3.30728E+02-3.40107E+02 3.57484E+03-4.80722E+02 1.01827E+03
 -1      5108-1.39591E+04 1.53051E+02-6.28771E+02 2.03029E+03-2.66887E+02 1.21401E+03
 -1      5109-1.49090E+04 8.70196E+02-9.32376E+02 1.40126E+03-2.49159E+02 1.26228E+03
 -1      5110-1.06638E+04 1.12127E+03 4.03763E+01 3.20107E+03-3.80199E+02 7.78367E+02
 -1      5111-1.47176E+04 1.20728E+03-6.81376E+02 2.10767E+03-5.81951E+02 1.06686E+03
 -1      5112-1.49403E+04 1.43891E+03-1.20305E+03-1.18460E+03-1.39616E+01 1.41501E+03
 -1      5113-1.35130E+04 1.18829E+03-1.61671E+03-2.36417E+03-3.32369E+02 1.54223E+03
 -1      5114-1.35690E+04 1.98510E+03-2.62263E+02 9.96853E+01-6.47351E+02 8.89888E+02
 -1      5115-1.49289E+04 1.81225E+03-7.77363E+02-1.50638E+03-5.02615E+02 9.33305E+02
 -1      5116-8.96714E+03 1.90690E+03-9.05036E+02-5.23149E+03-1.74048E+02 1.67523E+03
 -1      5117-4.47162E+03 1.94212E+03-6.21551E+02-7.07320E+03-1.66562E+02 1.66030E+03
 -1      5118-1.30896E+04 1.80816E+03-1.14872E+03-3.87287E+03-1.83537E+02 1.05173E+03
 -1      5119-4.54813E+03 2.17101E+03-9.60143E+02-6.73307E+03-2.86866E+02 4.81333E+02
 -1      5120 4.93634E+03 2.33163E+03-5.43992E+02-1.06646E+04-7.86889E+00 1.78284E+03
 -1      5121 1.49378E+04 1.29938E+03-1.21711E+03-1.32246E+04-7.66458E+00 1.58476E+03
 -1      5122 5.89088E+03 3.05188E+03-3.41287E+02-1.09179E+04-7.34456E+02 5.32294E+02
 -1      5123 1.47625E+04 1.94878E+03-1.01175E+03-1.29710E+04-4.95311E+02 6.68026E+02
 -1      5124 2.88849E+04 2.05865E+03-5.18168E+02-1.73738E+04 1.03616E+02 1.55269E+03
 -1      5125 3.99086E+04 7.18080E+02-6.82703E+02-1.95534E+04 2.06527E+02 1.66566E+03
 -1      5126 2.78741E+04 1.81543E+03-4.15369E+02-1.54581E+04-3.25333E+02 5.55122E+02
 -1      5127 4.10761E+04 1.20130E+03-3.48943E+02-1.98940E+04-3.05169E+02 7.51310E+02
 -1      5128 9.00862E+01-9.50410E+02-1.35649E-01 4.35115E+02-1.62376E+02-5.67405E+01
 -1      5129 7.28008E+02-4.99325E+02-3.85860E+00-2.66657E+02-1.52650E+02-1.07083E+02
 -1      5130-3.33168E+02-1.61816E+03-9.23895E-01 9.67848E+02-7.14495E+01-2.86573E+01
 -1      5131 4.86101E+02-1.15650E+03-2.12157E+01 5.15056E+01-6.97301E+01-8.02343E+01
 -1      5132 1.23262E+03 6.22944E+02-4.55064E+01-1.40621E+03-4.80300E+01-1.22573E+02
 -1      5133 2.60716E+03 4.69198E+03-3.69775E+01-5.68013E+03-2.77091E+02-6.58327E+01
 -1      5134-1.00422E+03-8.27079E+02-5.45721E+01 1.10801E+03-3.10903E+02 2.91394E+02
 -1      5135-2.54097E+02-1.04866E+03-8.41495E+01 7.29866E+02-2.34509E+02 1.40447E+02
 -1      5136 6.55342E+02-6.01073E+02 7.77765E+01 5.89666E+02-2.83370E+02 8.70877E+01
 -1      5137-1.44488E+03-1.20915E+03-1.09741E+01 1.56089E+03-1.83125E+02 1.73646E+02
 -1      5138-5.22209E+02-1.52458E+03-5.59471E+01 1.10327E+03-1.55289E+02 6.02907E+01
 -1      5139 1.99683E+02-1.09315E+03 8.88400E+00 9.95128E+02-1.89119E+02 1.23197E+02
 -1      5140 1.10485E+03-9.98370E+02-1.19520E+02 8.11060E+02-2.69184E+02 1.71276E+02
 -1      5141 2.50344E+03-5.49751E+02-1.75832E+01-1.08161E+03-2.86868E+02-1.28622E+01
 -1      5142 4.91541E+03-1.35310E+03 7.06735E+01-9.41102E+02-2.12149E+02-1.45002E+01
 -1      5143 2.21930E+03-8.91416E+02-6.20091E+01 1.30409E+03-2.76858E+02 2.32644E+02
 -1      5144 2.53605E+03-1.15465E+03-1.74736E+02 2.67895E+03-2.52894E+02 2.46164E+02
 -1      5145 8.13088E+03-2.25509E+03 7.68231E+00-6.06268E+02-1.87257E+02-9.96481E+01
 -1      5146 1.12924E+04-2.71439E+03 1.01579E+00 8.43802E+02-1.55133E+02-7.80969E+01
 -1      5147 4.46949E+03 5.33835E+02 8.40860E+01-3.99691E+03-3.18292E+02-2.46333E+02
 -1      5148 8.51647E+03-1.57180E+03-4.37637E+01-4.23447E+03-2.26620E+02-7.54731E+01
 -1      5149 8.05102E+03 1.49627E+03-3.40645E+01-8.81613E+03-3.27703E+02-1.80627E+02
 -1      5150 1.29207E+04-1.78821E+03 5.04586E+01-9.73026E+03-3.47490E+02 1.55478E+00
 -1      5151 1.36636E+04-3.17075E+03 7.25709E+00-4.15872E+03-2.15560E+02-1.40934E+02
 -1      5152 1.89928E+04-4.11660E+03 5.19401E+01-3.41142E+03-1.65664E+02-1.01025E+02
 -1      5153 1.88318E+04-4.12619E+03 1.05648E+02-9.06084E+03-1.10570E+02-1.26675E+02
 -1      5154 2.39443E+04-4.23204E+03 1.40720E+01-9.03841E+03-6.36204E+01-1.67524E+02
 -1      5155 3.90606E+03 1.19428E+04-9.22298E+02-9.98211E+03-1.52299E+03 3.19740E+02
 -1      5156 8.31808E+03 2.32048E+04-3.36003E+03-1.71954E+04-5.28064E+03 2.05267E+03
 -1      5157 1.25993E+04 3.06692E+04 8.49329E+02-2.27208E+04-1.51448E+04 7.76901E+03
 -1      5158 3.52511E+02-4.32472E+03-4.76905E+03-1.70692E+04-1.34064E+04 2.75013E+03
 -1      5159 1.12000E+04 3.64087E+03-3.68077E+02-1.50418E+04-7.33438E+02 4.00406E+02
 -1      5160 1.59512E+04-2.37558E+03-9.94379E+01-1.46920E+04-2.34401E+02 2.94411E+02
 -1      5161 1.45109E+04 3.35713E+03-2.06263E+03-2.00940E+04-1.48074E+03 1.80671E+03
 -1      5162 1.73693E+04-3.88422E+03-4.75831E+02-1.79113E+04-1.84986E+01 8.21668E+02
 -1      5163 2.00698E+04-4.98148E+03 2.64106E+01-1.38237E+04 4.18616E+01 1.51386E+02
 -1      5164 2.49084E+04-4.18785E+03 1.17727E+02-1.39788E+04 1.16075E+02-1.20001E+02
 -1      5165 1.89062E+04-5.04054E+03 3.19720E+00-1.69429E+04 3.30384E+02 2.57915E+02
 -1      5166 2.08422E+04-3.70868E+03 4.06218E+01-1.72027E+04 3.58200E+02-4.04949E+01
 -1      5167 1.69695E+04-9.11933E+02-4.01090E+02-1.96689E+04-5.08884E+02 3.20357E+03
 -1      5168 1.43754E+04-5.10454E+03-5.49419E+02-1.73254E+04 8.08511E+02 1.16076E+03
 -1      5169 2.65328E+03-6.67817E+03-1.66121E+02-1.43470E+04 6.57635E+02 3.78298E+02
 -1      5170 2.47085E+03-2.99398E+03 5.62081E+01-1.55382E+04 9.42534E+02-1.13584E+02
 -1      5171 1.30070E+04-4.41191E+03-4.53019E+01-1.78496E+04 5.83728E+02 3.09926E+02
 -1      5172 1.42633E+04-2.06770E+03 1.15580E+01-1.89127E+04 5.10337E+02 1.96230E+01
 -1      5173 2.47725E+03-1.84304E+03 2.04837E+01-1.79599E+04 6.98686E+02-8.32254E+01
 -1      5174 3.62296E+03-4.73613E+02 2.17894E+01-1.95661E+04 5.74825E+02-4.54939E+01
 -1      5175 2.68630E+03-1.08886E+03-4.72483E+01 4.09463E+03-2.06818E+02 2.14105E+02
 -1      5176 1.90656E+03-7.60487E+02-1.06871E+02 4.41600E+03-1.39121E+01 3.64241E+02
 -1      5177 1.71937E+04-1.96941E+03-1.82233E+01 1.24435E+03-2.62203E+02-9.87072E+01
 -1      5178 1.98533E+04-6.82103E+00-1.12941E+02 1.99883E+03-3.99200E+02-1.46754E+02
 -1      5179 5.16171E+03 1.02553E+03-1.81122E+02 3.36350E+03-2.19606E+02 3.53497E+02
 -1      5180 8.02643E+03 3.47828E+03-2.57373E+02 1.05373E+03-4.25300E+02 2.25978E+02
 -1      5181 2.35992E+04 2.80495E+03-3.35680E+02 1.11317E+03-3.56282E+02-8.44034E+01
 -1      5182 3.15971E+04 8.42362E+03-4.13517E+01-5.08219E+03-3.44243E+02-7.22016E+01
 -1      5183 2.41534E+04-2.96440E+03-1.84979E+02-3.18090E+03-1.77032E+02-2.64492E+02
 -1      5184 3.07860E+04 1.28102E+03-4.41690E+01-3.44888E+03-5.39456E+02-5.94674E+02
 -1      5185 2.92691E+04-2.22603E+03-5.69380E+01-9.38401E+03-1.46711E+02-2.30643E+02
 -1      5186 3.69342E+04 4.61110E+03 2.56797E+02-1.28246E+04-4.19329E+02-5.45993E+02
 -1      5187 4.15393E+04 8.86527E+03 2.11021E+02-1.02548E+04-6.75976E+02-5.69650E+02
 -1      5188 5.34897E+04 1.80748E+04 1.68836E+01-1.79860E+04-8.29424E+02-6.88886E+02
 -1      5189 4.64220E+04 1.65733E+04 3.14532E+02-2.01352E+04-5.29984E+02-7.24406E+02
 -1      5190 6.18687E+04 3.17807E+04 2.97699E+02-3.35125E+04-6.02405E+02-7.41153E+02
 -1      5191 1.38483E+04 7.00336E+03 9.76286E+01-5.70849E+03-6.34867E+02 2.73332E+02
 -1      5192 2.02001E+04 8.18158E+03-1.95518E+02-1.56579E+04-3.34000E+02 5.23135E+02
 -1      5193 4.20193E+04 1.46139E+04-1.14114E+02-1.27825E+04-7.41975E+02-3.90549E+02
 -1      5194 5.38425E+04 1.81435E+04-2.48657E+02-2.23928E+04-5.88454E+02-1.96568E+02
 -1      5195 2.91501E+04 7.42074E+03-5.08603E+01-2.30615E+04-4.98606E+02 5.42200E+02
 -1      5196 4.30311E+04 5.37135E+03-9.95374E+01-3.06957E+04-3.07925E+02 5.22454E+02
 -1      5197 6.57184E+04 1.69882E+04-2.03036E+02-3.02845E+04-3.75410E+02 1.57659E+02
 -1      5198 6.09273E+04 8.34364E+03 1.85791E+02-3.27645E+04-2.98487E+02 3.94732E+02
 -1      5199 7.03999E+04 2.54730E+04-1.32415E+02-2.84980E+04-4.73734E+01-4.44237E+02
 -1      5200 8.65743E+04 2.87935E+04 1.97613E+03-3.56634E+04 1.69378E+02-6.83407E+02
 -1      5201 9.89055E+04 2.39987E+04 1.42350E+03-3.92637E+04 4.15712E+01-8.28796E+02
 -1      5202 7.85858E+04 2.44064E+04 5.91815E+02-3.17288E+04-1.20972E+03-3.15879E+02
 -1      5203 9.72949E+04 2.28738E+04 1.29068E+03-3.84070E+04-9.88387E+02-3.88184E+02
 -1      5204 9.78378E+04 2.92481E+04 5.21057E+02-4.55188E+04-3.79887E+02-1.17074E+03
 -1      5205 7.62834E+04 4.03981E+04-7.26267E+01-4.63848E+04-8.96895E+02-9.00864E+02
 -1      5206 7.89341E+04 4.11097E+04 9.64620E+02-4.96852E+04-4.53685E+02-1.29224E+03
 -1      5207 1.08678E+05 1.95072E+04 3.01026E+03-3.95465E+04 2.29722E+02-1.10365E+03
 -1      5208 1.04349E+05 1.90278E+04 2.21243E+03-3.70951E+04-8.41894E+02-1.51173E+02
 -1      5209 2.87388E+04-8.02479E+02 8.82995E+00-1.48046E+04 6.69226E+01-3.01837E+02
 -1      5210 3.42690E+04 1.01842E+04 6.50666E+01-1.88276E+04-1.36977E+02-5.93892E+02
 -1      5211 2.35151E+04 1.74038E+03 4.80431E+01-1.83690E+04 2.22642E+02-2.02181E+02
 -1      5212 2.44534E+04 1.48285E+04-7.48910E+01-2.06980E+04-1.45897E+02-1.92102E+02
 -1      5213 3.84438E+04 2.56654E+04-1.15878E+02-2.65988E+04-4.73536E+02-5.54662E+02
 -1      5214 4.71809E+04 4.77373E+04 1.65415E+03-4.20738E+04-7.98918E+02-1.43627E+02
 -1      5215 4.67200E+04 4.15548E+04-5.41635E+02-3.87470E+04 1.15578E+02-9.69908E+02
 -1      5216 2.72706E+04 3.16910E+04 7.86787E+02-2.54187E+04-1.94164E+02-7.90463E+01
 -1      5217 1.62805E+04 3.34384E+04-3.63819E+02-2.17379E+04-5.21146E+02 1.19356E+02
 -1      5218 2.51378E+04 2.88910E+04 6.00202E+02-2.37659E+04-3.08529E+02-5.23610E+02
 -1      5219 2.34363E+04 4.28958E+04-1.87405E+02-2.89925E+04-7.27990E+01-1.10405E+02
 -1      5220 1.59712E+04 3.40672E+04-5.41391E+01-2.14101E+04-2.66169E+02-2.43327E+02
 -1      5221 1.49452E+04 2.64693E+03-5.91345E+01-1.90485E+04 3.01680E+02-1.08759E+02
 -1      5222 1.27296E+04 1.47734E+04 7.89938E+01-1.75496E+04 3.49343E+01-1.85108E+02
 -1      5223 4.44039E+03 1.89410E+03 1.67836E+01-1.98125E+04 3.87832E+02-4.82225E+01
 -1      5224 3.54392E+03 7.35148E+03-1.74105E+01-1.40482E+04-2.17249E+02-9.13763E+01
 -1      5225 1.09436E+04 3.11189E+04 1.50121E+02-1.74541E+04-6.14784E+02 4.92686E+02
 -1      5226 6.29513E+03 2.77557E+04 3.19195E+02-1.21178E+04-1.13622E+03 5.98797E+02
 -1      5227 1.07328E+04 2.85720E+04 7.35279E+01-1.64191E+04-1.52150E+02-8.32204E+01
 -1      5228 5.37278E+04 1.18405E+03 4.67844E+02-1.99665E+04-1.58707E+02 1.64142E+03
 -1      5229 6.40740E+04-8.01182E+02 1.04834E+02-1.78673E+04 1.58777E+02 1.66121E+03
 -1      5230 5.03401E+04 4.56173E+02-1.07307E+02-1.90902E+04-1.68676E+02 4.85027E+02
 -1      5231 6.48992E+04-2.16494E+02 2.51210E+02-1.63288E+04 1.97853E+02 2.82423E+02
 -1      5232 8.01402E+04 9.01462E+01 1.10373E+03-1.60031E+04 9.80616E+01 1.58261E+03
 -1      5233 9.15288E+04-1.75960E+03 1.03244E+03-1.44230E+04-3.83310E+01 1.59396E+03
 -1      5234 7.84565E+04-6.02705E+02 6.35260E+02-1.62053E+04 2.79773E+02 1.90927E+02
 -1      5235 9.17875E+04-2.20701E+03 4.45800E+02-1.50458E+04 6.29250E+02 1.52343E+02
 -1      5236 1.04029E+05-1.70597E+03 1.30089E+03-1.12882E+04-1.95932E+02 1.55873E+03
 -1      5237 1.11772E+05-2.62487E+03 5.32748E+02-9.19030E+03 1.67667E+02 1.60110E+03
 -1      5238 1.04041E+05-2.45279E+03 9.80414E+02-1.13121E+04 4.80142E+02 1.74199E+02
 -1      5239 1.14552E+05-2.57749E+03 8.89921E+02-8.24528E+03 3.17036E+02 5.24494E+02
 -1      5240 1.18375E+05-1.58563E+03 1.45462E+03-5.81345E+03 1.38536E+02 1.47546E+03
 -1      5241 1.21030E+05-3.04097E+03 1.02534E+03-3.35027E+03 2.68915E+02 1.23875E+03
 -1      5242 1.20673E+05-2.91422E+03 2.56238E+02-4.96560E+03 2.77310E+02 5.79240E+02
 -1      5243 1.20418E+05-3.65038E+03 5.08501E+02-3.25701E+03 1.09381E+03 1.08448E+03
 -1      5244 1.19176E+05-3.59919E+03 1.00550E+03-1.31319E+02 1.11226E+02 1.13883E+03
 -1      5245 1.16541E+05-3.36067E+03 7.57556E+02 2.01370E+03 1.26844E+02 1.33381E+03
 -1      5246 1.21200E+05-2.97890E+03 1.39900E+03 5.81762E+02 1.26406E+03 1.08937E+03
 -1      5247 1.16657E+05-2.59228E+03 9.37464E+02 1.85292E+03 9.79430E+02 1.04708E+03
 -1      5248 1.19600E+05-1.38422E+03 1.25884E+03 4.04633E+03-3.34616E+02 1.18635E+03
 -1      5249 1.17510E+05-2.08756E+02 1.11020E+03 5.21889E+03-2.12628E+02 1.19873E+03
 -1      5250 1.21927E+05-8.87890E+02 7.09088E+02 4.86022E+03 1.17427E+03 1.09364E+03
 -1      5251 1.21139E+05-1.02817E+03 5.26590E+02 6.10527E+03 4.93068E+02 1.04938E+03
 -1      5252 1.15852E+05-6.43639E+02 7.11260E+02 6.25867E+03-9.88046E+01 1.11396E+03
 -1      5253 1.11717E+05-2.06060E+02 4.97653E+02 6.59923E+03 4.14925E+01 1.20821E+03
 -1      5254 1.20384E+05-6.62953E+02 1.19058E+03 6.78343E+03 3.03884E+02 1.07890E+03
 -1      5255 1.12489E+05-7.22219E+02 3.69732E+02 7.74620E+03 3.06358E+02 9.48694E+02
 -1      5256 1.05499E+05-2.78233E+02 4.50558E+02 7.64179E+03 1.35646E+02 1.00933E+03
 -1      5257 9.99737E+04-7.92116E+01 4.78084E+02 7.50106E+03 6.37228E+00 1.10195E+03
 -1      5258 1.07996E+05-1.85621E+02 5.42784E+02 8.18766E+03 1.91618E+02 1.13633E+03
 -1      5259 1.00153E+05-3.72659E+02 5.04866E+02 9.03542E+03 1.59159E+02 1.03980E+03
 -1      5260 9.33025E+04-6.61875E+02 2.00890E+02 8.32151E+03-7.85464E+00 9.89014E+02
 -1      5261 8.74177E+04-5.49020E+02 4.97988E+02 8.67670E+03-2.81326E+01 8.30064E+02
 -1      5262 9.46119E+04-7.21616E+02 2.46744E+02 9.47341E+03 2.53291E+02 1.20742E+03
 -1      5263 8.73078E+04-8.10662E+02 3.26926E+02 1.04175E+04 1.75365E+02 1.04948E+03
 -1      5264 8.00288E+04-1.03348E+03 3.83284E+02 9.86448E+03 8.96918E+01 6.37364E+02
 -1      5265 7.39324E+04-7.82918E+02 7.82979E+02 1.22534E+04 1.30085E+02 6.03020E+02
 -1      5266 8.02483E+04-1.18376E+03 2.91093E+02 1.18319E+04 1.40140E+02 1.13141E+03
 -1      5267 7.26576E+04-1.21748E+03 4.08063E+02 1.31299E+04 6.85494E+01 1.01437E+03
 -1      5268 6.36676E+04-2.13187E+03-5.49509E+02 1.39008E+04 2.62268E+02 5.63665E+02
 -1      5269 5.59323E+04-8.48805E+02-5.32356E+02 1.48000E+04 1.87857E+02 1.95317E+02
 -1      5270 6.38061E+04-1.51500E+03-7.27814E+02 1.38445E+04 1.98842E+02 9.55063E+02
 -1      5271 5.71508E+04-1.18052E+03-6.14041E+02 1.70230E+04-2.47838E+02 7.50716E+02
 -1      5272 4.35064E+04-3.94673E+02-2.24561E+03 1.63233E+04 1.44855E+02 2.44166E+02
 -1      5273 2.85846E+04 6.02749E+03-2.22794E+03 1.49567E+04-1.58793E+02 6.44471E+02
 -1      5274 4.70010E+04-1.79664E+02-1.03646E+03 1.76151E+04-3.57605E+02 6.05757E+02
 -1      5275 3.40528E+04 5.61526E+03-3.27295E+02 1.70706E+04-3.79139E+02 8.13776E+01
 -1      5276 5.43880E+04-8.93329E+02-8.57374E+01-3.26886E+04 1.22132E+02 5.76117E+02
 -1      5277 6.54292E+04-6.48993E+03 1.53136E+02-2.98871E+04 3.43091E+02 5.39367E+02
 -1      5278 4.88484E+04-9.31316E+02 2.77939E+02-3.22935E+04 5.21672E+01 5.24863E+02
 -1      5279 3.49686E+04-1.19564E+04-2.88810E+02-3.04206E+04 5.12460E+02 2.82846E+02
 -1      5280 7.95338E+04-8.45862E+03 3.65535E+02-1.94217E+04 5.61491E+02 4.20434E+02
 -1      5281 7.91671E+04-1.13139E+04-2.04744E+02-1.20307E+04 1.54097E+03 5.52636E+02
 -1      5282 2.94577E+04-2.02583E+04 5.08340E+01-2.46386E+04 1.01121E+03 1.52904E+02
 -1      5283 3.87827E+04-2.15509E+04 3.94598E+02-1.42982E+04 1.10728E+03-1.24218E+02
 -1      5284-1.35827E+04-1.47107E+04-2.50965E+03-2.44828E+04-1.90867E+02-8.26646E+02
 -1      5285-1.50840E+04-1.45121E+04-2.17416E+03-2.31560E+04 2.10682E+02 1.03581E+03
 -1      5286-1.32252E+04-2.15076E+04-1.60437E+03-2.67133E+04 2.94961E+02-7.68843E+01
 -1      5287-1.26771E+04-2.67033E+04-1.14156E+03-2.78954E+04 9.63325E+02 2.36393E+02
 -1      5288-1.48056E+04-1.99911E+04-1.14781E+03-2.69129E+04 1.29677E+03 4.41388E+02
 -1      5289-2.63734E+03-2.54771E+04-3.15503E+02-2.46990E+04 1.53199E+03-5.72505E+01
 -1      5290-3.92845E+04-2.61055E+04-1.61170E+03-3.31167E+04 1.38593E+03 1.08807E+02
 -1      5291-7.62162E+03-3.18534E+04-1.89959E+02-2.35054E+04 9.78623E+02-1.20579E+01
 -1      5292-5.13024E+04-4.51122E+04-2.41659E+03-4.71433E+04-3.17069E+02-1.27660E+02
 -1      5293-4.27765E+04-4.21463E+04-1.17769E+02-3.93152E+04 1.57799E+03-6.19113E+02
 -1      5294 8.49256E+04-7.69039E+03-4.82395E+01 2.20697E+02 5.98161E+02 4.44197E+02
 -1      5295 9.01176E+04-4.27451E+03 3.30749E+02 7.49147E+03 4.26658E+02 4.11153E+02
 -1      5296 4.48414E+04-1.74337E+04 2.16088E+02-2.77343E+03 9.05514E+02-2.41541E+02
 -1      5297 4.99986E+04-1.11995E+04 2.38725E+02 5.53364E+03 4.87851E+02 3.37690E+01
 -1      5298 8.71339E+04-2.32722E+03-1.36360E+02 1.23541E+04 2.87348E+02 3.54718E+02
 -1      5299 8.26160E+04-1.34513E+03 2.19077E+02 1.44735E+04 1.54376E+02 3.20156E+02
 -1      5300 5.49276E+04-5.52706E+03 1.54908E+02 1.24430E+04 7.35934E+02-1.88071E+02
 -1      5301 5.37354E+04-3.96156E+03-1.27213E+02 1.35513E+04 4.39380E+02-1.18658E+02
 -1      5302 8.42323E+02-2.89816E+04-3.61660E+02-1.13998E+04 7.87638E+02-7.03947E+02
 -1      5303 1.19724E+04-2.07159E+04-1.09015E+03-2.89547E+03 7.59441E+02-4.67578E+02
 -1      5304-3.05521E+04-4.51426E+04-7.37580E+02-2.86216E+04 7.23051E+02-6.32768E+02
 -1      5305-1.33568E+04-2.97810E+04 4.08503E+01-1.35202E+04 6.08733E+02-1.08392E+03
 -1      5306 2.61063E+04-8.56526E+03 3.59383E+02 6.45397E+03 4.36423E+02-2.55399E+02
 -1      5307 3.43911E+04-4.17197E+03 1.81900E+02 7.88115E+03 1.80226E+02-4.31019E+02
 -1      5308 6.03215E+02-1.41039E+04-2.00786E+02-4.74378E+03 2.92880E+02-9.27974E+02
 -1      5309 1.35510E+04-4.15832E+03 2.00801E+01-2.96019E+03 1.13820E+02-5.73047E+02
 -1      5310-4.48492E+04-6.89840E+04-1.75755E+03-5.09864E+04 9.95557E+02 4.97706E+02
 -1      5311-4.27782E+04-5.93526E+04-9.95846E+02-4.33024E+04 7.69217E+02-1.50176E+03
 -1      5312-3.02027E+04-4.55951E+04-9.46109E+01-3.01643E+04 4.05522E+02-5.67442E+02
 -1      5313-2.93294E+04-5.31325E+04-6.87890E+02-3.32026E+04 9.96194E+01-8.78365E+02
 -1      5314-2.35460E+04-5.59207E+04-7.19756E+02-3.51220E+04 2.31226E+02-4.88842E+02
 -1      5315-3.09295E+04-7.27857E+04-1.12338E+03-4.24193E+04 7.82611E+02-2.29793E+02
 -1      5316-2.96403E+04-5.26091E+04-2.14470E+03-3.24905E+04 1.10504E+03-1.64593E+03
 -1      5317-2.26678E+04-5.66573E+04-1.18079E+03-3.39661E+04-2.03494E+02-1.39148E+03
 -1      5318-1.72289E+04-2.03610E+04 4.97067E+02-1.86001E+04 1.58517E+02-1.05159E+03
 -1      5319-3.34447E+03-4.12434E+03-1.29320E+02-1.58723E+04 7.79530E+01-8.34343E+02
 -1      5320-2.17863E+04-2.44974E+04 2.45695E+01-2.90544E+04 1.64054E+02-8.09602E+02
 -1      5321-1.22272E+04-4.70083E+03 7.93786E+01-2.78518E+04-1.72613E+02-7.16620E+02
 -1      5322-1.79140E+04-5.92976E+04-1.81016E+03-3.33384E+04 7.25739E+02-1.63020E+02
 -1      5323-1.78017E+04-5.94845E+04-1.70034E+03-3.15118E+04-7.93901E+02-4.28917E+02
 -1      5324-1.55127E+04-2.34865E+04 1.46186E+00-3.26104E+04-1.48124E+02-3.84388E+02
 -1      5325-1.13042E+04-3.54791E+03 1.74631E+01-3.66472E+04-2.49727E+02-4.26115E+02
 -1      5326-5.64771E+03-1.00337E+04-1.83199E+02-3.20871E+04-4.74875E+01-1.57653E+02
 -1      5327-4.73214E+03-1.13539E+03 5.17595E+01-4.18290E+04-4.22052E+02-1.57395E+02
 -1      5328 7.84272E+04-1.92445E+03 7.53721E+01 1.60420E+04 1.05595E+02 2.67725E+02
 -1      5329 7.36580E+04-3.85108E+03-8.10951E+01 1.83445E+04 2.44276E+02 1.49931E+02
 -1      5330 5.97809E+04-2.96263E+03 2.55550E+01 1.46169E+04 2.46310E+02-3.93334E+01
 -1      5331 6.84204E+04-5.65550E+03-2.48413E+01 1.53422E+04 2.06376E+01-1.86097E+02
 -1      5332 7.04008E+04-5.14423E+03-4.11645E+02 2.31642E+04 1.53891E+02-3.86579E+02
 -1      5333 6.86067E+04-4.71362E+02-7.80799E+02 3.01748E+04-3.04918E+02-9.59669E+02
 -1      5334 7.91958E+04-8.58815E+03-1.71619E+02 1.41642E+04 2.78887E+02-5.23648E+02
 -1      5335 9.86284E+04-8.23741E+03 4.50903E+02 1.67795E+04 3.28103E+00-1.39146E+03
 -1      5336 4.33848E+04-2.43623E+03-1.77555E+02 6.94036E+03 7.36958E+01-5.01128E+02
 -1      5337 5.29535E+04-2.99649E+03-1.32850E+02 3.69916E+03 3.92623E+02-1.60414E+02
 -1      5338 2.39691E+04-4.33734E+02-5.63303E+00-4.79491E+03 1.17847E+02-6.97717E+02
 -1      5339 3.87716E+04 2.94731E+02-6.98475E+01-6.46726E+03-6.70977E+01-5.99007E+02
 -1      5340 6.89368E+04-3.95367E+03 1.11993E+02-1.54701E+03 8.74435E+01-5.06434E+02
 -1      5341 8.65162E+04-8.47749E+02 6.84567E+02-7.91014E+03 6.03412E+02-8.39302E+02
 -1      5342 5.00159E+04 1.81658E+03-6.89545E+02-1.32056E+04-1.68221E+02-5.57866E+02
 -1      5343 6.06613E+04 7.84742E+03 1.82709E+02-1.99178E+04 8.07660E+01-2.19059E+02
 -1      5344 3.53549E+04 2.61665E+04-2.08157E+03 3.35149E+04-1.62961E+03-1.36389E+03
 -1      5345 1.41451E+05 6.01699E+03 1.23410E+04 9.72013E+03 1.39040E+02 9.07624E+02
 -1      5346 1.05506E+05 2.23346E+04 1.38871E+04-1.92894E+04 8.10891E+01 4.12628E+03
 -1      5347 6.09379E+04 1.89216E+04 6.99632E+03-2.12193E+04-7.06525E+00 3.13270E+03
 -1      5348 9.18755E+03 2.21028E+03-1.41194E+02-1.71199E+04-1.29605E+02-8.08941E+02
 -1      5349 2.10803E+04 4.51562E+03-9.46189E+01-1.87849E+04-2.05141E+02-6.32707E+02
 -1      5350-1.11209E+03 3.20761E+03-1.18931E+02-2.93299E+04-1.92005E+02-5.27634E+02
 -1      5351 7.10795E+03 5.87839E+03-2.59379E+02-3.03664E+04-2.39314E+02-2.96371E+02
 -1      5352 3.09741E+04 6.83880E+03-3.71855E+02-2.18539E+04-8.47858E+01-4.20802E+02
 -1      5353 3.69744E+04 1.07772E+04 2.16748E+02-2.42041E+04 1.63912E+01-1.41246E+02
 -1      5354 1.53222E+04 7.74068E+03-1.79507E+02-2.90324E+04-1.76285E+02-2.33007E+02
 -1      5355 1.99552E+04 9.63046E+03 1.29233E+02-2.79144E+04-7.08613E+01-1.73493E+02
 -1      5356-3.92833E+03 2.78292E+03 4.26267E+01-3.72578E+04-2.92176E+02-3.28654E+02
 -1      5357 2.31416E+03 4.94781E+03-4.61369E+01-3.60827E+04-2.44691E+02-1.15480E+02
 -1      5358-1.72262E+03 1.10435E+03-5.58072E+01-4.18090E+04-3.21153E+02-8.30823E+01
 -1      5359 4.93793E+02 2.02558E+03 4.17541E+01-3.94195E+04-2.69962E+02-6.60700E+01
 -1      5360 6.83433E+03 5.91974E+03-8.39759E+01-3.36456E+04-1.63267E+02-1.35980E+02
 -1      5361 9.56349E+03 6.30902E+03 2.02260E+01-3.12714E+04-1.76403E+02-1.04216E+02
 -1      5362 2.05145E+03 2.10516E+03-5.30509E+01-3.61758E+04-1.09929E+02-6.48003E+01
 -1      5363 2.58142E+03 1.88569E+03 3.82172E+01-3.23143E+04-1.74884E+02-9.58860E+01
 -1      5364 3.71852E+04 1.42014E+04 5.07235E+03-2.35301E+04-2.63712E+02 1.81907E+03
 -1      5365 2.29322E+04 1.07119E+04 3.34765E+03-2.52913E+04 4.42616E+01 7.57517E+02
 -1      5366 1.10465E+04 5.91077E+03 1.76785E+03-2.67374E+04-3.78758E+01 5.36921E+02
 -1      5367 2.92433E+03 1.45316E+03 3.17263E+02-2.81022E+04-1.13835E+02 1.29614E+02
 -1      5368-1.18518E+04-5.88276E+04 1.91514E+03-3.12884E+04-1.89658E+04-1.09865E+04
 -1      5369-7.09150E+03-2.90532E+04 3.49800E+03-1.90542E+04-4.35964E+03-1.74615E+03
 -1      5370-3.79293E+03-1.74961E+04 5.95646E+02-1.12736E+04-1.23398E+03-2.29759E+02
 -1      5371-2.36957E+03-8.42629E+03 2.76377E+02-7.27056E+03-3.83119E+02 4.43334E+01
 -1      5372-1.44458E+04-5.15064E+03 1.94737E+03-1.97019E+04-2.21622E+02-3.07296E+03
 -1      5373-1.18285E+04-3.15941E+02 3.54437E+02-1.94042E+04 4.42911E+02-1.08498E+03
 -1      5374-1.40599E+04-9.74098E+03 1.18419E+03-2.21856E+04-1.06481E+03-1.51860E+03
 -1      5375-1.52445E+04-8.64172E+02 4.11359E+02-2.11913E+04 1.93177E+01-8.22279E+02
 -1      5376-8.97665E+03 1.19583E+03-3.68567E+01-1.97552E+04 5.88611E+02-4.46890E+02
 -1      5377-7.58909E+03 1.03558E+03-1.68844E+01-2.07697E+04 5.69595E+02-1.60248E+02
 -1      5378-1.56890E+04 1.94275E+03-1.18332E+02-2.10684E+04 3.73858E+02-3.60310E+02
 -1      5379-1.66262E+04 1.70669E+03 1.12653E+02-2.15690E+04 4.14320E+02-1.15179E+02
 -1      5380-9.07504E+03-9.21879E+03 3.37497E+02-1.72402E+04-6.71732E+02-2.34469E+02
 -1      5381-1.52140E+04-1.30903E+03-8.57868E+01-1.96203E+04-1.22726E+02-2.71347E+02
 -1      5382-6.57410E+03-5.87933E+03 4.24015E+01-1.18204E+04-3.67739E+02 5.84077E+01
 -1      5383-1.38090E+04-7.31053E+02-8.17614E+01-1.50403E+04-1.97834E+02-6.45901E+01
 -1      5384-1.84108E+04 2.18000E+03-3.30949E+01-1.96630E+04 7.71159E+01-2.20117E+02
 -1      5385-2.12454E+04 2.48768E+03 1.31955E+02-2.01564E+04 1.35026E+02-4.78194E+01
 -1      5386-1.88184E+04 2.66185E+03 8.12424E+00-1.52388E+04-9.59288E+01 4.16380E+01
 -1      5387-2.43847E+04 2.81893E+03-6.26898E+01-1.62742E+04-3.33732E+01 3.20534E+02
 -1      5388-2.28039E+03-2.50064E+03-4.20621E+01-3.92900E+03-1.36989E+02 1.43043E+02
 -1      5389-8.66795E+02 7.09517E+02 1.09707E+02-6.10236E+02-2.42261E+00 4.75544E+01
 -1      5390-9.45715E+01 1.53039E+03 9.31921E+01 7.14722E+02-8.19666E+01 1.08161E+02
 -1      5391 4.00631E+02 1.73671E+03 1.53896E+02 1.14741E+03-1.29543E+02 3.69776E+01
 -1      5392-4.07470E+02 1.84317E+03 2.12382E+01 6.38375E+02-5.44942E+01 8.36771E+01
 -1      5393 4.56706E+02 2.09904E+03 4.08880E+01 1.37038E+03-7.85681E+01 8.10747E+01
 -1      5394-6.11905E+03-1.87185E+03-6.07844E+01-7.13140E+03-3.45332E+02 1.64217E+02
 -1      5395-1.10890E+04 1.91394E+02-3.20778E+01-9.70586E+03-1.99717E+02 1.63471E+01
 -1      5396-4.41909E+03-1.00444E+02-5.96926E+01-3.17568E+03-2.45115E+02 2.43516E+02
 -1      5397-8.08518E+03 1.16822E+03-6.14291E+01-3.90911E+03-2.97193E+02 1.64066E+02
 -1      5398-1.66714E+04 2.59352E+03 6.11471E+00-9.32411E+03-2.04456E+02 2.40627E+02
 -1      5399-2.33288E+04 3.36170E+03-8.04409E+01-9.87662E+03-1.98754E+02 3.56169E+02
 -1      5400-1.27829E+04 2.27064E+03-3.36442E+01-3.83641E+03-2.55869E+02 2.75122E+02
 -1      5401-1.81175E+04 3.44277E+03-3.43204E+01-3.40055E+03-2.01297E+02 2.24768E+02
 -1      5402-1.68386E+03 9.87548E+02-1.99911E+00-1.45306E+02-1.91495E+02 1.36872E+02
 -1      5403-3.65233E+03 1.28652E+03-4.17875E+01 5.10728E+01-2.22835E+02 9.57197E+01
 -1      5404 8.16482E+02 1.45398E+03 1.00205E+02 1.41131E+03-2.13520E+02-5.67801E+01
 -1      5405 1.99598E+01 8.55816E+02-6.67223E+01 1.19844E+03-2.69099E+02-5.18713E+01
 -1      5406 1.73686E+03 1.05918E+03 6.96554E+01 1.64117E+03-2.36101E+02-2.31009E+02
 -1      5407 1.32054E+03 1.78682E+03 7.68037E+01 1.78302E+03-1.28799E+02-5.54923E+01
 -1      5408 3.05644E+02 1.35407E+03-5.13527E+01 1.58340E+03-1.91127E+02 1.13431E+01
 -1      5409 2.03709E+03 1.40491E+03-9.89342E-02 1.97570E+03-1.60585E+02-1.06469E+02
 -1      5410-1.39553E+02 8.00469E+02 1.07727E+01 1.34671E+03-2.61550E+02-4.96501E+01
 -1      5411-6.94082E+03 1.91601E+03-3.20593E+01 2.15092E+02-1.73794E+02 1.08030E+02
 -1      5412-1.04235E+04 2.37765E+03 7.07722E+01 1.15868E+03-2.10030E+02 9.26050E+01
 -1      5413-6.07773E+02 7.96160E+02 5.37709E+01 1.98076E+03-2.44447E+02-1.04117E+02
 -1      5414-1.22365E+03 1.05358E+03 1.16199E+01 3.05404E+03-1.76523E+02-1.61088E+02
 -1      5415-5.76242E+03-1.89192E+02-1.39782E+01-2.04855E+04 4.08885E+02-1.28256E+02
 -1      5416-3.09049E+03-3.16504E+03 5.26000E+01-1.30912E+04-3.39163E+02-8.14549E+01
 -1      5417-1.61939E+04-1.80061E+03-9.06218E+01-2.13162E+04 2.91021E+02 4.87696E+01
 -1      5418-1.48740E+04-1.09056E+04-1.36098E+02-1.98534E+04 2.79365E+00 1.60021E+02
 -1      5419-5.78678E+03-2.16507E+04-3.92238E+02-1.24897E+04-1.19399E+03-8.32193E+00
 -1      5420-1.17312E+04-2.82466E+04-3.57916E+02-1.80025E+04-1.03600E+03 2.13605E+02
 -1      5421-5.29856E+03-1.92437E+04-1.22894E+02-1.12193E+04-1.48438E+02-2.40635E+02
 -1      5422-1.14945E+04-2.78190E+04-1.76766E+02-1.74828E+04-1.18483E+02 1.10934E+02
 -1      5423-2.46009E+04-1.65289E+03-5.35902E+01-2.06497E+04 1.45834E+02 2.14634E+02
 -1      5424-2.56423E+04-1.29396E+04 1.45748E+02-2.22153E+04-1.25895E+02 2.40417E+02
 -1      5425-2.99464E+04 7.48313E+01-1.76172E+02-1.68566E+04-9.81115E+01 4.50386E+02
 -1      5426-3.48175E+04-9.05273E+03 2.37473E+02-2.01200E+04-2.65729E+02 5.43461E+02
 -1      5427-1.85056E+04-2.94204E+04 8.75764E+01-2.24417E+04-4.65350E+02 2.19917E+01
 -1      5428-2.77800E+04-2.94579E+04-2.60105E+02-2.65038E+04-3.63459E+02 1.36881E+02
 -1      5429-1.76142E+04-3.17563E+04 3.36933E+01-2.24839E+04-2.09721E+01 3.37527E+02
 -1      5430-2.63613E+04-2.40721E+04-2.03213E+02-2.43796E+04-2.70032E+02 3.46233E+02
 -1      5431-2.48223E+04-4.06829E+04-1.20107E+02-2.93346E+04 1.39204E+02-1.22618E+02
 -1      5432-4.01989E+04-2.80010E+04-5.25915E+02-2.88575E+04-3.40413E+02 1.64573E+01
 -1      5433-4.76979E+04-5.01328E+04-1.85491E+03-4.35296E+04-4.15596E+02-2.76866E+02
 -1      5434-4.67015E+04-4.19397E+04-1.64906E+01-3.91433E+04-1.66481E+02 1.32835E+03
 -1      5435-2.97448E+04 1.68083E+03-6.66834E+01-1.05393E+04-2.01694E+02 3.61613E+02
 -1      5436-3.73688E+04-4.73909E+03 3.03184E+01-1.38191E+04-4.89606E+02 5.49172E+02
 -1      5437-2.43316E+04 2.21593E+03-1.26715E+02-3.79628E+03-3.01592E+02 4.26972E+02
 -1      5438-3.12500E+04-3.01361E+02 3.71891E+01-5.75427E+03-1.83162E+02 1.61985E+02
 -1      5439-4.57996E+04-1.47321E+04 1.10583E+02-1.88630E+04-5.28627E+02 6.59925E+02
 -1      5440-6.08967E+04-3.13279E+04-2.40342E+02-3.35905E+04-4.76034E+02 6.98189E+02
 -1      5441-4.27938E+04-8.15159E+03-2.64537E+02-1.01066E+04-5.59371E+02 5.00200E+02
 -1      5442-5.44725E+04-1.83083E+04-2.42374E+02-1.85268E+04-5.07166E+02 7.21888E+02
 -1      5443-1.42162E+04 2.19909E+03 1.08795E+02 1.83291E+03-2.81075E+02 5.85837E+01
 -1      5444-1.73251E+04 7.31342E+02 1.69382E+01 2.60937E+03-1.66133E+02-8.85009E+00
 -1      5445-2.00568E+03 1.22499E+03 9.73102E+01 4.15355E+03-1.49649E+02-2.07926E+02
 -1      5446-2.26914E+03 4.96622E+02 1.10074E+01 4.61314E+03-2.85106E+02-1.89970E+02
 -1      5447-2.66607E+04-3.20359E+03 5.47257E+01-9.93773E+02-4.53763E+02 2.75118E+02
 -1      5448-3.27258E+04-8.34925E+03 1.82673E+02-4.77427E+03-6.02104E+02 3.15533E+02
 -1      5449-2.29291E+03-9.58241E+02 1.77456E+02 3.90835E+03-3.24328E+02-3.44355E+02
 -1      5450-7.01964E+03-3.70346E+03 1.07768E+02 5.83065E+02-4.60060E+02-2.85214E+02
 -1      5451-8.46469E+04-4.30786E+04-2.85289E+03-5.20410E+04-6.30020E+01 4.39021E+02
 -1      5452-7.82389E+04-3.82474E+04-2.07502E+02-4.77147E+04-7.88385E+02 1.10412E+03
 -1      5453-6.98827E+04-2.52256E+04 2.06101E+00-2.79013E+04-6.41754E+02 4.69603E+02
 -1      5454-8.92623E+04-2.84569E+04-1.48102E+03-3.63611E+04-8.11826E+02 2.62564E+02
 -1      5455-9.97848E+04-2.59447E+04-1.49109E+03-4.02918E+04-3.36002E+02 3.36856E+02
 -1      5456-1.03714E+05-3.19381E+04-9.89014E+02-5.03208E+04 4.93958E+02 1.02859E+03
 -1      5457-8.65256E+04-2.65561E+04-1.78447E+03-3.47584E+04-1.07509E+03 8.93691E+02
 -1      5458-1.02267E+05-2.41035E+04-1.15262E+03-4.10076E+04-8.20227E+02 7.61261E+02
 -1      5459-1.17337E+05-2.02602E+04-4.10809E+03-4.23280E+04 1.45556E+02 8.53955E+02
 -1      5460-1.11835E+05-1.90902E+04-2.57657E+03-3.95735E+04-1.21517E+02 2.86550E+02
 -1      5461-4.58348E+04-1.63654E+04 1.78227E+00-1.47818E+04-8.81746E+02 3.66478E+02
 -1      5462-5.68174E+04-1.91059E+04 1.80944E+01-2.36127E+04-8.17700E+02 2.03072E+02
 -1      5463-9.71608E+03-5.99287E+03 4.13743E+02-4.55417E+03-5.71811E+02-4.52272E+02
 -1      5464-1.99179E+04-9.39038E+03-3.83823E+01-1.49420E+04-5.85411E+02-3.53279E+02
 -1      5465-6.38522E+04-1.60476E+04 2.09650E+02-3.02167E+04-4.28072E+02 6.39536E+01
 -1      5466-6.44121E+04-7.67470E+03-3.75925E+02-3.00819E+04-1.68773E+02-6.95659E+02
 -1      5467-3.07571E+04-8.63400E+03 6.53163E+01-2.51880E+04-4.27506E+02-5.89142E+02
 -1      5468-4.12216E+04-4.59126E+03 4.20823E+02-3.05064E+04-1.28377E+02-7.32589E+02
 -1      5469 3.28208E+03 4.02904E+02-1.03923E+01 1.63228E+03-2.19881E+02-4.68506E+02
 -1      5470 3.65661E+03 6.81642E+02 4.42274E+01 2.07302E+03-1.26834E+02-2.77574E+02
 -1      5471 3.79207E+03 2.09664E+02-3.04188E+01 1.49472E+03-2.25057E+02-5.29589E+02
 -1      5472 4.07870E+03 1.56853E+02 4.94649E+01 1.67227E+03-1.40525E+02-5.44919E+02
 -1      5473 4.30448E+03 4.64048E+02 5.38179E+01 1.85613E+03-1.21113E+02-3.91581E+02
 -1      5474 5.09427E+03 2.17840E+02 4.35356E+01 2.01592E+03-4.27464E+01-4.11762E+02
 -1      5475 4.46743E+03 6.29059E+01 8.40136E+01 1.78657E+03-1.21382E+02-5.20056E+02
 -1      5476 6.01614E+03 3.52240E+02 1.90073E+02 2.13859E+03-6.85601E+01-5.81783E+02
 -1      5477 5.26201E+03 4.14149E+02 1.40551E+02 2.27066E+03-8.17534E+01-4.09307E+02
 -1      5478 6.67648E+03 2.83879E+02-5.68299E+01 2.78329E+03-1.84420E+02-5.36930E+02
 -1      5479 8.01475E+03 3.19535E+02 6.31242E+01 2.13565E+03-8.06729E+01-7.49646E+02
 -1      5480 9.13266E+03 2.91574E+02 9.92637E+01 2.95955E+03-1.66279E+02-6.73121E+02
 -1      5481 8.12874E+03 2.80777E+02 6.19540E+01 3.14276E+03-1.41931E+02-5.81323E+02
 -1      5482 1.02850E+04 3.94279E+02 1.96029E+02 3.58657E+03-1.29723E+02-7.32418E+02
 -1      5483 1.05788E+04 3.60014E+02 9.19580E+01 3.24383E+03-6.71767E+01-8.34784E+02
 -1      5484 1.29729E+04 7.99926E+01 2.14627E+02 3.39773E+03-3.70832E+01-8.50860E+02
 -1      5485 1.16164E+04 1.90351E+02 2.01335E+01 3.88775E+03-3.40131E+02-7.25282E+02
 -1      5486 1.54209E+04 9.85801E+01 3.21865E+02 4.02168E+03-5.16481E+02-1.02444E+03
 -1      5487 1.55739E+04-1.37191E+02 6.02747E+02 2.85780E+03-1.50250E+02-8.80669E+02
 -1      5488 1.45821E+04-9.35050E+01 1.02855E+03 3.21909E+03-2.82468E+02-1.08974E+03
 -1      5489 1.43701E+04-1.81007E+02 4.28168E+02 4.16229E+03-5.03536E+02-9.01943E+02
 -1      5490 1.48587E+04-9.31048E+02 1.99593E+02 3.88836E+03-5.58942E+02-1.30281E+03
 -1      5491 1.50328E+04-8.85737E+02 1.00811E+03 1.93825E+03-7.78816E+01-1.22563E+03
 -1      5492 1.51667E+04-1.14438E+03 9.42900E+02 1.32708E+03-2.05418E+02-1.20546E+03
 -1      5493 1.58283E+04-1.15596E+03 4.42276E+02 2.91921E+03-4.96350E+02-1.09236E+03
 -1      5494 1.57004E+04-1.85053E+03 4.72632E+02 1.86614E+03-4.94049E+02-1.16846E+03
 -1      5495 1.66477E+04-1.23855E+03 1.01291E+03-8.87429E+02-1.32031E+02-1.47823E+03
 -1      5496 1.52551E+04-1.77869E+03 1.43350E+03-1.80298E+03-9.23392E+01-1.33318E+03
 -1      5497 1.40772E+04-1.97860E+03 5.24886E+02-2.59038E+01-2.18794E+02-8.75637E+02
 -1      5498 1.61554E+04-2.27533E+03 3.46590E+02-1.76652E+03-6.51506E+02-6.28954E+02
 -1      5499 1.12244E+04-1.74663E+03 1.19956E+03-5.11111E+03-4.20436E+02-1.73361E+03
 -1      5500 5.42484E+03-2.25453E+03 8.65788E+02-7.23628E+03-7.38994E+01-1.54089E+03
 -1      5501 1.31809E+04-1.94244E+03 8.38189E+02-4.01581E+03-7.74868E+02-9.31722E+02
 -1      5502 6.38345E+03-2.33732E+03 1.10938E+03-6.54571E+03-5.80070E+02-6.14435E+02
 -1      5503-3.64453E+03-2.76915E+03 8.67095E+02-1.11879E+04 2.67079E+01-1.50601E+03
 -1      5504-1.24404E+04-8.25277E+02 1.86739E+03-1.32486E+04-1.09395E+02-1.74265E+03
 -1      5505-1.46543E+03-2.89659E+03 7.72441E+02-1.04671E+04-5.88278E+02-5.30842E+02
 -1      5506-1.52856E+04-2.96792E+03 1.16070E+03-1.56838E+04-1.66618E+02-6.68877E+02
 -1      5507-2.81381E+04-2.47746E+03 1.36851E+02-1.76497E+04-1.10377E+01-1.50999E+03
 -1      5508-3.75765E+04-9.18639E+02 8.21310E+02-1.98643E+04-1.00012E+02-1.62658E+03
 -1      5509-2.75752E+04-2.61355E+03 1.56923E+01-1.82443E+04-1.17309E+02-4.63297E+02
 -1      5510-3.84037E+04-1.32519E+03 1.50069E+02-2.12490E+04-1.98240E+02-6.61005E+02
 -1      5511 9.60160E+03 5.77836E+04 2.45408E+03-2.37016E+04 1.97724E+02-6.46144E+02
 -1      5512 1.74774E+04 6.24059E+04 2.76289E+03-3.15771E+04-5.73465E+00 5.56979E+01
 -1      5513 1.80412E+04 5.40390E+04 1.61258E+03-3.03416E+04-3.57547E+02 2.42949E+02
 -1      5514 3.38359E+03 6.88845E+03-2.98371E+02-3.03865E+04-1.24569E+01 5.66597E+01
 -1      5515 4.76497E+03 2.27570E+03 5.08509E+01-4.16491E+04-4.33731E+02 1.73586E+02
 -1      5516 1.62678E+04 2.52237E+04 2.14464E+02-3.30674E+04-1.99343E+02 3.94512E+02
 -1      5517 1.16897E+04 4.35920E+03 9.77785E+00-3.67576E+04-2.72608E+02 4.63509E+02
 -1      5518 2.36708E+04 5.90300E+04 1.36359E+03-3.48119E+04-7.41330E+01 1.93002E+02
 -1      5519 2.95414E+04 5.40345E+04 1.22692E+03-3.47591E+04 4.88255E+02 8.15159E+02
 -1      5520 2.29749E+04 5.81554E+04 8.32103E+02-3.41834E+04 2.94461E+02 1.08703E+03
 -1      5521 2.92618E+04 7.26002E+04 1.07200E+03-4.25408E+04 7.65904E+02 4.60298E+02
 -1      5522 2.98118E+04 5.19880E+04 1.33808E+03-3.37139E+04 9.17989E+02 1.15533E+03
 -1      5523 4.41262E+04 7.24230E+04 2.25104E+03-5.12988E+04-1.30228E+02-3.62450E+02
 -1      5524 4.46192E+04 6.37773E+04 1.90367E+03-4.49517E+04 1.35868E+03 6.86666E+02
 -1      5525 2.91263E+04 4.31285E+04-1.56455E+02-2.72068E+04 3.85357E+02 7.10952E+02
 -1      5526 2.18365E+04 2.43471E+04-7.29351E+01-2.93185E+04 8.40128E+01 7.48675E+02
 -1      5527 1.24252E+04 4.86725E+03 5.37990E+01-2.83131E+04-2.04606E+02 7.37737E+02
 -1      5528 1.80494E+04 2.00545E+04-1.25250E+02-1.86797E+04 2.84665E+02 1.17149E+03
 -1      5529 4.67190E+03 4.70863E+03 2.22216E+02-1.66621E+04 1.27417E+02 1.03027E+03
 -1      5530 1.57163E+04 1.35102E+04 3.17516E+03-2.38455E+04 2.93238E+02 3.60303E+01
 -1      5531 1.30278E+04 1.52941E+04 1.27334E+03-2.47021E+04 1.18678E+03-5.18315E+02
 -1      5532 5.72514E+04 4.79689E+04 3.80188E+03-4.74019E+04-5.20412E+02 2.79380E+02
 -1      5533 4.38594E+04 4.26356E+04 4.91461E+02-3.89179E+04 2.01882E+03 8.17514E+02
 -1      5534 5.36045E+04 3.05702E+04 2.59578E+03-3.85768E+04-3.09931E+02 4.39620E+01
 -1      5535 1.77512E+04 2.01044E+04 1.33589E+03-2.76256E+04 9.70260E+02-7.81233E+02
 -1      5536 1.59609E+04 2.72978E+04 1.14650E+03-2.96474E+04 6.84632E+02 3.11699E+02
 -1      5537 4.19838E+04 2.69782E+04 1.29079E+03-3.50674E+04 9.53947E+02 2.31033E+02
 -1      5538 1.87036E+04 2.05131E+04 1.48922E+03-2.69274E+04 1.66107E+03-2.91213E+02
 -1      5539 5.46000E+03 2.67413E+04 6.83037E+02-2.65201E+04 1.70990E+03 3.22585E+02
 -1      5540 7.35303E+03 3.25454E+04-2.69206E+02-2.26284E+04 5.46779E+02 5.26689E+01
 -1      5541-4.85617E+04 9.54837E+02 8.59900E+01-3.29598E+04-9.30839E+01-6.89725E+02
 -1      5542-3.76180E+04 1.14944E+04 6.66500E+01-3.17890E+04 4.18415E+02-6.98018E+02
 -1      5543-5.41590E+04 3.28931E+02 1.32573E+02-3.27664E+04 1.36381E+02-1.08170E+03
 -1      5544-6.53663E+04 5.61837E+03-2.56632E+00-3.03752E+04 3.34079E+02-6.65790E+02
 -1      5545-3.38464E+04 1.95032E+04-2.09878E+02-2.56834E+04 1.02652E+03 1.07534E+02
 -1      5546-4.17019E+04 2.02822E+04-5.06900E+02-1.46290E+04 1.34283E+03 1.88370E+02
 -1      5547-7.61105E+04 9.53079E+03 1.43096E+02-1.91258E+04 5.77703E+02-4.53825E+02
 -1      5548-8.57944E+04 9.08094E+03-8.19386E+00-8.48247E+03 9.83372E+02-3.82958E+02
 -1      5549 3.41756E+04 4.75442E+04 4.81437E+02-3.15025E+04 1.40161E+03 9.83082E+02
 -1      5550 1.48989E+04 3.03260E+04-1.63047E+02-1.44613E+04 6.04041E+02 1.12416E+03
 -1      5551-3.58503E+03 2.98011E+04-1.76612E+02-1.28446E+04 8.95913E+02 7.33280E+02
 -1      5552-1.80970E+04 1.85332E+04 5.51835E+02-1.56462E+02 9.12991E+02 7.15873E+02
 -1      5553 1.91220E+03 1.43340E+04 1.27090E+02-7.23253E+03 3.86993E+02 8.24951E+02
 -1      5554-1.18766E+04 4.88647E+03-3.45139E+02-3.55566E+03 8.51747E+01 6.71709E+02
 -1      5555-2.61661E+04 9.59472E+03-2.80093E+02 5.91243E+03 5.27160E+02 4.33612E+02
 -1      5556-3.50473E+04 4.04406E+03-1.91877E+02 7.88398E+03 1.58500E+02 5.15380E+02
 -1      5557-4.42775E+04 1.76770E+04-8.15446E+01-3.29813E+03 7.93533E+02 1.20268E+02
 -1      5558-4.94492E+04 1.20107E+04 9.31752E+01 4.78500E+03 7.12553E+02-4.14030E+01
 -1      5559-9.04722E+04 6.64900E+03-1.26540E+02 9.88624E+02 5.91860E+02-2.46158E+02
 -1      5560-9.14464E+04 4.16686E+03-3.58665E+01 7.36935E+03 2.37514E+02-2.82765E+02
 -1      5561-5.64168E+04 4.34505E+03-2.87738E+02 1.31347E+04 6.63793E+01 3.60303E+02
 -1      5562-5.73226E+04 2.78827E+03-1.19100E+02 1.42872E+04 6.52357E+02 8.04273E+01
 -1      5563-8.53706E+04 3.13793E+03 6.18694E+01 1.20387E+04 3.93958E+02-5.58456E+02
 -1      5564-8.36921E+04 1.48918E+03 1.22240E+02 1.40351E+04 1.87700E+02-4.79736E+02
 -1      5565 2.07987E+03-8.79874E+02-6.40864E+01-4.16655E+04-3.35564E+02 9.64216E+01
 -1      5566-1.78263E+02-2.35344E+03-6.98954E+01-3.92267E+04-2.30056E+02 1.01359E+02
 -1      5567 4.28707E+03-2.40696E+03-1.22002E+02-3.69320E+04-2.64314E+02 4.11595E+02
 -1      5568-2.00652E+03-4.91590E+03 1.38508E+02-3.56006E+04-1.45773E+02 3.19745E+02
 -1      5569-1.69910E+03-1.98654E+03 7.48106E+01-3.62815E+04-1.55117E+02 8.90347E+01
 -1      5570-2.75847E+03-2.17000E+03-1.35661E+00-3.28929E+04-1.11543E+02-1.19221E+01
 -1      5571-6.39763E+03-5.79507E+03 2.28667E+02-3.37045E+04-1.19883E+02 2.29292E+02
 -1      5572-9.72072E+03-6.49305E+03-8.21125E+01-3.06929E+04-4.28656E+01 1.06402E+02
 -1      5573 2.23118E+03-2.42363E+03 4.91755E+01-2.89170E+04-2.40612E+02 6.11584E+02
 -1      5574-7.78274E+03-5.97581E+03 2.43324E+02-3.01045E+04-1.98003E+02 3.32493E+02
 -1      5575-7.71572E+03-1.93395E+03 1.66243E+02-1.79211E+04-6.00322E+01 6.77397E+02
 -1      5576-1.98869E+04-3.93510E+03 5.58568E+02-1.84342E+04-1.07359E+02 4.65447E+02
 -1      5577-1.54397E+04-7.98452E+03 2.41337E+02-2.89694E+04-4.34258E+01 3.56456E+02
 -1      5578-1.91122E+04-9.21495E+03-1.42281E+01-2.82606E+04-2.39264E+02 1.38977E+02
 -1      5579-3.10223E+04-6.91807E+03 1.74900E+02-2.23650E+04-1.11672E+02 4.05231E+02
 -1      5580-3.30665E+04-9.92743E+03 1.55864E+02-2.50578E+04-7.60818E+01 3.33746E+02
 -1      5581-2.81394E+03-1.59801E+03-3.22704E+02-2.76950E+04-1.21133E+02-1.24525E+02
 -1      5582-1.12959E+04-6.66524E+03-1.21174E+03-2.76170E+04-4.64905E+01-3.96905E+02
 -1      5583-2.30954E+04-1.06981E+04-2.48252E+03-2.52977E+04 2.27480E+01-9.16560E+02
 -1      5584-3.62195E+04-1.41395E+04-5.03285E+03-2.30838E+04-7.01524E+01-1.85220E+03
 -1      5585-2.56772E+04 3.84229E+02-2.18684E+02-4.78885E+03 1.47228E+02 6.39739E+02
 -1      5586-3.62464E+04-7.25989E+02 1.84347E+02-7.77774E+03-5.05104E+01 5.62115E+02
 -1      5587-4.11198E+04 2.63066E+03 9.33085E+01 5.98561E+03 1.72263E+02 5.09191E+02
 -1      5588-5.50504E+04 3.50700E+03-7.77748E+01 5.67449E+03 3.58776E+01 5.15992E+02
 -1      5589-4.96733E+04-2.65204E+03 4.00527E+02-1.35594E+04-3.65853E+01 6.99915E+02
 -1      5590-5.92901E+04-8.51492E+03-6.16673E+02-1.95071E+04 3.55280E+02 3.07177E+02
 -1      5591-6.74943E+04 4.33235E+03 2.03401E+02-6.74347E+02-1.90947E+02 6.79029E+02
 -1      5592-8.46017E+04 1.34278E+03 2.85231E+02-8.55089E+03 3.18405E+02 1.11397E+03
 -1      5593-6.20272E+04 3.15881E+03-1.71082E+02 1.56126E+04 3.40291E+02 1.22491E+01
 -1      5594-6.79298E+04 5.36371E+03 6.06596E+01 1.53475E+04 2.77321E+02 3.64089E+02
 -1      5595-7.95546E+04 1.66073E+03 2.22201E+01 1.59685E+04 2.49182E+02-4.36626E+02
 -1      5596-7.43828E+04 3.62306E+03 1.04517E+02 1.85988E+04 2.41046E+02-2.28554E+02
 -1      5597-7.91146E+04 8.63774E+03 1.44067E+02 1.38561E+04 1.89176E+02 5.46176E+02
 -1      5598-9.98308E+04 8.58999E+03 1.95707E+02 1.53731E+04-3.39524E+02 8.44740E+02
 -1      5599-7.17669E+04 5.10008E+03 4.90495E+02 2.26563E+04 1.17635E+02-1.51346E+01
 -1      5600-6.40844E+04-8.42579E+02 7.49389E+02 3.03572E+04-4.57547E+02 9.88564E+02
 -1      5601-5.93182E+04-1.91717E+04-8.94520E+03-2.14226E+04 5.31007E+02-2.76539E+03
 -1      5602-9.77119E+04-2.07731E+04-9.58496E+03-2.11563E+04 6.89029E+02-1.83458E+03
 -1      5603-1.43956E+05-1.57672E+03-1.21140E+04 1.88665E+04 1.19102E+03-1.84981E+03
 -1      5604-4.42411E+04-2.45377E+04-5.51213E+02 3.62491E+04-6.72622E+02 1.12994E+03
 -1      5605-5.20511E+04-7.48859E+02-5.35634E+02-2.02165E+04-2.25313E+02-1.56231E+03
 -1      5606-6.37736E+04 3.02591E+02-5.74435E+02-1.82741E+04 1.19356E+02-1.76315E+03
 -1      5607-4.91549E+04-7.21301E+02-8.32278E+01-1.99163E+04-7.66183E+01-4.55365E+02
 -1      5608-6.35879E+04 5.46209E+02-6.74249E+01-1.76951E+04 2.19409E+02-1.13646E+01
 -1      5609-7.88281E+04 5.93164E+02-8.90270E+02-1.65497E+04 2.21290E+02-1.56483E+03
 -1      5610-9.13009E+04 1.87168E+03-9.04533E+02-1.52591E+04-4.56444E+01-1.35827E+03
 -1      5611-7.86131E+04 7.58116E+02-9.28175E+02-1.64815E+04 2.76963E+02-1.41238E+02
 -1      5612-9.11882E+04 2.28497E+03-6.77706E+02-1.56556E+04 4.42698E+02-8.94463E+01
 -1      5613-1.03650E+05 2.31308E+03-8.18412E+02-1.20905E+04-1.03115E+02-1.66388E+03
 -1      5614-1.12967E+05 2.65033E+03-1.05891E+03-9.25432E+03 2.38165E+02-1.63006E+03
 -1      5615-1.04204E+05 2.68300E+03-1.06295E+03-1.14773E+04 4.88368E+02-3.78462E+02
 -1      5616-1.15577E+05 2.63836E+03-8.58369E+02-8.24289E+03 4.88947E+02-6.32782E+02
 -1      5617-1.18419E+05 2.75085E+03-1.50858E+03-5.84577E+03 1.67483E+02-1.19299E+03
 -1      5618-1.22700E+05 2.07186E+03-1.62326E+03-2.79257E+03 2.09950E+02-1.18466E+03
 -1      5619-1.21146E+05 2.62978E+03-7.21552E+02-5.40537E+03 7.11736E+02-7.56519E+02
 -1      5620-1.21840E+05 2.49186E+03-4.20125E+02-2.57548E+03 6.60613E+02-7.42088E+02
 -1      5621-1.24259E+05 2.37437E+03-9.95094E+02-6.97217E+01 3.11708E+02-1.33869E+03
 -1      5622-1.22399E+05 1.89437E+03-1.21953E+03 1.82358E+03 7.78389E+01-1.27492E+03
 -1      5623-1.29721E+05 3.06018E+03-2.02790E+02 1.91034E+02 8.23850E+02-1.04196E+03
 -1      5624-1.27098E+05 2.05583E+03-6.39731E+02 2.54599E+03 1.18648E+03-9.82237E+02
 -1      5625-1.20100E+05 1.34781E+03-1.13009E+03 3.53238E+03 3.21471E+02-1.16331E+03
 -1      5626-1.18928E+05 1.83917E+02-9.05911E+02 5.00125E+03 1.97003E+02-1.24905E+03
 -1      5627-1.23445E+05 1.16023E+03-5.72812E+02 4.37403E+03 1.40641E+03-9.45212E+02
 -1      5628-1.24929E+05 4.12101E+02-7.62959E+02 5.67290E+03 9.43716E+02-9.03748E+02
 -1      5629-1.16633E+05 3.97670E+02-7.77946E+02 5.88355E+03-1.50202E+02-1.47146E+03
 -1      5630-1.12790E+05 2.99028E+02-9.62869E+02 6.29737E+03-1.16213E+02-1.29940E+03
 -1      5631-1.19195E+05 6.98339E+02-5.96421E+02 6.97866E+03 3.42992E+02-1.06059E+03
 -1      5632-1.15042E+05 4.97991E+02-9.96725E+02 7.26925E+03 2.06268E+02-1.00546E+03
 -1      5633-1.07021E+05 3.84510E+02-4.46929E+02 7.30902E+03-1.31714E+01-9.44107E+02
 -1      5634-1.01820E+05 1.44501E+02-3.46711E+02 7.52757E+03 2.44121E+01-1.07177E+03
 -1      5635-1.09641E+05 3.09655E+02-8.55312E+02 7.86045E+03 1.20628E+02-1.10523E+03
 -1      5636-1.03295E+05 2.98240E+02-6.53744E+02 8.35211E+03 1.85513E+02-1.15483E+03
 -1      5637-9.45396E+04 3.81397E+02-2.12357E+02 8.36028E+03 7.25184E+01-8.20292E+02
 -1      5638-8.80558E+04 3.76163E+02-3.62612E+02 8.89773E+03 8.28386E+01-8.04758E+02
 -1      5639-9.57151E+04 5.57120E+02-3.44591E+02 9.67288E+03 3.88511E+02-1.00586E+03
 -1      5640-8.89341E+04 7.65031E+02-4.12319E+02 1.02164E+04 2.35950E+02-1.07536E+03
 -1      5641-8.05707E+04 8.51042E+02-4.09413E+02 1.00246E+04 1.87212E+02-7.86469E+02
 -1      5642-7.34057E+04 1.12675E+03-2.93703E+02 1.16716E+04 1.73996E+02-7.21430E+02
 -1      5643-8.18109E+04 1.15145E+03-1.61157E+02 1.14177E+04 1.88989E+02-1.09930E+03
 -1      5644-7.40537E+04 1.27635E+03-2.10867E+02 1.27780E+04 4.25710E+01-1.15609E+03
 -1      5645-6.51940E+04 1.87956E+03 6.03234E+02 1.42894E+04 2.17221E+02-6.17750E+02
 -1      5646-5.78431E+04 1.12842E+03 7.55253E+02 1.55009E+04 6.97937E+01-3.67646E+02
 -1      5647-6.60436E+04 1.34890E+03 2.45390E+02 1.44918E+04-1.40756E+02-1.04194E+03
 -1      5648-5.89099E+04 1.39346E+03 4.85904E+02 1.71407E+04-3.02659E+02-7.94650E+02
 -1      5649-4.49361E+04 7.80841E+02 2.50676E+03 1.73151E+04 3.02428E+02-2.81229E+02
 -1      5650-3.10414E+04-6.29861E+03 2.27957E+03 1.59876E+04 4.61426E+02-3.02927E+02
 -1      5651-4.67314E+04 5.36944E+02 1.19374E+03 1.70122E+04-5.69570E+02-1.69699E+02
 -1      5652-3.31466E+04-4.93388E+03 1.57014E+03 1.56595E+04-8.37707E+02-2.51048E+02
 -1      5653-6.05716E+03-1.23496E+03 6.35779E+01-3.86090E+03-1.14296E+02-1.75864E+02
 -1      5654-7.91798E+03-7.28770E+02 5.88089E+01-3.75153E+03 2.06973E+01 1.60166E+01
 -1      5655 1.79545E+04 1.28697E+04-1.81733E+02-3.23701E+04-2.47201E+02 5.66998E+02
 -1      5656-6.73605E+04-8.53497E+03-7.34315E+02 3.91916E+04-2.54574E+03 2.62596E+03
 -1      5657-5.38168E+03-3.14463E+04 2.50192E+02-1.12607E+04-3.70421E+02 7.81901E+02
 -1      5658-8.34696E+04 7.19068E+03 4.01058E+02 2.83152E+04-5.78075E+02 1.10175E+03
 -1      5659-1.01238E+04 1.41612E+03-1.92698E+02-6.51186E+03-3.10001E+01 9.22491E+01
 -1      5660-2.30300E+04-8.15438E+03-1.18061E+02-2.78807E+04-6.65213E+02-5.40482E+02
 -1      5661 9.85064E+04 1.95099E+04 8.07272E+03 4.80287E+04 1.11019E+03 8.59806E+02
 -1      5662-6.20459E+04-7.82259E+03 2.28478E+03 3.61475E+04-1.23483E+03 1.78188E+03
 -1      5663-3.15949E+04-1.35136E+04 1.64238E+03 2.43853E+04-2.00543E+03 1.48371E+03
 -1      5664 2.07514E+04 1.32176E+03-2.24983E+02-1.54903E+04-6.29827E+01 4.33865E+02
 -1      5665-3.12146E+04-8.54514E+02 1.84584E+03 1.07337E+04-5.33287E+02-5.52638E+02
 -1      5666-7.26920E+04 3.44789E+03-3.15705E+01 2.02859E+04-1.88296E+02-3.24080E+02
 -1      5667 2.18695E+04 2.42471E+04-3.18629E+03-3.02020E+04 4.47375E+03-1.24758E+03
 -1      5668-5.53307E+04-6.64084E+03 2.26743E+03 3.51232E+04 2.32788E+03-3.41002E+03
 -1      5669 3.01390E+03 1.13215E+03 2.03974E+02 4.00839E+03-1.32890E+02-3.19477E+02
 -1      5670-2.19996E+04 2.30068E+03-2.46996E+02-1.95179E+02-4.25979E+02 9.18535E+01
 -1      5671-6.17067E+03 2.22570E+03 7.69333E+01 3.43529E+03-2.33642E+02-1.84422E+02
 -1      5672-2.07109E+04 1.40131E+03 2.14385E+02-3.59520E+03 4.53542E+01-6.33651E+01
 -1      5673-2.85033E+04 1.96476E+04-7.85889E+01-1.20997E+03 1.00112E+03 3.59136E+02
 -1      5674-1.31142E+04 1.96383E+02-9.12007E+01 1.81683E+03-2.60860E+01 1.14125E+02
 -1      5675-5.76011E+03 4.87439E+02 5.10010E+01 3.25327E+02-8.76721E+01-6.00685E+01
 -1      5676-8.80322E+03 9.03406E+02 2.75450E+02 2.84097E+02-4.82281E+01 1.09881E+01
 -1      5677-8.12704E+04 1.02651E+04 2.11800E+02 2.32082E+04 4.71622E+02-1.67997E+03
 -1      5678-6.70558E+04 9.46760E+03 7.90164E+02 5.50873E+03-1.23316E+03-1.33331E+02
 -1      5679-3.40135E+03 4.36966E+01-7.70764E+01 9.28200E+02-9.42356E+01-1.19588E+02
 -1      5680-1.13713E+04 8.04373E+02-1.49367E+02 1.18909E+03-7.83614E+01-2.68759E+02
 -1      5681-6.97018E+03 2.47504E+02 1.11410E+02-3.36353E+04-2.79693E+02-7.13725E+02
 -1      5682-1.10904E+03 4.77277E+02 6.49851E+01 2.20026E+03-1.41983E+02 4.21591E+01
 -1      5683-2.56260E+03-4.55739E+03 3.89197E+01-3.62772E+04-1.85741E+02 2.23817E+02
 -1      5684-4.42552E+03 1.95095E+04-1.18671E+02-4.18408E+03-2.51181E+02-1.76386E+02
 -1      5685-7.45088E+02 3.15500E+02 1.11757E+01 1.01312E+03-2.67632E+02-1.62492E+02
 -1      5686-7.93615E+03-1.68561E+02-4.68818E+01-2.48662E+03-5.16460E+01-1.81004E+01
 -1      5687-2.28455E+03-1.76043E+02 6.73514E+01-8.18362E+02-1.58689E+02-1.19792E+02
 -1      5688-7.56506E+03 2.08717E+03 6.19552E+00-1.77753E+03-2.11772E+02 2.34194E+02
 -1      5689-5.01106E+03-4.69878E+03 4.86281E+01-3.40860E+04-9.81903E+01 1.46904E+02
 -1      5690-6.85799E+03-2.57632E+03-4.56724E+00-6.32424E+03-2.14035E+02-3.09691E+02
 -1      5691 1.22037E+04 1.38241E+04 1.41892E+01-3.55040E+04-5.41485E+02 6.77231E+02
 -1      5692-9.62068E+03-2.23983E+03 1.08986E+02-8.55530E+03-9.41265E+01-1.60487E+02
 -1      5693-6.79695E+04 4.79370E+03 1.78331E+02 2.41745E+04-1.46756E+01-3.86484E+02
 -1      5694-7.21093E+04 5.21847E+03 5.87926E+02 2.75635E+04-2.21464E+02 5.60324E+02
 -1      5695-6.42734E+04-2.63305E+03 6.98053E+02-1.38377E+04 7.06607E+02 8.02321E+02
 -1      5696-1.32398E+04 1.02521E+03-7.15733E+01-3.28575E+03-2.02816E+01-1.87531E+02
 -1      5697 4.96076E+04-3.29481E+03-3.83858E+02-7.05486E+03-4.98600E+01 7.36329E+02
 -1      5698-2.77429E+03-3.28997E+02-8.42670E+01-6.93042E+02-1.75660E+02-4.51813E+01
 -1      5699-3.59233E+03 2.07400E+02 4.24734E+01 3.31158E+02-8.74364E+01-2.65914E+01
 -1      5700-2.59935E+03-4.46948E+02 4.73362E+01-2.84393E+03-1.93769E+02 1.55501E+02
 -1      5701-1.50749E+03-2.79717E+03 4.14358E+01-2.59076E+03-3.56565E+01-1.22381E+02
 -1      5702-7.95039E+04 1.61045E+03-2.72923E+02 1.70494E+04 7.62270E+01-5.53110E+02
 -1      5703-2.26235E+03-1.72183E+03-2.00151E+01-2.29461E+03-8.94020E+01-1.40212E+02
 -1      5704-2.54315E+03-3.82101E+03 1.42661E+01-3.78272E+04-4.21345E+02-2.07307E+02
 -1      5705-2.66038E+02-1.04730E+03 3.15275E+02-4.04388E+04-3.61920E+02-1.43939E+01
 -1      5706 8.27297E+04-1.07498E+04 7.25972E+02 1.79460E+04 2.54344E+02 1.57351E+03
 -1      5707 7.45689E+04 1.44584E+04 4.76793E+03-2.14578E+04-1.54856E+03-2.08839E+03
 -1      5708 8.48481E+04-1.29459E+04-5.09004E+02 7.14464E+03 3.07178E+02 2.09813E+03
 -1      5709-6.93141E+04 4.41226E+03-4.61570E+00 1.89457E+04 2.52744E+02-2.31361E+02
 -1      5710 3.85018E+04 8.56042E+03-3.17782E+02-8.23566E+03 1.28147E+02 1.24953E+02
 -1      5711 5.99437E+03 1.48784E+04 4.70319E+01-1.42475E+04 1.45436E+02 3.58148E+02
 -1      5712-4.33652E+03-1.92602E+03 2.14163E+02-3.95284E+03-1.22691E+02-1.98251E+02
 -1      5713-1.50262E+05-4.69252E+04-3.22174E+04 5.24210E+04-7.82807E+02 1.13295E+03
 -1      5714 2.37265E+04-9.71006E+02-7.63805E+01 7.53617E+02-5.29006E+02-1.51370E+02
 -1      5715-1.80430E+05-4.11480E+04-5.02147E+04-6.52600E+03-9.85575E+02 3.47950E+03
 -1      5716-1.03175E+05 2.67494E+03-2.95500E+03-6.20105E+03-8.21724E+02-2.61329E+03
 -1      5717-5.64174E+04-7.94863E+03 4.49690E+02 3.75325E+04 2.36715E+03-1.63214E+03
 -1      5718-6.29587E+04-4.83631E+04-7.40894E+03 5.75076E+04 9.23424E+02-4.05507E+02
 -1      5719-4.93637E+04 2.33241E+03-7.06780E+01-7.57451E+03 2.06068E+02-1.02149E+03
 -1      5720 3.66820E+01-1.13974E+03 3.36329E+01 1.58647E+03-1.41250E+02 9.71581E+01
 -1      5721 1.55502E+03-1.42477E+03-1.37676E+02 7.10451E+02-1.33375E+02 9.32775E+01
 -1      5722-8.61364E+04-3.24465E+04-2.39482E+04-2.05170E+04-3.45538E+01-4.23854E+03
 -1      5723 2.03124E+04-1.71052E+03-6.35116E+01-3.29246E+03 4.94272E+01 3.26245E+02
 -1      5724 1.68921E+04 1.57185E+03-2.52602E+02 2.90086E+03-3.42034E+02-2.56167E+01
 -1      5725-1.09832E+05 1.06495E+04-2.18196E+03 1.76718E+04-1.67094E+02-2.97687E+03
 -1      5726 5.26067E+04 1.78157E+04 8.98838E+01-1.90946E+04-8.64890E+02-1.08556E+03
 -1      5727-6.92271E+04-2.49977E+04-3.40087E+03 4.29181E+04 6.76323E+02-1.48822E+03
 -1      5728-1.43356E+05-4.61337E+04-3.35415E+04 5.04045E+04-9.89267E+01-2.18180E+03
 -1      5729-3.01841E+04-4.31674E+04-1.72948E+02-2.73585E+04 5.16817E+02-7.45851E+02
 -1      5730-1.13270E+05 8.33797E+02-3.45652E+03 3.49194E+04-1.10263E+03 2.07694E+03
 -1      5731-9.17053E+04 2.04570E+03-9.11049E+01 3.33394E+04-1.34673E+03 2.66696E+03
 -1      5732-7.44730E+04-2.40472E+04-1.38073E+04-2.19217E+04-2.42894E+02-1.69643E+03
 -1      5733-6.47896E+04-1.16784E+04-1.40268E+03-2.24753E+04-8.91004E+02 3.91007E+02
 -1      5734-7.01839E+04 6.25975E+03-3.39285E+02 1.44798E+04 4.23689E+02 8.65148E+01
 -1      5735-6.96203E+04 9.22787E+03 5.46293E+02 1.41229E+04 1.20767E+02-5.65226E+02
 -1      5736-7.09775E+04 7.14821E+03 3.81025E+02 1.86736E+04-3.06583E+01-5.59142E+02
 -1      5737-2.40627E+03-1.24404E+04 2.17780E+01-7.32270E+03-1.62269E+02-8.36499E+01
 -1      5738-7.18415E+04 7.75282E+03 9.98307E+01 2.22187E+04 1.57534E+02-8.77385E+02
 -1      5739-9.24081E+04-2.86574E+03-1.74509E+03 3.57540E+04 1.32231E+03-2.81161E+03
 -1      5740-1.88863E+04-6.54419E+03 8.82544E+02-2.61570E+04 7.16036E+01-2.82772E+02
 -1      5741-7.43174E+04-2.40845E+04-8.29821E+02-3.41015E+04 3.82875E+02-2.67515E+02
 -1      5742-7.04561E+04 1.96087E+03 8.45701E+01 1.70740E+04 4.80110E+02-2.76992E+02
 -1      5743-4.88551E+04 2.69427E+03-3.03564E+02 1.28619E+04 2.73667E+02 2.91747E+02
 -1      5744-6.37621E+04 2.76002E+03-1.66019E+02 1.36251E+04-2.81378E+02-2.00275E+02
 -1      5745-6.55513E+04 5.20540E+03 2.68055E+02 1.52765E+04-2.64560E+02-2.83105E+02
 -1      5746-5.10996E+04 3.46259E+03 8.40132E+01 1.14097E+04-1.66904E+02-4.45846E+02
 -1      5747-5.03998E+02-4.15894E+03 4.31804E+02-2.20288E+03 3.16405E+01 9.29105E+01
 -1      5748-1.78070E+04 3.08280E+03 4.06505E+00-2.05014E+04 1.96106E+02-1.03399E+02
 -1      5749-8.05351E+04 1.05400E+04 2.70943E+02 5.89672E+03 5.42380E+01-1.97463E+03
 -1      5750-8.92012E+04 1.06307E+04-9.51357E+02 1.23471E+03 2.62771E+00-3.05124E+03
 -1      5751-3.59538E+04 9.09006E+03-5.21803E+01 7.08656E+03 8.35412E+01-4.70753E+01
 -1      5752-7.58692E+04 2.02396E+03-2.49246E+02 1.48415E+04 6.57898E+01 9.53981E+01
 -1      5753-7.90324E+04-6.05696E+03-6.44819E+02-1.73404E+04 9.21943E+02 1.11465E+03
 -1      5754-2.81095E+04-1.23640E+04-7.26614E+02-2.44584E+04 4.43617E+02-5.95812E+02
 -1      5755 9.79364E+02 7.02467E+02 5.19759E+01-2.86756E+04-2.32285E+02-8.79612E+01
 -1      5756-3.24025E+04-1.31885E+04-8.22799E+03-2.31930E+04-2.78233E+02 1.16796E+02
 -1      5757-6.40722E+03-5.01853E+03-1.66522E+02-3.14515E+04 1.07283E+02 5.18109E+01
 -1      5758-9.07984E+04 7.58895E+03-6.19020E+02-7.05958E+03-1.11024E+03-1.63763E+02
 -1      5759-6.03927E+04 2.49869E+03-3.64472E+02 1.54649E+04 6.52796E+02 9.54532E+01
 -1      5760-2.93525E+04-2.27927E+03 8.96613E+02 1.07511E+04 9.66901E+02 9.32911E+01
 -1      5761-5.21684E+04 3.15195E+03-1.16778E+02-3.58678E+04-1.03663E+02-5.04278E+02
 -1      5762-3.97286E+02 1.19607E+03 7.18762E+01 1.86427E+03-1.13504E+02-6.79248E+01
 -1      5763-8.11157E+04 9.95257E+02-2.50025E+02 1.28246E+04-7.92367E+01 1.84991E+01
 -1      5764-4.17114E+04 6.13762E+03-2.71020E+01 9.19005E+03-3.82326E+02-4.09458E+02
 -1      5765-7.45060E+04 6.39994E+03 1.21061E+02 1.99242E+04 1.48875E+02 1.13196E+02
 -1      5766-6.60559E+04 1.24490E+04-3.28061E+02-4.37404E+03 8.79836E+02-6.78036E+01
 -1      5767-7.51651E+04 2.79106E+03 8.17797E+01 1.22617E+04-3.34544E+02-1.79907E+02
 -1      5768-4.22871E+04 9.01806E+03-2.08863E+02 9.12230E+03 6.37124E+02 3.45216E+02
 -1      5769-6.21845E+04 1.11877E+04-5.98508E+02-6.94982E+02-9.12705E+02-1.83663E+02
 -1      5770-8.06698E+04 1.06908E+04 1.07420E+02-1.86186E+04-4.18236E+02-5.58088E+02
 -1      5771-3.82884E+04 3.67974E+03 5.57497E+02-2.16256E+04-4.35616E+01-1.11117E+03
 -1      5772-8.31019E+03-4.44614E+03-2.06531E+03-2.63355E+04-1.52983E+01-8.07079E+02
 -1      5773-3.85500E+03-4.05590E+03-2.23813E+02-3.50795E+04-6.35189E+02-2.27774E+02
 -1      5774-5.78608E+04 1.17909E+04 1.84059E+02-2.83023E+04 7.90113E+02-2.59720E+02
 -1      5775-1.40645E+05-1.00989E+04-8.28183E+03 4.38305E+04 3.27997E+03-2.18253E+03
 -1      5776-9.95310E+04-1.55325E+04-6.78616E+03 4.53723E+04-2.34898E+03 3.51903E+03
 -1      5777-4.75249E+04 2.27549E+04-4.90083E+02-1.67318E+04-1.10862E+02 5.28631E+01
 -1      5778-2.59972E+04 2.53401E+04 4.81544E+01-1.82219E+04-4.51647E+02-2.99114E+01
 -1      5779-4.76566E+04-1.79039E+04-7.45583E+03-2.08147E+04 8.81393E+02-3.68576E+03
 -1      5780 2.29722E+04 2.95089E+04-3.47737E+02-1.93432E+04-5.65142E+02-1.05374E+02
 -1      5781-4.39823E+04 1.56808E+04-7.45947E+01-3.44398E+04-5.18076E+02-1.91608E+02
 -1      5782-5.65089E+04 1.44988E+03-2.72636E+02-3.55448E+04-1.07483E+02-1.06156E+03
 -1      5783-6.96111E+04 4.31836E+03 1.11947E+02 1.80210E+04 2.48019E+02 1.67198E+02
 -1      5784-3.48595E+04-1.42686E+04-2.01352E+01-2.08366E+04 1.87908E+02-5.06390E+02
 -1      5785-5.28862E+04 3.92731E+03 9.91968E+01-3.95869E+04-1.41506E+02-2.31624E+02
 -1      5786-5.89806E+04 3.61518E+03 2.24169E+02-3.65812E+04 2.97818E+02-6.77610E+02
 -1      5787-5.46263E+04-1.12881E+03-4.53040E+02-2.13863E+04-7.68273E+02-1.71480E+03
 -1      5788-3.78260E+04 7.19020E+03-6.88324E+02-3.51840E+04-4.13773E+02 1.31353E+03
 -1      5789-1.03936E+03 1.51224E+03 1.10318E+02 9.85937E+02-1.44761E+02 1.65268E+01
 -1      5790-5.31303E+04 1.17387E+04 9.36877E+01-3.57198E+04-4.38399E+02-2.92909E+02
 -1      5791-3.42136E+04 4.20853E+03 5.21069E+02-2.29276E+04-4.51392E+02 3.67773E+03
 -1      5792-6.36975E+04 1.64519E+04-2.43846E+02-1.71489E+04-4.39845E+02-2.62693E+01
 -1      5793-1.11093E+04 2.76662E+04 3.60303E+01-1.94483E+04 8.11337E+02 3.12244E+02
 -1      5794-6.07200E+04 1.48713E+04 3.71286E+02-2.94545E+04-7.24774E+02-2.97873E+02
 -1      5795-5.53595E+04 1.73133E+04-6.66805E+02-8.62651E+03-2.49229E+02-1.03247E+02
 -1      5796-9.74565E+04 4.66399E+03-8.55904E+01-1.12973E+04-2.57046E+02-5.41986E+02
 -1      5797-6.58612E+04 6.09443E+03 9.51116E+01 8.73143E+03-1.33395E+02-1.51204E+02
 -1      5798-6.19215E+04 2.51224E+03-7.25410E-01 1.25026E+04-2.52529E+02-2.44463E+02
 -1      5799-2.61348E+04 3.15824E+03-2.56389E+02 2.89425E+03 9.57513E+01 7.66694E+02
 -1      5800-1.00668E+05 3.09814E+03-1.12699E+03 1.69885E+03 1.11045E+02-4.42384E+02
 -1      5801-1.01369E+05 3.70388E+03-7.20716E+02-4.03217E+03-3.75279E+02-3.44448E+02
 -1      5802-4.34987E+04-1.61684E+04-7.90454E+03-2.25142E+04-8.08875E+02 3.26875E+03
 -1      5803-5.85706E+04 1.60879E+03 2.84975E+02-1.20796E+04-6.45032E+02-1.40598E+03
 -1      5804 1.76804E+04 2.52161E+04 1.54297E+02-1.41672E+04 5.46914E+02 1.21556E+03
 -1      5805-5.80910E+03-3.73456E+03-8.97900E+01-2.66452E+04-3.10674E+02-2.91499E+02
 -1      5806-3.17296E+04-4.54432E+03-1.06699E+02-1.83252E+04-2.12287E+01 2.68253E+02
 -1      5807-2.11519E+04-9.49115E+03-8.07002E+02-2.76518E+04-7.77375E+02 3.46637E+01
 -1      5808-7.90113E+03 1.44441E+02-9.85814E+01-7.69141E+03-1.12066E+02 9.51148E+01
 -1      5809-9.87255E+04 2.12262E+03-9.92177E+01 6.81930E+03 2.67506E+02-2.60392E+02
 -1      5810-1.68549E+03-3.29669E+03-3.95725E+02-3.93316E+04-3.17019E+02-6.80978E+01
 -1      5811-2.05614E+03 3.27280E+04-9.83647E+02-1.88564E+04 1.45272E+02-9.88028E+02
 -1      5812-1.04872E+04-5.20797E+03-3.10587E+03-2.60075E+04-9.85689E+01-4.16568E+02
 -1      5813-6.62149E+04-4.48632E+03-6.03212E+02-2.80642E+04 4.57336E+02 2.26326E+03
 -1      5814-1.80444E+03-3.89455E+03 2.03729E+02-3.98215E+03-1.09417E+02 1.09551E+02
 -1      5815-6.01687E+02-3.57630E+02 3.35929E+02-1.10664E+03 1.92699E+02 1.27937E+02
 -1      5816-6.94837E+04-1.49566E+04-3.69872E+02-3.66933E+04-3.53912E+02 3.97573E+02
 -1      5817 1.39180E+04 3.40309E+04-6.13578E+01-1.50930E+04-4.75973E+02-6.02409E+02
 -1      5818-1.95918E+04 6.84437E+03-1.06901E+02 3.84444E+03 3.91154E+02 3.77079E+02
 -1      5819 1.50522E+03-3.66499E+03-3.26640E+00-3.80992E+04-2.71599E+02-2.92361E+02
 -1      5820-6.82281E+02-6.34221E+00 1.39627E+02-4.59192E+04-9.96021E+01-1.56711E+02
 -1      5821 4.58544E+02 2.47423E+02-5.10969E+01-4.48729E+04 4.75398E+02 3.54578E+00
 -1      5822 1.10485E+04 2.59394E+04-1.90965E+02-3.04402E+04 1.00088E+03-6.61115E+02
 -1      5823-1.20684E+05-3.81037E+04-3.42855E+04-2.07817E+04-1.16614E+03 8.88095E+03
 -1      5824-7.25752E+03 2.03982E+03 2.32187E+02 3.86134E+03-2.42894E+02-1.04479E+02
 -1      5825 1.93170E+04 1.33667E+04-2.34636E+02-3.67314E+04-2.21033E+01-3.14658E+02
 -1      5826 5.18688E+03 4.13313E+03-1.77755E+02-4.24053E+04 6.05759E+02-2.80697E+02
 -1      5827-1.46073E+04-6.10812E+03-6.01504E+01-2.86620E+04-2.81551E+02-7.06295E+02
 -1      5828-5.23322E+03-4.24061E+03-1.80566E+02-3.14451E+04-6.18932E+02-9.35033E+01
 -1      5829-1.60320E+04-9.32395E+03-6.38714E+02-2.79393E+04 1.89096E+02-4.13586E+01
 -1      5830 2.95266E+03 4.65955E+02-9.46184E+01-2.33060E+04 4.92703E+01 9.98154E+02
 -1      5831 3.52968E+04 4.83773E+04 4.79057E+02-3.11235E+04-3.53773E+02-2.28045E+02
 -1      5832-1.03806E+04-7.11132E+03 5.47067E+01-3.24027E+04-4.41462E+02-3.19405E+02
 -1      5833-9.52555E+03 2.78901E+03 1.46808E+02-9.21527E+02-2.63130E+02-2.56935E+01
 -1      5834 1.82010E+04 1.29679E+04-5.53944E+02-2.52333E+04-1.87158E+02-9.13634E+02
 -1      5835 4.18605E+04 8.82302E+03-2.31043E+02-2.12464E+04 4.18849E+02-2.70472E+02
 -1      5836-4.89346E+04 1.20013E+04-1.89451E+03-1.20428E+03-2.08039E+02-7.25399E+01
 -1      5837-2.52664E+04 1.70764E+04-1.50006E+01-8.90172E+02-4.90324E+02-3.35376E+02
 -1      5838 2.38933E+03 7.05021E+02 2.36943E+01 2.59888E+03-9.59708E+01-1.43092E+02
 -1      5839 2.07382E+04 3.71079E+04-8.37608E+01-2.17706E+04 1.60082E+03 1.08644E+03
 -1      5840-2.92279E+03 1.71167E+03 4.98220E+01 1.57744E+03-1.64451E+02-3.79498E+01
 -1      5841-5.46255E+02 1.36906E+03-4.76646E+01 2.64659E+03-1.98945E+02-4.32257E+01
 -1      5842-4.07216E+03 1.71467E+03-3.83268E+01 2.53886E+03-2.12308E+02-6.87962E+01
 -1      5843 9.56129E+03 1.98225E+04 9.68169E+01-3.08931E+04 1.81088E+02 1.47136E+02
 -1      5844-9.41920E+03-1.06976E+02 9.25695E+01-3.80769E+03-6.59401E+01 8.08835E+01
 -1      5845-1.68477E+04 3.54745E+03-3.29667E+01-6.07345E+03-3.86386E+02 2.53402E+02
 -1      5846 7.63595E+02 2.89126E+02-2.09630E+02-3.44351E+04 1.06933E+02-1.72623E+01
 -1      5847-4.70094E+04-1.32893E+04-1.68322E+03-2.37773E+04 1.26322E+02-4.49232E+02
 -1      5848-1.56320E+04 2.68075E+03-4.14936E+01 2.41446E+02-4.49253E+01 2.26154E+02
 -1      5849-4.53718E+04-1.76249E+04-8.56000E+03-2.24787E+04-1.52121E+02-8.18938E+02
 -1      5850-2.34055E+04-1.06663E+04-2.48228E+03-2.51338E+04-9.10687E+02 1.39118E+03
 -1      5851-1.20634E+03 1.10764E+03-9.46821E+01 3.04175E+03-1.24832E+02-7.08929E+00
 -1      5852-1.87190E+04-6.87392E+03 8.47375E+01-2.48228E+04 5.62059E+01 4.73934E+02
 -1      5853-7.83385E+04 9.47092E+03 8.25358E+02-2.60374E+03-4.03866E+02-2.00290E+03
 -1      5854-1.14088E+04-7.52087E+03 1.47999E+02-2.98194E+04-6.69877E+01 2.06615E+02
 -1      5855-3.95538E+04-4.30285E+03-2.93975E+02-2.07784E+04-5.66534E+02-8.21547E+02
 -1      5856 3.07440E+04 4.69467E+04 4.60341E+02-2.91793E+04 3.32389E+02-1.28251E+03
 -1      5857-2.47049E+04-1.06309E+04-6.57391E+03-2.38731E+04-2.91265E+02-7.86748E+02
 -1      5858-2.66125E+03 1.28215E+03 1.92594E+01-5.13353E+02-1.33239E+02 8.53488E+01
 -1      5859-2.89037E+03 9.22028E+02 4.78464E+01-1.67336E+03-9.83946E+01 7.83482E+01
 -1      5860-2.84816E+04 2.21418E+04-1.03382E+02-4.34714E+03-4.87160E+02-6.23083E+02
 -1      5861-8.93328E+02 1.43788E+03 3.02482E+01-2.77978E+02-7.13949E+00 8.13536E+01
 -1      5862-3.22995E+04 1.31824E+04 2.20193E+02 3.77117E+03-1.19465E+01-8.09789E+01
 -1      5863 3.05109E+04 4.01491E+04-9.63330E+01-2.84304E+04-3.01576E+02-5.68192E+02
 -1      5864 6.83464E+04-5.95083E+03-3.05139E+02 7.65401E+03-1.49987E+01-8.48599E+01
 -1      5865 8.19624E+04 5.39275E+03 1.62993E+03-1.87135E+04-1.51773E+03 1.84094E+03
 -1      5866 3.30262E+04 4.48007E+04 3.81024E+02-3.15360E+04-7.15625E+02-1.67105E+02
 -1      5867-1.32406E+03-7.12411E+02-2.73441E+02-2.75708E+04-2.10710E+02-4.21156E+00
 -1      5868 4.09463E+03 1.80568E+04 3.35216E+02-1.92853E+04-1.50768E+02 2.51541E+02
 -1      5869-1.19438E+04 8.63168E+03-3.63908E+02-1.83697E+03-7.45089E+02-7.60152E+02
 -1      5870 2.66647E+04-1.99064E+04 2.93556E+02-3.40280E+03-1.09078E+03 2.38095E+02
 -1      5871-8.41589E+02-1.61613E+03 2.26554E+02-1.77852E+03 1.28445E+02 1.78037E+02
 -1      5872-3.45482E+03-3.45535E+04-1.36192E+03-1.89764E+04-5.37576E+01 9.17195E+02
 -1      5873 3.95881E+04 6.54220E+04 1.07816E+03-4.42162E+04 4.04041E+02-1.19290E+03
 -1      5874-7.49307E+02-2.63225E+03 3.81344E+02-2.52456E+03-8.73288E+01 2.79115E+02
 -1      5875-7.07255E+02-8.91791E+03 7.30695E+02-3.67540E+03 5.10113E+02-2.29095E+01
 -1      5876 1.60577E+04 1.18338E+04-3.36753E+02-2.26415E+04 1.15353E+01 1.21007E+03
 -1      5877-7.87144E+02-4.56542E+03 5.40191E+02-2.76752E+03-1.55833E+02 1.28931E+02
 -1      5878-6.71215E+02-7.70902E+03 1.05837E+03-3.26901E+03 1.20536E+01-2.17953E+01
 -1      5879 1.39051E+04 1.37154E+04 1.68017E+02-3.93318E+04 4.71992E+02-5.55890E+02
 -1      5880-1.17833E+03-1.23356E+03 1.84970E+02-1.86526E+03-9.33299E-01 8.71525E+01
 -1      5881-1.90674E+03-9.12694E+02-4.60471E+01-1.94000E+03-2.23875E+02 1.59816E+01
 -1      5882 5.60960E+03-1.40563E+04 4.48760E+02-2.19959E+03-5.70841E+02-7.34728E+01
 -1      5883 4.26903E+03 1.47002E+04 3.19375E+02-2.13410E+04 2.06273E+03-1.83669E+02
 -1      5884 6.24063E+03 4.24216E+03 1.07788E+02-3.18720E+04-4.86784E+02 1.31989E+02
 -1      5885 3.82240E+04 7.67429E+03-1.61723E+01-2.38250E+04-7.95419E+02 7.16099E+02
 -1      5886 1.09171E+03-2.90022E+03-1.41465E+02-3.93015E+04-2.59505E+02 1.68357E+02
 -1      5887 2.12506E+04 9.26097E+03 5.02436E+02-2.80157E+04-4.87396E+02 2.01534E+02
 -1      5888 2.79230E+04 3.74273E+03-1.76086E+02-2.21489E+04-5.26136E+02 6.88699E+02
 -1      5889-1.23307E+04-7.82613E+03-1.19613E+01-3.06414E+04-5.50558E+01 1.62563E+02
 -1      5890 8.76730E+03 6.67994E+02-1.26082E+02-3.61129E+04-2.06345E+02-6.79356E+02
 -1      5891-1.57013E+04-7.77869E+03-3.44430E+03-2.56410E+04-1.18293E+02-4.25813E+02
 -1      5892 1.32493E+05 5.27711E+03 8.89074E+03 3.37492E+04 1.58745E+03 2.92244E+03
 -1      5893 3.88832E+04-2.35585E+03 3.46469E+02-1.62837E+03-1.18356E+02 7.13177E+02
 -1      5894 8.66424E+04-8.75753E+03-8.36619E+02 4.65933E+03 2.42864E+02-7.07632E+02
 -1      5895-4.66553E+02 1.27682E+03 1.47098E+02-3.71685E+02 1.25778E+02 2.09274E+02
 -1      5896-1.27722E+04-7.03124E+03-9.09565E+02-2.92654E+04-6.50932E+02 1.02508E+01
 -1      5897-2.82481E+04-1.07066E+04 3.48241E+01-2.61484E+04-5.49169E+02-4.46604E+02
 -1      5898-3.88235E+04 1.66824E+03 1.95746E+01 1.02252E+03 3.28629E+02 5.41868E+02
 -1      5899-6.46654E+03-6.09961E+03-5.29250E+01-3.41459E+04-3.66741E+02-4.62742E+02
 -1      5900 1.56337E+03-2.74373E+03-6.49517E+01-4.19298E+04-3.45794E+02-3.37159E+02
 -1      5901-1.69657E+04-8.06254E+03-3.22755E+03-2.58785E+04-6.85866E+02 1.41630E+03
 -1      5902-7.68199E+04-3.32645E+03-7.07255E+02-1.79185E+04-8.43700E+02-1.10833E+03
 -1      5903-6.71659E+04-2.32078E+04-1.49552E+04-2.14620E+04-4.36582E+02 4.51288E+03
 -1      5904-2.24367E+04-2.21006E+03-4.71668E+01-1.25034E+04 2.28586E+01 9.15663E+02
 -1      5905 4.14757E+04 1.48069E+04-1.21380E+02-2.23100E+04-1.12437E+03-1.40023E+01
 -1      5906-5.69514E+04 4.64885E+03-7.59785E+01 1.16350E+04-9.06785E+01-2.26704E+02
 -1      5907-2.48804E+04 3.97625E+03-5.87281E+01-3.05028E+01-5.28923E+02-7.44911E+02
 -1      5908-8.27179E+03 2.45452E+03 2.64788E+02-1.18024E+04-2.98416E+02-7.33195E+02
 -1      5909 9.55821E+04-5.83168E+03 4.84631E+01-4.18427E+03-6.04313E+02 4.95340E+02
 -1      5910-4.24312E+04 2.66732E+03 7.11534E+01-2.88557E+03-2.55128E+02-8.15885E+02
 -1      5911-2.11217E+04-5.84176E+02 4.06269E+02-1.43087E+04-1.79176E+02-3.78346E+02
 -1      5912-3.29467E+04-2.61528E+03-2.04044E+01-1.76803E+04-2.27921E+02-4.32705E+02
 -1      5913-3.77399E+04-7.07451E+03 6.77435E+01-2.35529E+04-9.04349E+02-8.63655E+02
 -1      5914-4.30546E+04-1.06595E+04-8.96459E+02-2.43715E+04-1.06452E+03-2.38487E+02
 -1      5915 6.66185E+04-5.35713E+03-4.08607E+02 1.00533E+04-5.51049E+02 7.71846E+02
 -1      5916-2.19174E+04-4.92915E+03 3.45546E+01-2.43471E+04-8.56018E+01-4.83369E+02
 -1      5917-6.86280E+04 8.31889E+03 3.84804E+02 7.18206E+03 9.07560E+01-7.75858E+02
 -1      5918-1.29054E+05-1.73425E+04-1.61466E+04-1.40112E+04-7.84593E+02 9.60709E+01
 -1      5919-5.89588E+04-2.27311E+04-1.56435E+04-2.05498E+04 7.75655E+01-3.51907E+02
 -1      5920 5.72745E+04-5.48537E+03-1.59825E+02 1.12812E+04 1.80013E+01-2.82682E+01
 -1      5921-1.64807E+04-8.02374E+03-5.08086E+03-2.47621E+04-4.82062E+02 6.82792E+02
 -1      5922-7.23115E+03-3.91521E+03-2.19065E+03-2.65628E+04-4.22281E+02 8.96732E+02
 -1      5923-6.04359E+03-3.50518E+03-1.47458E+03-2.73549E+04-2.50155E+02-1.18320E+02
 -1      5924 7.57282E+04-3.85333E+03-6.56593E+01 3.05379E+04 1.16007E+03 2.05788E+03
 -1      5925 1.11769E+05-1.15948E+04 6.55055E+02 8.90348E+03-1.92794E+02 4.21209E+03
 -1      5926-2.70824E+04-1.15204E+04-6.92240E+03-2.37625E+04-6.42875E+02 1.33738E+03
 -1      5927 1.82175E+04 8.68945E+03 4.51186E+03-2.53449E+04-2.97700E+02-7.92998E+02
 -1      5928 1.69510E+04 8.03771E+03 3.36029E+03-2.55848E+04-4.32156E+02-1.69051E+03
 -1      5929 1.34868E+04 7.04631E+03 3.89047E+03-2.55201E+04-4.09333E+02-1.68540E+03
 -1      5930 9.23362E+03 4.64304E+03 2.68479E+03-2.68168E+04-1.74169E+02-1.56281E+02
 -1      5931 6.52880E+04 2.65102E+03-5.09411E+01-1.39708E+04 2.96890E+02-4.88898E+02
 -1      5932 1.39705E+03 7.44566E+02 4.13151E+02-2.79163E+04-3.46869E+02-6.11371E+01
 -1      5933 2.69817E+03 2.15090E+03 6.70262E+01-3.12268E+04-5.31745E+02 1.59212E+01
 -1      5934 5.15081E+03 3.27935E+03 3.95973E+02-2.99032E+04-5.44012E+02-6.63542E+01
 -1      5935-7.24975E+01 7.11366E+00 1.32799E+02-3.13270E+04-5.63013E+02-1.19771E+01
 -1      5936 2.85755E+04 1.16269E+04 6.29033E+03-2.37521E+04-2.14671E+02-2.50278E+02
 -1      5937 7.16964E+03 3.91979E+03 2.18486E+03-2.74644E+04-2.05826E+02-3.51796E+02
 -1      5938 4.20587E+04 1.13475E+04 1.23975E+03-2.46680E+04-9.96018E+02 1.40008E+02
 -1      5939 2.33277E+04 1.00326E+04 5.05075E+03-2.44408E+04-3.61399E+02-2.15292E+03
 -1      5940 8.50137E+04 2.76818E+04 2.10593E+04-2.09139E+04-1.23454E+03-1.94096E+03
 -1      5941 1.83779E+05 5.09385E+04 4.67731E+04 2.83760E+04-2.43488E+03-7.59283E+03
 -1      5942 7.13682E+04 2.27752E+04 1.62485E+04-2.03013E+04-6.23622E+02-7.40393E+03
 -1      5943 1.29037E+05 3.09533E+04 3.14986E+04-1.95955E+04-2.06749E+03-3.85614E+03
 -1      5944 5.70285E+04 1.44348E+04-2.11751E+02 3.83462E+04 3.31817E+03 2.46010E+03
 -1      5945 1.03408E+05-2.00010E+03 2.01367E+03-9.43594E+03-3.09830E+01 1.98588E+03
 -1      5946 7.35562E+04-5.17452E+03-2.40512E+02 2.17344E+04 1.66837E+02-1.37921E+02
 -1      5947 1.00954E+05-8.37246E+02 2.51989E+02-9.17209E+03 9.13966E+02-6.85452E+02
 -1      5948 1.34436E+04 7.57582E+03 3.75565E+02-2.90860E+04-5.87190E+02 3.24074E+01
 -1      5949 2.54166E+04 1.09077E+04 1.71067E+03-2.59972E+04-4.06084E+02-4.60038E+02
 -1      5950 7.22619E+04-8.87772E+03-5.68950E+02 1.97636E+04 3.00145E+02 6.53484E+02
 -1      5951 3.82116E+04 1.32796E+04 2.38865E+02-2.43036E+04 1.27572E+02-2.51924E+02
 -1      5952 1.13332E+05-7.61492E+03 4.88094E+02 7.55396E+03 1.60584E+02-2.13138E+03
 -1      5953 7.92966E+04-9.89315E+03-2.27280E+02 8.97530E+02 2.84834E+02 1.07716E+03
 -1      5954 4.01754E+04 5.13098E+03-1.77370E+00-2.21006E+04-7.00100E+02 8.11064E+02
 -1      5955 7.16004E+04-2.76321E+03 1.86913E+01 1.80301E+04 3.47211E+02-1.27295E+01
 -1      5956 6.95144E+04 2.47262E+04 1.73384E+04-2.06490E+04 4.71423E+02 2.14381E+03
 -1      5957 8.92570E+04 8.17145E+03 2.53110E+03-1.73275E+04 8.29859E+02-2.72411E+02
 -1      5958 6.47600E+04-7.16888E+03 1.01926E+02 8.10277E+03 1.54853E+02 5.34834E+02
 -1      5959 4.28901E+04 1.66831E+04 1.09067E+04-2.10848E+04-7.62922E+02-5.17819E+03
 -1      5960 5.61777E+04-2.64988E+03 1.96818E+02 9.21356E+02 1.70556E+02-2.46138E+02
 -1      5961 5.59234E+04-6.10046E+03-2.19448E+02 7.46161E+03 2.02337E+02 2.44360E+02
 -1      5962-1.52212E+04-9.36949E+04 1.13468E+04-3.10470E+04 3.33337E+03-8.81981E+02
 -1      5963-6.29370E+03-5.80176E+04 7.89713E+03-1.92347E+04 2.72859E+02-5.17889E+02
 -1      5964 6.02174E+04 9.24175E+01-2.31629E+02-1.55748E+04-7.36197E+02 1.38115E+03
 -1      5965 4.98704E+04-4.72541E+03 5.09224E+01 6.63709E+03 4.36975E+01 1.75447E+02
 -1      5966-8.91357E+02-1.00121E+04 7.20832E+02-3.86287E+03-1.99759E+02 1.89373E+02
 -1      5967 6.40755E+04-2.77863E+03-2.43152E+02 1.35623E+04 7.23052E+01 2.21327E+01
 -1      5968 2.84733E+04 1.20229E+04 8.83289E+02-2.54010E+04 1.04779E+02 4.18200E+02
 -1      5969 2.23452E+04 8.14636E+03 5.49355E+01-2.81613E+04-6.27119E+02 6.58380E+02
 -1      5970 6.04070E+04-2.20723E+03 4.23092E+02-1.09616E+04-3.90869E+02 1.08420E+03
 -1      5971-9.19050E+02-1.78341E+04 1.60179E+03-5.92443E+03-1.57919E+00 1.23841E+02
 -1      5972 9.21645E+03 6.23440E+03-1.94154E+01-3.24445E+04-3.03288E+02 1.68283E+02
 -1      5973 6.63433E+04 6.49428E+03 7.17913E+02-1.99770E+04-1.21956E+03 1.64029E+03
 -1      5974-3.66771E+04-9.37636E+04-2.54293E+04-8.11739E+04-7.01828E+04-1.57653E+04
 -1      5975 1.86046E+04 8.95236E+03 3.28242E+03-2.47596E+04 2.75380E+02 1.79999E+03
 -1      5976-6.99013E+03-6.04042E+03-4.34179E+02-1.24339E+04-3.20944E+02-3.16417E+03
 -1      5977-1.34072E+04-1.07284E+04-3.58729E+03-1.90366E+04-7.91072E+03-9.15479E+03
 -1      5978 2.97608E+04 1.03670E+04 3.91962E+02-2.68111E+04-4.46937E+02 4.66715E+02
 -1      5979-2.51084E+03-2.82222E+04 2.12122E+03-1.11271E+04-3.80934E+03-6.87698E+02
 -1      5980 6.72510E+04 1.10990E+04 1.64747E+03-2.10645E+04 6.20680E+02 9.56497E+01
 -1      5981 8.57579E+02 1.54998E+03-2.81617E+01-4.03752E+04-3.68185E+02 1.90672E+02
 -1      5982 1.88058E+03 3.21492E+03-7.32982E+00-3.92754E+04-4.78283E+02 6.67474E+01
 -1      5983 1.17940E+04 8.18628E+03 2.46673E+01-3.08856E+04-1.60845E+02-6.98781E+01
 -1      5984 3.22271E+04 1.29850E+04 6.65322E+03-2.18102E+04-2.84418E+02 2.88432E+03
 -1      5985 2.97491E+04 1.23119E+04 7.52758E+03-2.29285E+04-9.35706E+01-2.96090E+03
 -1      5986-1.02174E+03-1.03016E+03 1.86661E+02-3.49994E+04-6.16671E+02-6.28977E+00
 -1      5987-1.43204E+04-4.90189E+03-9.70235E+02-1.59221E+04-2.90339E+03-4.99505E+03
 -1      5988-1.46163E+04-2.27840E+03 8.70495E+02-2.06046E+04-1.00096E+02-1.45330E+03
 -1      5989-2.37515E+04-2.16229E+04 8.68569E+02-3.19201E+04 2.87238E+03 3.07193E+03
 -1      5990-1.41637E+04-1.69705E+04 2.63154E+03-2.38126E+04-4.99903E+03-4.86882E+03
 -1      5991 1.63576E+02 1.77670E+02 9.36794E+01-3.98163E+04-4.26958E+02 4.49600E+01
 -1      5992-1.27050E+04-5.05157E+03 1.25745E+01-1.98573E+04-4.64095E+02-4.91958E+02
 -1      5993 2.65899E+02-1.93115E+01-1.13556E+02-3.70421E+04-4.55153E+02 3.09086E+01
 -1      5994-4.64191E+03-3.21341E+03 5.16345E+01-3.90109E+04-5.48345E+02-1.16816E+02
 -1      5995-6.41049E+03-6.08101E+04 7.26332E+03-2.12347E+04-1.04199E+04-3.67585E+03
 -1      5996 3.39726E+03 3.06368E+03 1.20684E+01-2.73924E+04-4.19273E+02 2.92321E+02
 -1      5997-1.20996E+04-3.95813E+04-4.99103E+02-2.58959E+04-6.12080E+02-5.80618E+02
 -1      5998-6.87865E+03-3.64506E+04 1.85376E+03-1.78560E+04-1.01984E+04-4.26765E+03
 -1      5999-3.21017E+04-4.34367E+04-1.27484E+03-2.66949E+04-9.11538E+01 8.93088E+02
 -1      6000-2.25604E+03-2.11802E+04 1.06014E+03-9.66158E+03-2.06740E+03-2.88032E+02
 -1      6001-1.86073E+04-1.35033E+04 2.99264E+02-2.53145E+04-2.37781E+02 7.81991E+02
 -1      6002-2.12910E+03-9.22775E+03 7.18580E+02-9.04613E+03 4.81109E+01-4.46942E+02
 -1      6003 9.75855E+04-3.79762E+03 3.97270E+02 4.26992E+03 1.67620E+02 6.18214E+02
 -1      6004 1.56392E+04 5.67474E+03-2.98566E+02-2.78397E+04-4.07389E+02 5.00875E+02
 -1      6005-7.81952E+03-1.75711E+04 8.82111E+02-1.75398E+04-1.80293E+03-4.98460E+02
 -1      6006-1.32368E+04 2.08810E+03 7.04736E+01-1.97164E+04 3.37466E+02-4.13878E+02
 -1      6007-1.12170E+04-3.57347E+03-2.02671E+02-1.66739E+04-2.88299E+02-9.78306E+01
 -1      6008-1.62716E+04 1.55297E+03-1.54789E+02-2.03629E+04 3.07724E+02-3.94063E+02
 -1      6009 8.98651E+03 1.83062E+04-3.22372E+02-3.15033E+04 2.42061E+02 8.89352E+01
 -1      6010-7.71693E+03 3.34016E+02-6.58383E+01-5.58947E+03-1.34367E+02 2.49874E+02
 -1      6011-2.05388E+04 1.57770E+02-1.98154E+02-2.15738E+04 3.42216E+02-1.32850E+01
 -1      6012-1.33908E+04-2.49908E+02 6.79359E+00-2.49439E+04 2.77153E+02-2.80900E+02
 -1      6013 1.63432E+04 6.55667E+03-5.56255E+01-2.91530E+04-3.05726E+02 3.10596E+02
 -1      6014-1.41583E+04 2.74050E+03-5.57109E+00-2.04316E+04 4.71851E+02-2.26952E+02
 -1      6015 3.03522E+03 3.89368E+03 2.51204E+01-3.74751E+04-3.81498E+02 1.97213E+01
 -1      6016 1.31890E+04-1.40428E+04 3.43350E+02 1.27178E+03 8.61161E+02-4.16527E+02
 -1      6017 1.08864E+04 6.91312E+03 4.78170E+01-3.22921E+04-4.87697E+02 2.61187E+02
 -1      6018 1.27900E+04 3.71940E+04 7.84956E+02-2.78625E+04-1.29556E+03 2.95276E+02
 -1      6019-1.51342E+04 1.74924E+03 2.18945E+02-1.99479E+04 2.18119E+02-6.13643E+02
 -1      6020 1.16534E+03 5.15684E+03-1.05874E+02-3.35295E+04-1.98615E+02-2.62765E+02
 -1      6021 4.47769E+04-5.96957E+03 1.86375E+02 1.26147E+04 3.72224E+02-3.02215E+01
 -1      6022-7.66986E+03-2.99672E+02 3.45600E+02-1.53223E+04 7.83201E+02-1.10158E+03
 -1      6023-2.07625E+03 3.38549E+03 2.00239E+02-4.05156E+04-3.56600E+02 4.57729E+02
 -1      6024 6.90540E+04-4.55413E+03-1.95640E+02 1.79657E+04 2.59376E+02-2.38976E+02
 -1      6025-1.07747E+03 3.04060E+03-2.94964E+02-4.14267E+04-4.82848E+02-4.96617E+01
 -1      6026-1.22624E+04-1.01155E+04-9.73425E+01-3.99597E+04 2.77115E+02 6.81964E+02
 -1      6027-5.09988E+02-5.36440E+02 1.28777E+02-2.82410E+04 9.76413E+01-1.01677E+02
 -1      6028-2.21169E+03-1.03107E+04-2.19825E+02-2.10694E+04 2.39580E+03-1.57249E+02
 -1      6029-1.66772E+04 1.25157E+03-8.40682E+01-1.76606E+04-1.05318E+02-2.04598E+02
 -1      6030 3.84287E+04-7.26786E+03-2.24737E+02-3.53354E+04 8.39508E+01-8.11346E+02
 -1      6031-1.25402E+04-4.03801E+04-9.26673E+02-2.79193E+04 1.65594E+03 6.98351E+02
 -1      6032-9.08998E+03-2.29537E+04-6.48907E+02-2.82007E+04 1.56019E+03 6.36562E+02
 -1      6033-1.69927E+04 2.18506E+03-1.11073E+02-1.88469E+04 7.16615E+01-2.09296E+02
 -1      6034-1.37411E+03-1.26790E+04 7.52271E+02-7.08296E+03-7.68661E+02 1.12715E+02
 -1      6035 3.62019E+04-1.08225E+04 1.35356E+02 8.20136E+03 7.88450E+02-2.42499E+02
 -1      6036 9.30452E+03 5.49414E+03 1.25358E+02-2.48828E+04-1.05838E+02-5.15227E+02
 -1      6037 8.48382E+04-1.12661E+03 3.62303E+02 1.48585E+04-3.45178E+01 4.90789E+02
 -1      6038-5.19068E+03-1.69019E+03-7.52445E+01-2.49231E+04-3.55379E+02 9.28782E+02
 -1      6039 2.71174E+04-3.95080E+03-3.36854E+02 1.16734E+03-2.45121E+02 2.73477E+02
 -1      6040 5.24454E+04-4.59732E+03-5.64707E+02 1.13044E+04-5.93971E+02 2.11857E+02
 -1      6041 3.60840E+04-7.04655E+03 1.74319E+02 7.63568E+03-1.79704E+02 4.90829E+02
 -1      6042 4.60166E+04-4.05531E+03-1.88484E+00 9.77216E+03-4.32870E+01 3.03986E+02
 -1      6043 5.90336E+04-3.83870E+03-2.56556E+02 1.17938E+04 1.59619E+02-4.38496E+01
 -1      6044-3.27673E+04-4.70746E+04-4.03469E+02-3.11313E+04-5.72497E+02 1.05037E+03
 -1      6045 3.72806E+04-1.02874E+04-4.14716E+01 5.67460E+03-3.34234E+01 5.55628E+01
 -1      6046-2.83876E+04-4.19176E+04-1.46089E+02-2.93202E+04-6.72482E+02 1.04282E+02
 -1      6047 8.78314E+04-1.30188E+03 1.97142E+02 1.04921E+04-2.21635E+02 3.16193E+02
 -1      6048-2.89398E+03-7.96069E+03 4.46670E+02-7.93856E+03-3.03410E+02-1.87834E+02
 -1      6049-5.05374E+03-2.73751E+03-2.37459E+02-7.43665E+03-1.99577E+02 2.13590E+02
 -1      6050-3.48912E+02-2.89153E+03 4.43184E+02-1.90788E+03 2.85744E+02 7.28482E+01
 -1      6051 5.01569E+04-1.35759E+03 4.71627E+02-1.78423E+04 1.34820E+02 1.20554E+03
 -1      6052 2.92348E+04-2.20825E+04 2.42410E+02-3.08730E+04-6.16847E+02 4.04507E+02
 -1      6053 2.42659E+04-2.41951E+04 6.71673E+02-1.32830E+04-3.44186E+02 3.04178E+02
 -1      6054 7.09344E+04-9.12199E+03 7.76958E+02 4.43527E+02-7.26085E+02 2.38162E+02
 -1      6055-2.40800E+03-1.36535E+04 2.70504E+02-7.17292E+03-2.72357E+02-9.98737E+01
 -1      6056-4.66093E+04-3.91609E+04-6.49084E+02-4.01439E+04-6.07287E+02-1.24199E+03
 -1      6057-5.59714E+02 1.35193E+03 1.37939E+02-2.81120E+02 1.28873E+02 7.15241E+01
 -1      6058-7.46071E+03-4.07463E+03 1.14104E+02-8.37435E+03-2.70891E+02-2.10281E+02
 -1      6059-1.11700E+04 2.40066E+03-5.68391E+01-4.98190E+03-2.18226E+02 1.97182E+02
 -1      6060-1.35452E+04 2.25859E+03-1.71797E+02-8.19489E+03-1.33620E+02 2.20103E+02
 -1      6061-1.43877E+04 1.62504E+03 8.97645E+01-1.16325E+04-1.37379E+02-4.54046E+01
 -1      6062-2.04365E+04-2.87877E+04 6.58881E+02-1.73986E+04 5.03350E+01-1.06227E+03
 -1      6063-2.75261E+04-3.23742E+04 1.18697E+02-2.31846E+04-2.91130E+02 9.06110E+02
 -1      6064 9.28635E+03-1.09480E+03 6.59764E+01 4.82364E+03-2.86471E+02-6.01474E+00
 -1      6065-2.18698E+04-2.89612E+04 2.21512E+01-1.84220E+04-4.86200E+02 8.12445E+02
 -1      6066-2.09625E+04 3.43341E+03 6.74404E+01-1.80728E+04-2.29402E+01-7.39004E+01
 -1      6067-2.42784E+03-4.48394E+03 1.18471E+02-6.50824E+03-2.52769E+02 2.40990E+02
 -1      6068 1.88451E+04-8.48201E+03 5.62675E+02 1.87343E+03-9.24189E+01 4.49674E+00
 -1      6069-1.11299E+04 4.64565E+02 1.52313E+02-1.12001E+04-2.62239E+02-2.03046E+02
 -1      6070 1.56873E+04-2.06232E+03-1.06843E+02 3.68753E+03-3.22374E+02-1.77342E+02
 -1      6071-5.06818E+03 9.57085E+02-5.95199E+01-2.65549E+03-8.95616E+01 1.60973E+02
 -1      6072-1.22777E+03-2.83372E+02 2.13236E+02-1.39423E+03-1.90924E+02 2.20653E+01
 -1      6073-4.67440E+03 4.75376E+02 1.83452E+02-4.02997E+03-2.06847E+02 1.03816E+02
 -1      6074-1.84696E+03-3.32808E+03-6.03596E+00-4.50859E+03-1.17495E+02 2.78312E+02
 -1      6075-9.08709E+03-2.23917E+03 7.12870E+01-1.17797E+04-3.81257E+02-1.06908E+02
 -1      6076 6.38877E+03-1.96122E+03-6.04631E+01 1.31977E+03-1.58749E+02 8.15801E+01
 -1      6077-4.52894E+03-1.04126E+04 1.15398E+02-1.15876E+04-6.03532E+02 8.82670E+01
 -1      6078 3.30289E+04 1.28832E+04 2.47795E+02-1.16837E+04-1.14371E+03-1.26781E+02
 -1      6079 4.03175E+04 1.13122E+04 2.15618E+01-2.74727E+04-1.11506E+03 1.31972E+02
 -1      6080-1.82967E+04 1.16554E+03 1.27538E+02-8.73451E+03-1.24701E+02-3.16367E+02
 -1      6081-2.41121E+04 3.33189E+03-8.99938E+01-6.23940E+03-1.52164E+02 3.06344E+02
 -1      6082-1.87232E+04 3.39937E+03 1.13971E+02-5.09500E+02-2.37922E+02 1.51845E+02
 -1      6083 4.03891E+04 8.49845E+03-1.84048E+02-3.41222E+04 3.95373E+02 6.06610E+02
 -1      6084-3.19013E+04-3.61728E+03 1.48517E+02-5.05618E+03-1.26310E+02-3.95577E+02
 -1      6085-4.73222E+03-1.04403E+04 3.73949E+02-1.12632E+04-2.32429E+02 7.51276E+02
 -1      6086-2.98167E+04-4.96481E+03 1.03595E+02-2.00174E+04 7.22026E+01 4.67059E+02
 -1      6087 6.21337E+04 2.00021E+04 1.53329E+02-2.08125E+04-7.73234E+02-4.25538E+02
 -1      6088-5.42726E+04-1.75584E+04-1.03228E+03-2.02542E+04 1.91911E+02-2.30062E+02
 -1      6089-9.08364E+03-1.11106E+03-5.67504E+02-3.55369E+04-1.51024E+02 5.59536E+02
 -1      6090 7.57161E+04 1.02525E+04 5.67700E+02-2.76714E+04-3.95600E+02 1.73024E+02
 -1      6091-4.71608E+04-1.35420E+04 2.71238E+02-1.16168E+04-6.45524E+02 5.93168E+02
 -1      6092-5.05193E+04-1.56518E+04-9.07547E+00-1.74345E+04-4.01269E+02 9.18742E+02
 -1      6093-5.28507E+04-2.57365E+04-4.97857E+02-2.72018E+04-7.45251E+01 8.79550E+02
 -1      6094 2.72217E+04 5.30792E+03-1.46744E+02-3.24750E+03-1.41212E+02 1.07217E+01
 -1      6095-3.92028E+03-2.92855E+03 2.28541E+01-4.17619E+04 4.83412E+02 1.29831E+02
 -1      6096 5.01890E+03 2.81203E+04-2.53084E+03-1.69450E+04 3.01407E+03-3.57849E+02
 -1      6097-4.09544E+02-5.39796E+02-5.69504E+02-2.78918E+04 1.37766E+03-1.30008E+02
 -1      6098 9.60318E+03-2.94991E+04-6.03424E+02-2.19730E+04-3.64060E+02 1.85658E+02
 -1      6099-8.05489E+03-1.02579E+04-1.24035E+02-1.88143E+04-4.58370E+02-1.22765E+01
 -1      6100 6.90267E+04-8.46794E+03-1.83887E+02 1.44278E+04 8.76840E+01 5.57771E+02
 -1      6101-5.87729E+03-1.49424E+04 3.23404E+02-1.53564E+04-9.69790E+01-3.83432E+02
 -1      6102-4.13309E+04-1.49723E+04-3.25109E+02-2.16054E+04-2.26467E+02 5.75968E+02
 -1      6103 1.49116E+04-2.38172E+02 1.24880E+02-1.73737E+04-6.33361E+02 6.78511E+02
 -1      6104 1.25617E+05 9.19604E+03 1.12794E+04-1.26156E+04-1.04042E+03-2.20494E+03
 -1      6105-3.91214E+04-4.01529E+03-1.82699E+02-9.05396E+03-5.71981E+02 4.86355E+02
 -1      6106-9.89912E+03-3.62567E+03 5.31127E+02-2.07440E+04 3.32490E+02 6.49765E+02
 -1      6107-3.26098E+04-2.57361E+03-1.07831E+02-3.71995E+03-4.64538E+02 2.10290E+02
 -1      6108 1.66016E+04-3.17120E+03-9.10695E+02-1.87292E+04-5.55219E+02 1.83956E+03
 -1      6109-3.40542E+04-1.61202E+03 4.00405E+02-1.49340E+04-8.53978E+01 3.68349E+02
 -1      6110 6.90316E+04-6.44211E+03-3.92256E+01 1.72090E+04 1.45640E+02 5.35050E+02
 -1      6111 7.00229E+02 1.63704E+03-1.66226E+02-1.61907E+03 1.68066E+02-1.81444E+02
 -1      6112 8.38089E+02 3.86155E+03-5.06301E+02-2.36421E+03 9.25880E+01-1.03084E+02
 -1      6113 2.63003E+03 2.24758E+04-3.61203E+03-9.53282E+03-1.02245E+03 5.26980E+02
 -1      6114 5.63657E+02 1.54047E+03-2.40842E+02-1.05749E+03-2.23479E+02-9.04872E+01
 -1      6115-3.05375E+04 1.18032E+03 8.04617E+00-6.61801E+03-2.99811E+02 2.66179E+02
 -1      6116 2.45696E+04 8.39767E+03-7.47930E+03-3.12148E+04 7.83880E+03-1.14615E+04
 -1      6117 1.77765E+03 4.05076E+03-8.42055E+01-3.46415E+03-2.42986E+02 8.18578E+01
 -1      6118 2.85027E+04 5.63059E+03-6.86643E+01-1.81271E+04 1.67349E+02-4.97805E+02
 -1      6119 1.66447E+04-3.38357E+03-1.65036E+02-1.64231E+04-2.19937E+02 4.42354E+02
 -1      6120 6.56671E+04 3.08633E+04 4.57855E+02-3.42380E+04 3.34731E+02 1.01636E+02
 -1      6121 8.20185E+04 3.86971E+04 1.10484E+04 5.98835E+04 5.53988E+02-3.31057E+03
 -1      6122 1.32345E+04-3.21544E+03 5.06965E+01-6.83735E+03-1.38047E+02-2.10801E+02
 -1      6123 6.17028E+04-1.66103E+04-8.92772E+02-1.91589E+04-3.48796E+02 2.64391E+02
 -1      6124 7.19716E+04 1.34196E+04 1.37912E+03-3.29103E+04 2.26386E+01-1.26908E+03
 -1      6125 4.76627E+04 7.56584E+03-4.32814E+02-3.81297E+04 2.76957E+02 3.92908E+02
 -1      6126 5.18615E+04 4.41486E+03 1.17392E+01-4.00403E+04 3.38242E+02 6.52397E+01
 -1      6127 5.43374E+04-1.71417E+04-1.07683E+02-2.64725E+04-1.07949E+03 2.61613E+02
 -1      6128 6.19243E+04-1.34651E+04 4.26945E+02-5.18272E+03-1.06797E+03 6.85689E+02
 -1      6129 1.05104E+04-1.59322E+02-1.56441E+02 4.11793E+03-1.07318E+02 1.22768E+02
 -1      6130 2.46550E+04-1.40810E+04 1.05252E+02 2.89280E+03 1.92211E+02 3.48506E+02
 -1      6131 3.42437E+04-1.41542E+04 6.61728E+02 1.33229E+03-6.89949E+01-2.65424E+02
 -1      6132 3.81719E+04-7.56754E+03 7.70586E+01 7.64638E+03-1.07628E+02-4.63097E+02
 -1      6133 9.00503E+03-1.23330E+03-1.88121E+02-7.53598E+03-2.76094E+02-1.00434E+02
 -1      6134-3.70008E+04-1.98323E+04-1.48327E+01-2.41248E+04-7.79059E+00 3.25352E+02
 -1      6135 9.66889E+04-4.11148E+03 7.88710E+02 3.33037E+03-6.32007E+02 9.45004E+00
 -1      6136 1.31078E+04-8.97177E+01-5.37229E+01-7.36653E+03 2.57924E+01 2.35128E+02
 -1      6137-4.33031E+04-2.69921E+04-5.07221E+02-2.79961E+04-6.56244E+01 7.19719E+02
 -1      6138 3.72560E+03 1.26332E+03-7.52675E+01-2.78407E+03-2.13136E+02 1.15362E+02
 -1      6139 6.35168E+03-7.69748E+02-1.00694E+02 1.52327E+03-1.53924E+01 6.48108E+01
 -1      6140-8.16040E+03-1.05315E+04 1.11593E+01-1.49818E+04-6.53564E+00 2.09728E+02
 -1      6141 2.69343E+04-3.15325E+03-5.35691E+01-1.17440E+04 4.51753E+01-3.39687E+02
 -1      6142 1.57981E+03-1.26618E+03-1.26657E+02 1.78629E+03-1.90617E+02 2.03786E+02
 -1      6143 8.65727E+04-3.40989E+03 1.11602E+02 7.39193E+03-6.99300E+02 9.71688E+02
 -1      6144 1.05213E+04-1.26768E+03-4.00034E+01 3.10531E+02-1.17815E+02 9.99651E+01
 -1      6145 9.14029E+04-4.90816E+03-2.06531E+02 4.10472E+02-7.64333E+01 2.29816E+02
 -1      6146 4.86374E+04-1.83697E+04 1.36827E+03-2.21311E+04-5.70922E+01 1.31103E+03
 -1      6147-9.28724E+03-4.30163E+03-2.38406E+01-1.85051E+04 7.63710E+01 8.53443E+01
 -1      6148-1.00792E+03-2.21666E+03 3.58007E+01-7.25247E+03-5.15734E+02-9.50959E+01
 -1      6149 1.63886E+04-7.13270E+03-1.05614E+03-2.26395E+04-6.20580E+02-3.59868E+03
 -1      6150 5.12776E+04-8.87181E+03 8.17335E+01-3.81322E+04-3.77430E+02 5.86649E+01
 -1      6151-2.07107E+04-6.14242E+03-9.60166E+01-2.12281E+04 1.55363E+02 1.63105E+02
 -1      6152 5.65671E+04 1.92770E+04 4.00032E+02-2.82715E+04 5.11631E+02 5.84317E+02
 -1      6153 5.07552E+04 3.36317E+03-7.70870E+00-3.53987E+04-3.27613E+02 3.61592E+02
 -1      6154 1.13346E+04-4.94561E+02-1.47610E+02 2.07858E+03 2.34733E+02 1.27889E+02
 -1      6155 7.30126E+04 2.10648E+04 2.53672E+02-3.00810E+04-3.12448E+02-5.72170E-01
 -1      6156-3.58977E+02 9.12451E+02 9.39534E+01-1.84951E+04 5.56038E+02-2.25585E+01
 -1      6157 1.61300E+02 2.67395E+03 1.22576E+02-9.61538E+03-7.10560E+01-4.89792E+01
 -1      6158-3.40651E+03-9.36278E+03-2.34047E+02-9.14534E+03-5.08215E+00-7.15527E+00
 -1      6159-1.08913E+03 7.60839E+02 2.24003E+01-1.98281E+04 5.79352E+02-1.00119E+02
 -1      6160-7.83229E+03-1.05635E+04-5.84304E+01-1.63109E+04-3.90125E+02 9.31410E+01
 -1      6161-2.49184E+03-4.98656E+03 1.07345E+02-1.04980E+04-1.34168E+03-1.40122E+01
 -1      6162-7.79407E+03-1.04599E+04-5.70948E+01-1.76177E+04-7.32051E+02 2.52889E+02
 -1      6163 1.62853E+04-3.54279E+03-1.64445E+02 6.81104E+02-1.49275E+02-5.86231E+01
 -1      6164 9.26798E+04-6.73794E+03 7.44165E+02-4.67091E+03 1.34531E+03 5.76267E+02
 -1      6165 1.66160E+04 3.11514E+03 9.49938E+01 4.48734E+02 1.69168E+02 1.22068E+02
 -1      6166-1.08825E+02 4.25440E+03 3.48326E+02-3.54071E+03 2.24138E+02 1.15668E+03
 -1      6167 3.96733E+04 1.62197E+04-1.45079E+03-1.43582E+04 1.16437E+03 4.97547E+02
 -1      6168 7.72102E+03 5.08820E+03 1.03439E+02-9.16608E+03-2.68472E+02 6.48534E+02
 -1      6169 5.76359E+04-2.69222E+03 5.99866E+01-3.60206E+04-1.39265E+02 7.69290E+02
 -1      6170 6.12559E+04-2.94176E+03 1.97923E+02-3.22701E+04-7.98479E+01 5.71214E+01
 -1      6171 2.85800E+04 1.22551E+04-1.02747E+02-1.39656E+04 7.38937E+02 3.36360E+02
 -1      6172 3.54604E+04-3.73143E+03-6.74571E+02-2.43646E+04-2.13762E+02-2.63953E+03
 -1      6173 5.09366E+04-1.90416E+03 2.36560E+02-4.04257E+04 1.21395E+02-1.87876E+01
 -1      6174 4.04510E+04 4.34437E+03-2.42999E+02-3.28245E+04 8.69059E+01 1.07034E+03
 -1      6175 6.53574E+04-1.31565E+04 3.38311E+02-7.55481E+03 8.75680E+02 3.44730E+01
 -1      6176 4.99692E+04-1.56590E+04-4.32067E+01-3.20378E+04-5.74032E+02 2.78893E+02
 -1      6177 9.00394E+04-6.59486E+03 1.21634E+02-1.05589E+04 6.60604E+02 1.52174E+02
 -1      6178 1.31850E+04-1.71632E+03-7.39398E+00-1.16188E+04-3.40974E+02 1.44004E+02
 -1      6179 8.24197E+04-4.18575E+03 5.47466E+02-2.42502E+04 1.76195E+02 1.24455E+03
 -1      6180 8.53582E+04-7.49808E+03-1.86478E+02-1.49142E+04-3.70829E+01 6.53974E+02
 -1      6181 2.14927E+04 6.87644E+02-5.54407E+02-2.42432E+04 8.14354E+02-3.20793E+02
 -1      6182 1.93295E+04-4.31963E+02 1.02933E+02-1.58564E+04-1.81236E+02 4.02335E+02
 -1      6183 7.23101E+04-1.21136E+04 6.45066E+02-9.84305E+03-8.81999E+02 5.78399E+02
 -1      6184 1.11618E+04-7.17731E+03-9.48224E+02-1.32977E+04 9.67471E+02 2.43540E+03
 -1      6185-8.54301E+02 8.18513E+01 4.05538E+01 6.76178E+02-1.24572E+02-1.79574E+02
 -1      6186 6.24868E+04-8.85004E+03 1.12175E+02 3.16773E+03-7.91480E+02 8.98435E+01
 -1      6187 9.60267E+04-6.13499E+03 3.17111E+02-8.94614E+03-2.15950E+02 8.96529E+02
 -1      6188 2.53187E+04-1.79070E+03 3.15293E+01-8.10697E+02-4.34020E+02-3.66552E+02
 -1      6189 6.67420E+04-7.79943E+03 2.68196E+02 7.26401E+03-6.82586E+02 5.13950E+02
 -1      6190 4.64159E+03-7.43382E+03-2.59159E+02-3.25916E+03-3.05898E+01-3.45407E+02
 -1      6191 5.21399E+04-1.01446E+04 5.60176E+02 4.81383E+02-5.87829E+02 4.35089E+02
 -1      6192 7.51568E+04 1.46024E+04 2.57458E+03 4.25408E+04-8.41148E+02-1.33701E+03
 -1      6193-1.72873E+03-8.99162E+02-2.71419E+01 4.87997E+03-6.11468E+01 4.09062E+02
 -1      6194 4.96116E+04-9.38892E+03-2.54669E+02 7.02945E+03-4.84677E+02-4.74030E+01
 -1      6195 7.90789E+04-7.95244E+03-4.34352E+02 4.88384E+03 8.36055E+02 1.32457E+02
 -1      6196 7.09987E+04-2.40061E+03-4.45476E+02 1.24733E+04 5.68112E+01 1.07906E+02
 -1      6197 7.96334E+04-3.20336E+03-3.67925E+02 1.16688E+04 7.22302E+02 1.32322E+02
 -1      6198 5.62695E+04 2.02976E+04-4.25567E+01-2.02094E+04 5.89107E+02 2.08675E+02
 -1      6199 4.24160E+04 2.73225E+04 3.32549E+02-2.75038E+04-2.62510E+02-3.54691E+02
 -1      6200 1.99614E+04 7.71542E+03 2.21865E+02-1.91172E+04 2.00572E+02-1.75928E+02
 -1      6201 8.08135E+03-3.40794E+03-1.10287E+02-2.20212E+04 4.14077E+02 1.89050E+02
 -1      6202 1.16230E+04-2.33658E+03-2.37921E+02-2.25717E+04 3.64921E+02-1.37930E+02
 -1      6203 1.12237E+04-6.46929E+03-9.59492E+01-1.42690E+04 3.85668E+02 7.30481E+02
 -1      6204 3.51150E+04 2.07843E+04-2.02794E+02-2.29632E+04-1.00467E+02-3.40852E+02
 -1      6205 3.95836E+04 1.28154E+04-2.16803E+02-1.87087E+04-2.10743E+02-7.71455E+02
 -1      6206 1.94335E+04-1.13173E+03-1.58580E+03-2.30979E+04 1.96875E+03-3.78425E+03
 -1      6207-6.66037E+04-1.13039E+04-1.84141E+02-3.01988E+04-4.93983E+02-7.28515E+02
 -1      6208-2.65237E+04-7.41817E+03 8.94583E+01-4.28022E+03-6.33190E+01-6.06255E+02
 -1      6209 1.99483E+03 3.47019E+03 1.01653E+01-3.24919E+03-2.53563E+02-5.41682E+00
 -1      6210 2.45695E+04 1.25128E+05-6.86392E+03-4.50270E+04-3.27436E+04 1.04588E+04
 -1      6211-3.25788E+03-4.01881E+03 7.45601E+01-5.09518E+03-1.82512E+02-6.70449E+01
 -1      6212-1.77057E+04-6.73960E+03 2.69390E+03-2.34157E+04 1.53157E+03 4.63635E+03
 -1      6213-1.59090E+04-1.44076E+03-3.78638E+01-1.30992E+04-9.20866E+01-3.77021E+02
 -1      6214-1.33842E+04-9.96784E+02-2.12205E+02-8.96329E+03-1.34841E+02-3.75351E+02
 -1      6215-1.10563E+04-7.42881E+03 1.03698E+02-1.59341E+04-2.21683E+02-2.25065E+02
 -1      6216-7.31216E+02-1.29869E+03 1.75365E+02-1.46195E+03 2.03842E+01 1.02746E+02
 -1      6217 6.36604E+04-5.03309E+03-7.17063E+02 2.20784E+04 4.94653E+02 3.81322E+02
 -1      6218-2.56906E+04-9.38486E+03-3.28126E+02-5.23290E+03-8.47100E+02-2.50221E+01
 -1      6219 6.57510E+04-5.03665E+03-3.59074E+02 1.51851E+04-4.05050E+01 3.35681E+02
 -1      6220 7.14230E+04-3.56444E+03-1.15475E+02 1.59174E+04 9.99365E+01 1.06966E+02
 -1      6221-7.90088E+03-2.78284E+04 1.00864E+03-1.96512E+04 3.83021E+02-5.33591E+02
 -1      6222-2.60703E+04-3.95163E+02 8.24397E+00-3.52197E+03-4.10481E+01-4.94758E+02
 -1      6223-2.15791E+04 7.24539E+03 3.97115E+02-2.24753E+04-8.90150E+01-1.32520E+03
 -1      6224-3.18153E+04-7.95089E+03-2.43089E+01-2.40229E+04 1.07099E+01-2.27459E+02
 -1      6225-4.40041E+04-1.30655E+04 6.13993E+01-3.39491E+04 5.45822E+02-2.85112E+02
 -1      6226 1.39803E+05 4.03268E+04 2.98237E+04-1.68690E+04 2.25223E+03 1.57402E+04
 -1      6227 1.40354E+05 1.46523E+04 1.01579E+04-1.41253E+04 1.95609E+03 1.81828E+03
 -1      6228 1.77990E+05 3.56123E+04 3.64913E+04 5.71005E+03 9.18661E+02 9.43957E+03
 -1      6229-4.44856E+03-1.09946E+04-3.39066E+02-1.36701E+04-1.20580E+03-9.45316E+01
 -1      6230 5.02341E+04-4.05789E+03 4.16510E+02 1.02143E+04 2.44518E+01-3.15530E+02
 -1      6231 7.99424E+04-9.24661E+03-9.63043E+02 7.92579E+03 1.39479E+02-3.52723E+00
 -1      6232-7.88170E+04-5.55943E+03-1.18159E+03-2.40078E+04 4.09735E+02 3.15765E+03
 -1      6233-1.82098E+04-3.79638E+03-1.72516E+02-2.03652E+04-2.91281E+02-5.68059E+02
 -1      6234-3.61739E+03-1.05272E+03-7.69216E+01-2.29817E+03-1.18894E+02-5.78351E+01
 -1      6235-3.01134E+04-1.20244E+04 7.55787E+02-1.19205E+04-1.27767E+03-1.22228E+02
 -1      6236-7.12828E+04-2.07537E+04-7.63502E+02-2.96628E+04-4.42924E+02 4.11243E+02
 -1      6237 3.27452E+04-2.41004E+03-2.17514E+02 5.32266E+03 5.83377E+01-4.58099E+02
 -1      6238-1.00682E+03-1.11553E+03-7.95522E+01-1.15672E+03-2.45749E+01 1.23647E+01
 -1      6239-5.02605E+04-4.18200E+03 4.83340E+01-3.56555E+04-2.26392E+02-5.20024E+02
 -1      6240-4.94825E+04-9.67654E+02-7.08460E+00-3.10604E+04 9.79426E+01-4.28545E+02
 -1      6241-1.49125E+04-5.61521E+03 5.67335E+02-1.66655E+04-5.31535E+02-2.30855E+02
 -1      6242-4.02443E+04-5.15129E+03-3.00594E+02-2.95738E+04-4.55123E+02-3.69263E+02
 -1      6243-2.87236E+04-1.21347E+04-3.76492E+02-1.41439E+04 6.32610E+02-3.76807E+02
 -1      6244-6.71294E+03-5.54585E+03 2.45303E+02-7.05949E+03-6.82281E+02-4.18210E+02
 -1      6245-1.68711E+04-6.23072E+02-1.43309E+02 1.00014E+03 1.87001E+02-1.86581E+02
 -1      6246-3.33815E+04-1.38548E+03 6.60332E+01-9.59205E+03 1.28954E+02-3.97578E+02
 -1      6247-5.69989E+04-2.03912E+04 3.96072E+02-1.97012E+04-6.10787E+01-5.36359E+02
 -1      6248 7.68416E+04-7.14127E+03-1.55344E+02 2.27241E+04-4.91433E+00-6.23323E+02
 -1      6249-1.95007E+04-4.93645E+03-2.43271E+02-1.82659E+03 1.28455E+02-4.57835E+02
 -1      6250-5.02799E+04-2.55129E+03 4.31542E+01-3.99157E+04 2.56488E+02 2.93843E-02
 -1      6251 7.50689E+04-8.47345E+03-5.71091E+02 2.46681E+04 5.03136E+02 1.16530E+03
 -1      6252 6.83030E+04-5.03984E+03-4.61101E+02 1.92472E+04 3.83134E+02 1.89586E+02
 -1      6253 9.38839E+04-1.19174E+04 2.12271E+02 3.06089E+03 5.44284E+02 1.53505E+03
 -1      6254-2.35832E+04 9.54126E+02-2.84673E+02-3.89452E+03 5.19870E+01-1.06337E+02
 -1      6255 1.59930E+05 1.24325E+04 2.49512E+04 1.62997E+04-1.63540E+03-1.95709E+03
 -1      6256-1.37036E+04-7.34932E+02 1.18404E+02 3.68062E+03-4.55147E+02 1.26645E+02
 -1      6257-1.12723E+03 2.73064E+02-6.49041E+01 6.40045E+02-1.94798E+02-6.04031E+01
 -1      6258 9.11091E+04-1.29341E+04 4.97811E+02 1.83796E+04 6.88466E+02 2.39491E+03
 -1      6259-3.11085E+03 1.12224E+02 4.48631E+01-2.06026E+02-1.63118E+02-1.25035E+02
 -1      6260 6.01294E+04 1.22507E+04-6.89338E+02 3.66069E+04 2.01160E+03 1.79717E+03
 -1      6261-2.25806E+04 3.51526E+02 4.31395E+01-2.21086E+04 3.12236E+01-3.71846E+02
 -1      6262 2.57973E+04 1.32431E+04-1.89261E+03 2.08744E+04 1.97600E+03 8.17503E+02
 -1      6263 2.83243E+04 5.77806E+02-1.52674E+03 1.07432E+04 6.72318E+01 1.40977E+02
 -1      6264-2.69114E+04 2.56607E+03-6.38787E+01-1.32768E+04-1.46091E+02 7.33926E+02
 -1      6265 4.32821E+04 3.07646E+04-1.99017E+02 4.01976E+04 1.04346E+02-1.45717E+03
 -1      6266-1.37833E+04-1.86656E+03 1.51623E+02 1.23166E+03 2.75581E+02-4.62983E+02
 -1      6267-7.95110E+02-1.56327E+04 1.21841E+03-4.98932E+03 7.83451E+02-8.33691E+01
 -1      6268-2.59094E+04-8.83312E+03 5.99688E+01-7.30768E+03 2.53404E+02-4.46413E+02
 -1      6269-3.73934E+04-6.57327E+03 1.04382E+02-4.99909E+03-5.68331E+02 1.39805E+02
 -1      6270-4.60575E+04-2.63026E+05-1.33876E+04-8.68225E+04 8.03793E+02 6.02677E+03
 -1      6271-1.90332E+04-2.76822E+03 5.58240E+01-2.27520E+04-2.17077E+02-3.74964E+02
 -1      6272 1.45748E+05 5.23703E+04 3.60948E+04 5.85313E+04-4.92124E+02 1.04467E+03
 -1      6273 1.89004E+05 4.53661E+04 5.38235E+04-4.85600E+03-1.33873E+03 1.50948E+03
 -1      6274 1.24960E+05 3.63099E+04 3.23689E+04-1.93722E+04 3.13103E+02 1.33635E+03
 -1      6275-1.50262E+04-5.73477E+03 5.51708E+02-1.88414E+04 1.74680E+02-9.88006E+02
 -1      6276 6.65716E+04 1.29416E+04 1.28429E+03 4.15616E+04-1.51380E+03-1.68764E+03
 -1      6277 1.22892E+05 3.62904E+03 4.18755E+03 4.19707E+04-9.53200E+02-5.54703E+02
 -1      6278 1.12657E+05 1.31811E+04 7.93974E+03 4.75154E+04-6.54611E+02-1.69928E+03
 -1      6279-9.38084E+03 2.45235E+03 2.63125E+01 4.46352E+03-5.42447E+01-2.14971E+02
 -1      6280-1.68692E+04 1.81692E+03-1.71483E+02 2.57963E+03-3.21981E+02 5.19009E+01
 -1      6281-9.96534E+03 1.43563E+03-3.29834E+02 4.50235E+03-1.54065E+02-8.25546E+01
 -1      6282 3.57614E+03 9.49152E+02 1.32602E+02 5.11847E+03-8.14033E+01-3.04169E+02
 -1      6283 1.16366E+03 3.86727E+02 2.54125E+02 5.22912E+03-3.84600E+02-1.65686E+02
 -1      6284 6.63516E+04-2.99523E+03-1.28717E+02 2.60653E+04-4.57940E+02-3.81282E+02
 -1      6285-2.15863E+04-1.04678E+02 2.40584E+01-2.43292E+04 1.00142E+02-3.11310E+02
 -1      6286 2.60212E+04 1.53811E+04-5.68546E+02 2.10023E+04-8.09807E+02-1.28879E+02
 -1      6287-2.53020E+04-6.33006E+01-1.31551E+02-6.83509E+02-2.99889E+02 2.75165E+02
 -1      6288-6.88575E+04-2.20535E+04-5.53859E+02-2.46301E+04-8.58965E+02 9.92720E+01
 -1      6289-1.07454E+05-1.15834E+04-7.77727E+02-3.19514E+04-1.23231E+03-2.74600E+02
 -1      6290-1.85001E+04-3.41078E+03-2.64865E+00 1.43637E+03-3.13503E+02 1.92607E+02
 -1      6291-2.15034E+04-5.69811E+03-4.92219E+02-1.32048E+02-5.52647E+02 2.32512E+02
 -1      6292-3.82573E+04-1.28708E+04-2.07626E+02-2.32793E+04-5.68757E+02-2.79030E+02
 -1      6293 7.44315E+04-6.52539E+03-9.42403E+00 1.96720E+04 1.95583E+02-5.06010E+02
 -1      6294-6.57750E+04-2.41143E+04-1.41449E+02-2.57190E+04-1.98225E+02 5.47937E+02
 -1      6295 6.45464E+04-1.96578E+03 2.27892E+02 1.52727E+04 2.37870E+02-2.42669E+02
 -1      6296-5.78405E+04-2.31134E+04 6.23871E+02-2.68051E+04 4.98912E+02-4.64581E+02
 -1      6297-9.54188E+03 1.14923E+03-3.85331E+02 5.06808E+03-4.25158E+02 1.53074E+02
 -1      6298 3.17010E+04 2.52038E+03-8.52325E+02 1.41665E+04-1.16549E+02 5.05773E+02
 -1      6299-4.15650E+04-1.28178E+04 1.55553E+03-1.69028E+04 2.02807E+02-5.54556E+02
 -1      6300 2.07030E+03-1.06262E+03 2.32825E+02 3.98089E+03 1.50828E+02 6.47154E+00
 -1      6301 6.75065E+04-2.37587E+03 1.16255E+02 1.63554E+04 1.21330E+02-1.04423E+02
 -1      6302-3.20324E+02-3.98169E+03 1.14622E+02-7.35919E+02-2.81646E+02-2.25929E+01
 -1      6303 7.88767E+04-1.83298E+03 3.47261E+02 1.67669E+04 1.09495E+02 5.57907E+02
 -1      6304 9.33162E+04-1.26414E+04-9.67468E+02 2.28030E+04-4.54771E+02-1.59261E+03
 -1      6305 8.25553E+04-6.57173E+03 1.12681E+01 2.94479E+04-2.07361E+02-1.37557E+03
 -1      6306 7.19814E+04-6.87013E+03 2.99651E+02 1.42755E+04 1.89275E+02-4.28843E+02
 -1      6307 3.85842E+04-4.80364E+02 5.85980E+02 1.77612E+03 5.42942E+01-1.03405E+01
 -1      6308 8.20274E+04-8.01027E+03 5.03730E+01 2.46141E+04 7.58670E+01-1.43938E+03
 -1      6309-5.02182E+03 1.54371E+03-5.10716E+01-1.38011E+03-2.07760E+02 1.06291E+02
 -1      6310 9.58289E+04-2.71683E+03 1.34727E+03 3.41324E+04-4.24986E+02-2.54230E+03
 -1      6311 9.30031E+04-1.07001E+04 3.85426E+02 1.44445E+04-2.15629E+02-1.90301E+03
 -1      6312-3.22856E+03 3.59612E+02 2.39071E+01-1.91701E+04 6.30481E+02-1.58149E+02
 -1      6313 8.97950E+03 7.11463E+03-2.19899E+01-1.72295E+04 3.06023E+02-2.87217E+02
 -1      6314 1.11665E+05 4.80619E+04 1.93719E+04 6.39308E+04-7.19251E+02 2.88451E+03
 -1      6315 1.41393E+04 7.95945E+03 1.05683E+02-3.04920E+04-1.87455E+02-6.97195E+01
 -1      6316 8.01133E+04 2.84459E+04 2.03262E+04-1.83184E+04 1.70124E+03 8.02126E+03
 -1      6317 4.94809E+03 4.29855E+03 5.81856E+01-3.37519E+04 4.67853E+01-7.16930E+01
 -1      6318 5.97891E+04-4.67880E+03-3.62853E+02 8.26216E+03 1.59994E+02-1.18676E+02
 -1      6319 4.75789E+04 1.56936E+04 2.51116E+03-2.26389E+04 7.08368E+02 1.12328E+03
 -1      6320 3.81373E+02-2.41673E+02 4.38704E+00-4.07967E+04-3.05131E+02 3.85590E+00
 -1      6321 8.88590E+01-2.54739E+02 4.03659E+00-3.84576E+04-2.28471E+02 5.50759E+01
 -1      6322 5.27473E+03 6.59667E+03-6.43704E+01-3.25047E+04-1.66495E+02 8.10918E+01
 -1      6323-1.23573E+03-3.81407E+02-4.68539E+01-1.97255E+03 3.32776E+01 1.76904E+02
 -1      6324-3.30733E+04-7.86911E+03 1.46104E+02-2.59274E+04-2.10350E+02-8.33748E+01
 -1      6325-4.53799E+04-1.37822E+04 7.74466E+01-2.90152E+04-1.03901E+03-2.47908E+02
 -1      6326-8.56251E+04 3.75339E+03 1.27560E+03 1.11122E+04-3.35595E+02-1.50178E+02
 -1      6327 1.36796E+04 7.40903E+03 8.12597E+02-2.79006E+04 8.41408E+01 1.62243E+02
 -1      6328 4.95253E+03 5.05731E+03 8.10676E+01-3.49456E+04 1.10902E+02 1.46919E+01
 -1      6329-8.25956E+04 1.08488E+03 1.95715E+02 1.57929E+04 1.44830E+02-3.64538E+02
 -1      6330-1.35796E+05-1.42017E+04-1.66467E+04-7.68504E+03-1.64094E+03 4.37928E+03
 -1      6331-1.57099E+03-1.37419E+03-8.61523E+00-3.02488E+04-1.26143E+02 2.84839E+01
 -1      6332-2.76846E+02-4.34018E+02 1.25133E+02-3.52316E+04 1.09174E+02 6.32548E+01
 -1      6333 5.93991E+03 2.68846E+03 1.42106E+03-2.72727E+04-1.09480E+02 1.13185E+02
 -1      6334-1.27894E+05-6.24928E+04-2.65669E+04 7.60008E+04 5.59651E+03-1.25678E+04
 -1      6335 7.13129E+03 4.75151E+03 4.95992E+02-2.92627E+04-7.16208E+01 4.87600E+01
 -1      6336 1.67325E+03 6.42126E+02-1.25088E+02-3.00285E+04-1.64186E+02-1.08945E+02
 -1      6337 2.46580E+01-2.00128E+02 1.36413E+02-2.85373E+04 5.41295E+01-1.54400E+01
 -1      6338 1.33044E+02-1.32002E+02 5.54861E+01-2.65039E+04 1.48527E+02-1.97190E+00
 -1      6339-4.05287E+04-1.49099E+04-1.54133E+01-2.07075E+04-8.93469E+02-3.12801E+02
 -1      6340 4.64045E+03 4.05909E+03 1.90859E+02-3.44688E+04-4.48384E+02 1.49757E+02
 -1      6341 8.03702E+03 4.03061E+03 1.38147E+03-2.66240E+04 1.71665E+02 7.54405E+02
 -1      6342-1.65518E+03-3.50147E+03 3.46648E+02-1.43277E+01-1.07308E+02-3.62794E+02
 -1      6343-8.41034E+04 8.57053E+03 9.46410E+02 4.97090E+03-4.84458E+02 8.59908E+02
 -1      6344-6.89377E+04 2.16217E+03 1.78523E+03 3.31318E+04-1.19025E+03 1.04483E+03
 -1      6345 4.18786E+04 1.64658E+04 1.12367E+04-2.27984E+04-4.71413E+02-4.10578E+02
 -1      6346-3.29753E+04-1.24974E+04-6.61767E+02-2.52644E+04 2.43396E+02-7.08502E+01
 -1      6347-2.49472E+04-9.46197E+03-1.09955E+02-2.61657E+04 7.72633E+01 3.19961E+02
 -1      6348 2.73050E+04 1.23443E+04 4.20854E+03-2.31197E+04 4.72528E+02 2.44961E+03
 -1      6349-2.02769E+03-3.17469E+03 1.36844E+02-3.67387E+04-1.34499E+02 1.61359E+02
 -1      6350 5.02044E+04 2.01058E+04 1.32160E+04-2.19120E+04 4.74474E+00 2.41388E+03
 -1      6351 1.42569E+03-4.10974E+03-2.16023E+02-3.66114E+04-2.16664E+02 3.58512E+02
 -1      6352 7.61944E+04 1.72016E+04 4.60817E+03-2.05755E+04 1.46504E+03 2.21559E+03
 -1      6353 8.53037E+02 3.60805E+02-1.12251E+02-4.30336E+04-4.23980E+02-7.81827E+01
 -1      6354 4.97821E+04-2.38972E+03-1.15942E+02 4.57699E+03 3.49918E+02 6.26390E+00
 -1      6355 2.22667E+04 2.39424E+03-1.68577E+02-1.14036E+04 7.86175E+01-1.10979E+03
 -1      6356 3.67035E+04 4.22147E+03-3.23270E+02-1.45293E+04-2.74739E+02-5.75067E+02
 -1      6357 8.56557E+03-2.68326E+03-1.88885E+01-1.14723E+04-3.17150E+02 1.09876E+03
 -1      6358-4.37660E+04-7.23899E+03-6.19106E+02-2.04852E+04-3.66025E+00 5.36393E+02
 -1      6359 4.60021E+04 5.72487E+03-9.23077E+01-1.80794E+04 4.92968E+01-1.40770E+02
 -1      6360 2.57122E+04 6.82145E+03 2.73400E+02-2.07147E+04-1.61503E+02-4.43142E+02
 -1      6361-5.09647E+04 1.02534E+03-5.01147E+00-3.41220E+03 6.15466E+01 9.03298E+01
 -1      6362-7.16720E+04 2.79563E+03-1.06571E+02 1.77397E+04 2.15934E+02-3.64181E+02
 -1      6363 5.21658E+04 7.19260E+03-1.52431E+01-1.96643E+04 3.89008E+02-2.19939E+02
 -1      6364 2.62838E+04 9.61720E+03 4.81995E+01-2.61510E+04-3.89360E+00-3.54143E+02
 -1      6365 1.68420E+04 6.66417E+03 9.98827E+01-2.55583E+04-2.19533E+02-3.72396E+02
 -1      6366 1.49637E+04 7.45275E+03 3.72767E+03-2.47988E+04-1.19089E+01 1.79625E+03
 -1      6367-5.85055E+04 6.02119E+03 2.21661E+01 1.16762E+03-1.18597E+02-4.77223E+02
 -1      6368-4.52461E+03-5.72010E+03 9.24468E+01-3.49682E+04-1.91486E+02 2.03559E+02
 -1      6369 7.78644E+03 6.84463E+03-2.43684E+01-3.24581E+04-2.43931E+02 1.18025E+00
 -1      6370-1.28496E+03 3.86999E+03 1.03245E+02-3.42600E+04-6.10608E+02 5.98376E+02
 -1      6371-8.45953E+03-2.19077E+04-7.67340E+02-2.55591E+04-8.12445E+02-4.64267E+02
 -1      6372-2.27570E+02 3.67016E+02 2.19662E+02-4.12376E+04-7.91341E+02 7.40532E+01
 -1      6373-2.73965E+02 1.80290E+02 1.67418E+02-4.42769E+04-3.83577E+02 3.82368E+01
 -1      6374-1.97375E+04-1.45093E+04-2.57695E+01-3.55351E+04-5.23534E+01 3.97888E+02
 -1      6375 1.06425E+03 1.66289E+03-2.38742E+02-3.78063E+04-1.87714E+02-5.26432E-01
 -1      6376-7.26912E+02 3.19472E+03 1.31709E+02-3.95807E+04-2.40578E+02-2.63519E+01
 -1      6377-5.56402E+03 7.22045E+02-3.74238E+01-4.06530E+04-3.77215E+02-1.08260E+02
 -1      6378-1.02872E+05 4.61580E+03-1.19591E+02-1.87511E+03 4.16103E+02-5.18577E+02
 -1      6379-3.81593E+04-7.75464E+03 1.15210E+02-7.55138E+03-2.03193E+01-3.88989E+02
 -1      6380-1.96338E+03-8.49716E+03 9.52694E+01-1.95548E+04-7.43137E+02 2.38502E+01
 -1      6381-7.51800E+04 7.99323E+03 6.33843E+02 5.24664E+03 2.52327E+02 8.07593E+01
 -1      6382-1.08897E+04-9.11745E+03-1.28722E+02-3.67424E+04-4.09560E+02-6.64174E+02
 -1      6383-6.11585E+04 2.64531E+03 1.38859E+02-3.01731E+04 8.07008E+01-1.26291E+01
 -1      6384-4.15685E+03-1.82519E+04-4.27571E+02-2.12875E+04 9.03655E+02 2.67653E+01
 -1      6385-1.07968E+04-1.83674E+04-1.48587E+02-3.37989E+04 1.09171E+02-8.98470E+01
 -1      6386-1.55901E+04-1.19291E+04 5.65312E+02-2.20781E+04 6.41898E+01-1.01409E+03
 -1      6387-2.64976E+03 9.24543E+02-5.08018E+02-2.33991E+04-5.87463E+01-7.32423E+02
 -1      6388-1.78760E+04-1.26774E+04 1.64909E+02-3.22685E+04-1.76100E+02-5.45559E+02
 -1      6389 1.73156E+04-6.41464E+03-1.24918E+02 3.75553E+03 3.27903E+01-3.91996E+02
 -1      6390-2.99530E+04-4.45408E+04-3.46896E+02-2.80361E+04 1.01721E+03-1.45639E+03
 -1      6391-5.25909E+04 2.00123E+04-9.95238E+02-1.30304E+04 1.79090E+03 3.53908E+02
 -1      6392-2.18081E+04 2.59862E+04-6.20002E+02-1.20966E+04 8.72246E+02 7.94621E+02
 -1      6393-5.71730E+04 1.66366E+04-9.20001E+01-2.19079E+04 1.15037E+03-4.32899E+02
 -1      6394 6.87558E+03-1.84321E+04 1.14674E+03-3.55806E+03-4.77608E+02 1.96981E+02
 -1      6395-4.27398E+04 6.42046E+03-6.73440E+01-3.28233E+04-1.27824E+02-8.61195E+02
 -1      6396-2.92142E+04-4.13238E+04-8.55511E+02-2.63363E+04 1.15973E+03-2.38358E+02
 -1      6397-3.55590E+04-6.32682E+04-1.01409E+03-4.21573E+04-1.04983E+02-4.61166E+02
 -1      6398 1.13382E+04-8.73587E+02 3.32243E+01-9.70301E+03 1.53280E+02-1.10889E+03
 -1      6399 4.98149E+04-2.67021E+03-7.37482E+01 1.32109E+04 4.36506E+01-3.58066E+02
 -1      6400-2.76465E+04-3.91781E+04-4.22694E+02-2.63595E+04 1.07143E+02-1.30977E+02
 -1      6401-1.09671E+04-3.24766E+04-2.74322E+02-1.27206E+04 9.06798E+02-1.15009E+03
 -1      6402-4.99930E+02-3.18935E+04-2.02802E+02-1.76641E+04 5.30397E+02-5.31851E+02
 -1      6403 1.88928E+04-6.42425E+03-1.06933E+03-1.85834E+04 3.91078E+02 3.08642E+03
 -1      6404-4.38173E+04 5.06449E+03 1.52426E+02 1.11710E+04 1.71347E+02 2.21931E+02
 -1      6405-7.36947E+04 2.00887E+03-4.28770E+02 1.55987E+04 6.09107E+02-3.91048E+02
 -1      6406 3.05210E+04-1.57787E+04 1.20365E+02 2.70132E+03 7.20919E+02-3.92658E+02
 -1      6407 5.98041E+04-1.05668E+04-6.81948E+02 4.37045E+03 7.81958E+02-4.67099E+02
 -1      6408-9.38593E+03 1.40674E+04-3.92294E+02 8.62613E+01 7.37549E+02 2.81861E+02
 -1      6409-6.38123E+04 5.69572E+03 5.06878E+02 1.12936E+04 5.09723E+02 2.05564E+02
 -1      6410-5.86063E+04 1.03924E+04 3.42562E+02 3.35649E+03 7.79365E+02 3.66026E+02
 -1      6411 9.43250E+04-4.64358E+02 2.22119E+02 1.26187E+04 7.95240E+01 5.54960E+02
 -1      6412 6.04960E+04-1.60552E+04-3.37157E+02-2.07318E+04 1.07908E+03 2.14433E+02
 -1      6413 8.20975E+04-5.01303E+03 4.39547E+02-2.17462E+04 4.32173E+02 3.73376E+02
 -1      6414 4.83125E+04 1.35770E+03-1.57360E+02-3.08186E+04-4.30696E+01 1.29001E+02
 -1      6415 5.03984E+04-6.42117E+03-2.08283E+02-3.45910E+04 4.83286E+02 4.60337E+02
 -1      6416 6.29430E+04 5.58332E+03 4.59125E+02-2.66120E+04-6.30350E+02 8.58051E+02
 -1      6417 5.94917E+04-1.11317E+04-6.01731E+02-2.64250E+04 7.00648E+02 4.12902E+02
 -1      6418 5.77755E+04-7.38711E+03 2.92933E+02 1.07621E+04 1.07782E+03-4.18092E+02
 -1      6419 3.75790E+04-6.31537E+03-7.59443E+02-2.97657E+04-4.52906E+01 6.68435E+02
 -1      6420 7.47908E+04-6.44422E+03 2.14169E+02 6.86050E+03 6.93239E+02 3.27130E+02
 -1      6421-6.74173E+04 1.04195E+04-4.79450E+01 1.43461E+03 5.14133E+02 2.49334E+02
 -1      6422-1.02618E+05 3.40381E+03-7.62570E+02 4.77191E+03 2.58868E+01-5.70754E+02
 -1      6423 6.71673E+04-1.22100E+04-4.44403E+01 4.25414E+02 5.48507E+02-3.33338E+02
 -1      6424 4.12407E+04-4.37315E+03-6.46139E+01 1.19365E+04 8.60986E+02-3.84636E+01
 -1      6425 7.42715E+04-2.54809E+03-1.91677E+02 1.48546E+04 5.94042E+02 2.26025E+01
 -1      6426 6.95161E+04-1.31501E+04 9.32185E+02-1.21394E+04 5.45408E+02-1.77455E+02
 -1      6427 5.22219E+04-2.12572E+04 7.40699E+02-1.08668E+04 2.24282E+03-1.57638E+03
 -1      6428-7.10746E+04 2.67083E+03 1.59229E+02 1.44337E+04 4.73059E+02-4.70705E+02
 -1      6429-9.18869E+04 1.08295E+03-1.33819E+02 1.32022E+04-1.55714E+00-5.24252E+02
 -1      6430 2.86890E+04-2.47437E+04 1.72797E+03-1.13372E+04 1.06702E+03-6.47565E+01
 -1      6431 1.33139E+04-2.50233E+04 5.43816E+02-1.83843E+04 8.71376E+02 3.71063E+02
 -1      6432-3.55791E+03-3.99104E+03 1.57718E+02-2.95616E+03-6.58383E+01-2.81506E+02
 -1      6433 4.48571E+04-1.70181E+04-9.10699E+02-2.74833E+04 9.43226E+02 8.09370E+02
 -1      6434 2.67691E+04 1.18580E+04 9.37757E+02-7.18740E+03-9.56442E+02 7.61603E+01
 -1      6435 1.35183E+03 2.25349E+03-6.09207E+02 1.43395E+03-6.73339E+02 6.05988E+02
 -1      6436 5.67212E+04 3.14514E+04 1.79280E+01-3.36755E+04 5.72652E+01 8.52599E+02
 -1      6437 1.84017E+04-5.88491E+02-2.58925E+02 2.14892E+02 2.67171E+02 2.10188E+02
 -1      6438 1.22855E+03-3.44964E+02 6.52775E+00 2.93084E+03-2.02071E+02-1.63852E+02
 -1      6439 5.56075E+04 2.12846E+04 4.11970E+02-2.31263E+04 2.29838E+02 7.20747E+02
 -1      6440 1.00092E+04-2.02455E+03 6.27941E+01 3.77110E+03-3.60514E+02-1.50504E+02
 -1      6441 1.41559E+04 3.39357E+03-3.58888E+02 2.04020E+03-6.15273E+02 1.38016E+02
 -1      6442 3.02138E+04 2.41007E+03 7.33252E+01-1.51673E+03-4.08906E+02-2.24471E+02
 -1      6443 2.03116E+04 1.17301E+03 8.67767E+01 2.36256E+03-3.67724E+02-8.25089E+01
 -1      6444-1.00200E+03-1.36110E+02 1.86861E+01 5.11946E+03-4.89817E+01 3.67363E+02
 -1      6445-8.19765E+04 4.77939E+03-8.04211E+02-2.21984E+04 4.14624E+02-2.33658E+02
 -1      6446 1.95770E+04 5.32652E+03-2.64769E+02 1.16139E+02-5.74192E+02-1.81204E+01
 -1      6447 2.21872E+03 1.75662E+03-4.58456E+01 3.45932E+03-2.97841E+02 3.25484E+02
 -1      6448-6.83888E+02 1.14774E+03-2.83515E+02 4.33040E+03-4.03705E+02 5.89060E+02
 -1      6449 1.79215E+04 5.70203E+03-4.82746E+02-1.67192E+04-6.77976E+02 3.94247E+02
 -1      6450 1.20660E+04-3.57989E+03 6.29202E+01-7.85427E+02-1.79593E+02-1.09694E+02
 -1      6451 2.93997E+04-3.39231E+02 8.43636E+01-1.78190E+03-4.27461E+02-1.75776E+02
 -1      6452 3.47759E+04 6.32288E+03-7.00758E+02-4.17505E+03-5.41867E+02-1.38485E+02
 -1      6453 3.33694E+03 3.06674E+03-1.82679E+02-9.41352E+02-2.72596E+02 4.30795E+02
 -1      6454 4.88482E+04 1.59679E+04 4.69636E+01-1.26501E+04-5.41763E+02-3.53893E+02
 -1      6455 2.64013E+04 4.41551E+03-8.84102E+01 2.62156E+02-3.44077E+02 2.31804E+01
 -1      6456 2.16117E+04 8.88802E+03-5.69330E+02-1.23045E+04-8.97854E+02 2.60415E+02
 -1      6457 9.54342E+04 1.24692E+04 9.37150E+02-3.12343E+04-3.87197E+02 5.00333E+02
 -1      6458 3.05439E+04 4.35422E+03-3.56435E+02-2.38051E+04-7.68798E+01-7.93792E+01
 -1      6459 6.05332E+04 1.39773E+04-3.11006E+02-3.16121E+04-4.75605E+02-1.91987E+02
 -1      6460 2.43831E+04-3.21007E+03 2.15950E+02-1.59437E+04 1.57978E+02-1.81922E+02
 -1      6461 3.09582E+04-4.61357E+02 1.03767E+02-5.19225E+03-3.49605E+02-3.42327E+02
 -1      6462 2.68440E+04-1.30284E+02 1.85932E+01-3.69204E+03 8.26800E+01 1.96555E+02
 -1      6463 2.65241E+04-7.81207E+02 1.91894E+02-4.43000E+03-4.07640E+01 3.35998E+02
 -1      6464-1.00090E+05 6.18853E+03-1.12674E+03-2.70605E+03 2.91635E+02-7.97752E+02
 -1      6465 4.95894E+03 1.31364E+04 2.42843E+02-1.12034E+04 8.25438E-01-1.83914E+02
 -1      6466 1.71646E+03-2.05196E+03 3.43423E+01-1.53303E+04 4.44209E+02-9.47171E+01
 -1      6467 1.43385E+03 7.95867E+03 2.12786E+02-7.91741E+03-2.93247E+02 7.87153E+01
 -1      6468 4.29679E+03 3.77246E+03 1.48375E+01-1.73770E+04 3.32518E+02-1.40227E+02
 -1      6469 5.17452E+04 1.80748E+04-1.06076E+03-1.66177E+04 1.61491E+02 7.45826E+01
 -1      6470 6.22905E+04 2.65097E+03 1.32287E+03-1.49936E+04-2.76534E+02 2.57460E+03
 -1      6471 5.97045E+04 2.13219E+04 4.79218E+02-2.07244E+04-3.40169E+02-4.67319E+02
 -1      6472 8.65250E+04 9.64322E+03 2.66909E+03-2.53731E+04 4.96474E+02 8.13737E+02
 -1      6473-4.12568E+04 1.59422E+04-9.66919E+02-2.92094E+04 6.33247E+02-3.04860E+02
 -1      6474 8.48043E+04 3.23506E+04 5.01226E+02-4.34712E+04 5.35797E+01-6.22742E+02
 -1      6475 5.61118E+04 2.86197E+04 8.71951E+02-3.02249E+04-3.00009E+01-1.21464E+03
 -1      6476-5.59249E+04 7.84450E+03-4.49429E+01-3.40230E+04 5.03397E+02-1.61428E+02
 -1      6477-8.04290E+04 5.87036E+03-4.58141E+02-2.52797E+04-3.40443E+01-1.60895E+03
 -1      6478-4.83031E+04 8.71885E+03-1.00115E+03-3.44672E+04 1.19200E+03-9.36874E+02
 -1      6479 3.93010E+04 6.39983E+03-5.21241E+02-1.28398E+04 1.60152E+02 2.89458E+02
 -1      6480 3.61262E+04 3.49332E+03-4.35380E+01-6.98714E+03-4.52740E+02-2.97117E+02
 -1      6481 3.08757E+04 7.28204E+03-5.68130E+01-2.20842E+04-2.33368E+01 3.59930E+02
 -1      6482 8.71799E+03 1.54252E+04 1.52707E+02-1.82862E+04-3.70218E+02 2.09062E+02
 -1      6483-3.49198E+03-7.33707E+02 1.51885E+02-2.39960E+04 4.39675E+02-1.10927E+02
 -1      6484 2.18275E+04 9.22024E+03 2.28117E+01-2.34175E+04 1.89739E+02-8.83867E+01
 -1      6485-5.00541E+04-8.77241E+02 3.63326E+01-3.59440E+04 6.09422E+01-6.21479E+02
 -1      6486-6.10988E+04 1.74927E+04 6.19757E+02-1.65102E+04 6.42740E+02-5.91616E+02
 -1      6487 1.12224E+04 3.57404E+04 1.22236E+03-1.99914E+04 1.78309E+02 9.06799E+02
 -1      6488 8.97069E+03-2.50996E+03 8.90204E+01-1.81187E+04 5.72527E+02 1.25590E+02
 -1      6489 7.05753E+03 2.08096E+04-1.38257E+01-1.23955E+04-1.39198E+02-1.58071E+02
 -1      6490 7.81781E+03 4.94076E+03 6.50648E+03-1.07657E+04-1.01439E+04 9.63659E+03
 -1      6491 1.08033E+04 7.43217E+03-6.00319E+02-1.73032E+04-1.94738E+03 9.31690E+02
 -1      6492 4.14505E+03 2.94035E+03-2.06329E+02-4.79223E+03-2.52314E+02 1.47504E+02
 -1      6493-5.01255E+03-5.36629E+02-7.61808E+00-1.67660E+04 6.44719E+02-5.01020E+02
 -1      6494 9.29746E+03 5.79275E+04-6.04272E+03-2.42104E+04 1.01124E+04-8.91407E+02
 -1      6495 1.65745E+04-5.86537E+03-2.74345E+02-1.68881E+04 3.22058E+02 3.75042E+02
 -1      6496 2.47553E+03 3.04769E+04 8.30830E+02-9.47100E+03 8.12281E+02 7.52030E+02
 -1      6497-5.29164E+03-1.56741E+03 7.13636E+02-1.38395E+04 7.20498E+02-1.31698E+03
 -1      6498 9.34935E+03-6.65454E+03-3.66533E+02-1.37783E+04 1.47178E+03 1.22932E+03
 -1      6499 2.34184E+04-2.78257E+03-1.31061E+02-1.94354E+04 1.79877E+02 4.39804E+02
 -1      6500 1.60809E+04-6.01912E+03-1.41798E+01-1.63177E+04 4.03346E+02 1.63138E+02
 -1      6501 1.50191E+04-4.53160E+03 9.01681E+01-1.74823E+04 5.10514E+02 1.65497E+02
 -1      6502 1.19524E+04-1.99402E+03-3.71549E+00-1.68837E+04-3.01665E+03 7.11733E+03
 -1      6503 1.38669E+04 5.18542E+03-1.49551E+03-2.15745E+04-3.45056E+03 4.53233E+03
 -1      6504 1.58185E+04-3.64232E+03-5.74331E+01-2.11352E+04 3.56536E+02 1.20836E+02
 -1      6505 1.85101E+04-5.94016E+03 2.37982E+00-1.60861E+04 8.47932E+00 2.70689E+02
 -1      6506 3.85828E+03 1.46364E+03-3.40813E+01-5.62381E+03-8.04851E+01-2.71477E+02
 -1      6507 2.27150E+03 7.60521E+03-1.45524E+02-5.77211E+03-4.53978E+02-3.58684E+01
 -1      6508 8.87510E+03-2.57805E+03 1.00113E+02-2.02929E+03-2.32348E+02-2.25349E+01
 -1      6509 6.76467E+03-1.83849E+03-1.49721E+01-2.35179E+04 2.56661E+02 1.00616E+02
 -1      6510 9.93871E+03-1.54032E+02-4.06038E+01-4.53323E+03-1.57678E+02 2.29362E+02
 -1      6511 1.84736E+04-4.34270E+03-2.81716E+01-1.62659E+04-4.31633E-01 3.07932E+02
 -1      6512 2.10884E+04-5.48674E+03-2.10447E+01-1.54810E+04 2.41416E+02 1.29768E+02
 -1      6513 3.67409E+04 3.99792E+03-1.47050E+02-1.13363E+04-5.07483E+01 1.88928E+02
 -1      6514 2.57553E+04-1.30504E+03-4.40899E+01-1.99809E+04 7.05079E+01 3.81967E+02
 -1      6515 1.89997E+04-5.67743E+02 7.03437E+01-1.88775E+04 4.15801E+02-9.25899E+01
 -1      6516 5.88484E+03-1.74716E+03-6.63976E+01-2.04228E+03-9.09578E+01 1.57366E+02
 -1      6517 2.88460E+03 1.67832E+02 3.30734E+01-3.22318E+03-1.23608E+02-2.12920E+02
 -1      6518 1.60637E+04-2.93766E+03 1.89387E+02-1.21914E+04-2.98090E+02-4.92079E+01
 -1      6519 1.98236E+03 1.95901E+03 1.65782E+02-3.59085E+03-1.06569E+02-1.59932E+02
 -1      6520 5.32961E+03-1.35825E+03-3.46820E+01-2.63291E+03-1.98277E+02-5.83457E+01
 -1      6521 1.64496E+04-4.13714E+03 8.94491E+01-9.99447E+03-2.23883E+02 6.40806E+01
 -1      6522 1.11699E+04 4.91871E+01 2.69393E+01-1.21708E+04-4.78353E+02 1.86953E+02
 -1      6523 6.10076E+03 3.51009E+03-5.28289E+01-9.68223E+03-5.85633E+02-1.65946E+02
 -1      6524 1.60761E+03-2.05187E+02 1.44882E+02-1.52240E+03-6.39627E+01-1.85960E+02
 -1      6525 9.05499E+02 1.45976E+04-2.39217E+03-5.01504E+03 4.44012E+02 1.79680E+02
 -1      6526 8.63352E+02 3.71127E+03-1.83040E+02-2.23466E+03-2.47343E+02 3.55424E+01
 -1      6527 7.42325E+02 1.28579E+03-2.95402E+02-1.57537E+03 6.39969E+01-2.13839E+02
 -1      6528 2.69878E+03 6.62090E+03 1.27182E+02-5.20100E+03-1.41268E+02 1.51602E+01
 -1      6529 4.49106E+01-1.21530E+03-2.51854E+02 2.36859E+02 2.70665E+02-2.27792E+01
 -1      6530 1.09274E+03 7.92042E+03-9.27881E+02-3.48915E+03 1.98021E+02-5.35158E+01
 -1      6531 1.22603E+03 2.57874E+04-4.23796E+03-6.91779E+03-3.56639E+03 3.98200E+02
 -1      6532 5.86825E+03 2.15449E+04 9.37403E+02-2.33083E+04-4.90176E+02 2.52060E+02
 -1      6533 3.42275E+03 1.58176E+04-1.00302E+03-1.11695E+04-3.31925E+03 6.95131E+02
 -1      6534 4.87751E+03 2.88725E+04-4.28662E+03-1.27418E+04-1.03523E+04 2.95945E+03
 -1      6535 2.91269E+03 4.11360E+04-6.38988E+03-1.04391E+04-2.12209E+03 9.07670E+02
 -1      6536 8.86158E+03 5.84839E+04-1.07080E+04-2.44154E+04-7.95308E+03 4.31891E+03
 -1      6537 1.38622E+04 1.67680E+04-1.05265E+03-2.38807E+04 1.07754E+03 9.07970E+01
 -1      6538 2.10250E+04 6.30890E+04 2.01828E+04-2.75595E+04-3.25619E+04 2.23773E+04
 -1      6539 2.51682E+04-3.94208E+03-8.90617E+01-5.56159E+03-1.13880E+02-1.27493E+02
 -1      6540 1.06829E+03 3.30358E+02-2.73216E+00-1.58907E+03-8.05653E+01-1.32225E+02
 -1      6541 2.63908E+03-9.95148E+02-9.20186E+01-1.58243E+03-2.10851E+02-7.55285E+01
 -1      6542 1.80961E+04-4.53775E+03 5.39938E+01-6.05946E+03-2.27971E+02-1.32764E+02
 -1      6543 2.70490E+03-1.34802E+03-1.72022E+01-5.17101E+02-1.82257E+02-6.28999E+00
 -1      6544 2.45953E+04 3.18689E+04 4.21301E+02-1.85166E+04 5.57472E+01 1.87156E+03
 -1      6545-8.19628E+02-8.95691E+02 4.15762E+01 1.81973E+03-1.47726E+02 1.54187E+02
 -1      6546 7.73825E+02-1.22103E+03-1.99371E+02 4.18053E+03-2.73770E+02 2.72122E+02
 -1      6547 3.05204E+04 4.57926E+04 4.63354E+02-2.87480E+04 5.28822E+02 1.74530E+03
 -1      6548-1.19340E+03-7.71062E+02-2.12605E+01 2.32443E+03-1.10812E+02 2.47811E+02
 -1      6549 8.72866E+03-2.19386E+03-4.66876E+01 3.04132E+03-1.87828E+02-4.43091E+01
 -1      6550 2.87625E+04 4.05357E+04 7.29112E+01-2.35570E+04 2.11632E+02 1.44953E+03
 -1      6551-9.64858E+01-8.92028E+02-8.97783E+01 2.59273E+03-1.40544E+02 2.70761E+02
 -1      6552 1.07207E+04-3.51701E+03 4.38455E+01-1.43120E+03-2.73931E+02 9.12438E+01
 -1      6553 9.76873E+03-5.37128E+02 3.26834E+01-2.97627E+03-1.24010E+02 2.13366E+02
 -1      6554 6.57036E+03-3.48552E+02-8.72448E+01-5.29987E+03-2.37505E+02-1.31729E+02
 -1      6555 1.02193E+04-1.92928E+03 1.12913E+01-6.82195E+03-2.80636E+02-8.19961E+01
 -1      6556 1.17880E+03-7.22478E+02-5.04318E+01 5.36424E+02-2.97981E+02 5.47715E+01
 -1      6557 4.35625E+03-1.58203E+03-1.18559E+01 7.34609E+02-1.50226E+02 8.34078E+01
 -1      6558 8.41984E+03 3.06067E+03-1.11545E+02-8.53990E+03-3.12014E+02 4.00121E+02
 -1      6559 3.64676E+02-9.20590E+02-3.38557E+00-1.73907E+02 1.18247E+02-1.17330E+02
 -1      6560-3.71499E+04-5.93125E+03 2.96774E+02-3.20530E+04-7.59345E+01-1.22876E+03
 -1      6561 1.53389E+03 2.04805E+03-9.68335E+01-2.23259E+03-1.59326E+02-5.51188E+01
 -1      6562-9.70291E+04-1.34890E+04-9.65146E+02-3.42956E+04 2.38345E+02 2.04749E+03
 -1      6563 2.35986E+03 1.92772E+03 1.74907E+02-3.44047E+03-1.38303E+02-2.94906E+02
 -1      6564-8.43364E+04-8.66149E+03-4.72629E+02-2.91749E+04 7.37935E+02 2.46508E+03
 -1      6565 5.26036E+03 5.86745E+03 1.88460E+02-7.69006E+03-1.73545E+02 2.36583E+02
 -1      6566 8.56862E+03-7.59226E+02-4.69419E+01-9.74277E+02-1.65585E+02 2.17003E+02
 -1      6567 3.19311E+03 3.09884E+02-1.59202E+01-1.34053E+03-1.27649E+02 1.08482E+02
 -1      6568-4.99883E+04-1.03554E+04-1.57232E+02-3.75553E+04-2.05080E+01 3.55494E+00
 -1      6569 6.33187E+03 5.16753E+01 3.68913E+01-2.05870E+03-1.40620E+02 1.73382E+02
 -1      6570 4.47561E+03-3.99408E+02 7.33567E+01 3.81940E+02-4.76307E+01 2.03544E+02
 -1      6571 6.06071E+03-3.90931E+02-2.75003E+02-1.25713E+03-1.95259E+02 1.79794E+02
 -1      6572 3.70536E+03-2.57893E+01-9.39411E+01-7.32884E+02-1.78614E+02 1.59648E+02
 -1      6573-3.94211E+04-1.45636E+04-4.14226E+02-2.57040E+04 4.78833E+02-5.76102E+02
 -1      6574-5.55691E+04-1.49311E+04 8.35776E+02-3.66568E+04 4.89269E+02 4.12890E+02
 -1      6575 1.13149E+04 3.70088E+02 6.03338E+01 1.68147E+03 5.17602E+01 3.97317E+01
 -1      6576 4.92838E+02-3.71816E+02-1.59284E+02 2.62950E+03-5.49803E+01 3.03688E+02
 -1      6577-4.41474E+03-4.80264E+03 8.16021E+01-8.50267E+03-6.78192E+01-7.42077E+02
 -1      6578 1.69586E+04 3.50895E+03 1.79276E+02-6.01380E+02-2.29865E+02 2.43077E+02
 -1      6579-4.20331E+04-1.33739E+04 1.18797E+03-1.13348E+04 4.71103E+02-2.51904E+02
 -1      6580 4.88990E+04 3.48085E+03-9.39188E-01-4.00298E+04 2.84482E+02 2.59564E+02
 -1      6581 4.47018E+04 1.51245E+04 1.02296E+02-3.11199E+04 3.75002E+02 4.64654E+02
 -1      6582-4.13677E+04-6.90771E+03 1.31298E+02-1.23305E+04 1.04945E+01-4.28277E+02
 -1      6583 4.95612E+04 1.01388E+03 8.22228E+01-3.50347E+04-2.39608E+02 8.96417E+02
 -1      6584 1.68891E+04 6.17040E+03-6.37464E+02-1.85414E+04 3.50493E+02 1.02955E+03
 -1      6585 5.25001E+04 1.31793E+04 3.77429E+02-3.61858E+04 5.81287E+02-7.60902E+01
 -1      6586 1.08637E+05 1.33330E+04 7.32288E+02-3.46482E+04 1.21842E+03-1.82859E+03
 -1      6587 5.39834E+04 1.00599E+03 2.83803E+02-2.35120E+04 7.54728E+02-3.32233E+03
 -1      6588 4.20472E+04 1.73621E+04-3.63010E+02-2.25785E+04 6.68753E+02 2.01973E+02
 -1      6589-9.30436E+03-3.59515E+03-4.88648E+02 2.43169E+02 3.27289E+02-3.63048E+02
 -1      6590 2.47858E+04 9.63955E+03-5.98878E+02-8.21532E+03 5.38919E+02 5.47143E+02
 -1      6591 4.16499E+03 1.69961E+03-2.96248E+02 9.31143E+02-1.22312E+02 5.29529E+02
 -1      6592 2.74542E+04 8.40738E+03-4.94459E+01-6.43028E+03 4.03102E+02 6.44412E+02
 -1      6593 1.16456E+04-1.20054E+03 2.31045E+01 1.15131E+03 1.10821E+02 2.07153E+02
 -1      6594 2.00498E+04 1.76683E+03 2.31256E+02 1.57649E+02-8.49031E+01 2.33614E+02
 -1      6595 3.06757E+04 1.94753E+03 1.68644E+02-4.19864E+03 2.72093E+01 4.48640E+02
 -1      6596 4.12307E+03 3.65530E+03-1.22572E+02-2.70454E+03-1.90496E+02 5.94544E+02
 -1      6597 1.46248E+04-2.50595E+02-5.79851E+01-9.54195E+03-8.34407E+01 1.20660E+02
 -1      6598 1.79709E+04 6.07858E+03-7.34027E+02-2.29660E+04-3.00740E+01 6.85184E+02
 -1      6599 1.48501E+03 1.43031E+04-2.40636E+03-4.97550E+03-9.51865E+02 2.64882E+02
 -1      6600 1.95746E+04-3.03825E+03-2.50821E+02-2.11705E+04 2.23533E+02 4.14526E+02
 -1      6601 1.79529E+04-3.65069E+03-6.03867E+01-2.13667E+04 4.14730E+02 1.66077E+02
 -1      6602 1.05574E+04-4.65495E+03-7.09959E+02-1.93533E+04 1.99079E+02-7.70041E+02
 -1      6603 1.12930E+03-5.87364E+03-1.09361E+03-2.17681E+04 2.12579E+03 1.23465E+03
 -1      6604 4.27881E+04 1.32164E+04 1.97877E+02-2.10307E+04-3.56360E+01 6.42013E+02
 -1      6605 3.32010E+04 7.62727E+02-1.29181E+02-1.03770E+04 1.64430E+02 2.95859E+02
 -1      6606 1.94327E+03 8.72961E+03 6.22877E+02-9.25230E+03-1.63097E+03 1.01580E+02
 -1      6607 5.12097E+03 2.23236E+04-2.85376E+02-1.28556E+04-1.47639E+03 4.01711E+02
 -1      6608 3.06112E+03 2.91891E+03-3.54509E+02-2.06842E+04-4.48054E+02 6.82793E+01
 -1      6609 6.33089E+04 2.29974E+04-1.79193E+02-2.40743E+04 2.39480E-01 6.99222E+02
 -1      6610 4.71640E+04 3.25016E+04 2.55476E+02-3.22682E+04-2.51143E+02 5.86467E+02
 -1      6611-3.48637E+04 5.19496E+03-2.64094E+02 9.39444E+03 2.26583E+02-1.89917E+02
 -1      6612 4.65681E+03 1.13441E+03-3.36304E+02-2.50613E+04-4.44232E+02-9.06818E+02
 -1      6613 3.68504E+03 9.11996E+03 3.28885E+02-9.31371E+03 4.22750E+02 9.80231E+02
 -1      6614 3.75030E+04 4.35159E+04-1.94585E+02-3.61715E+04-9.13855E+02 6.78758E+02
 -1      6615 3.89141E+04 2.39278E+04-1.54255E+02-2.66738E+04-2.36129E+02 3.54884E+02
 -1      6616-6.87077E+04-3.49735E+01-1.71216E+02-1.01448E+04 6.41550E+02 9.26011E+02
 -1      6617-1.05391E+05 7.05571E+03-1.06622E+03 1.15239E+03-1.40125E+01 1.11132E+03
 -1      6618 3.20612E+04 4.98837E+03 5.79785E+02-4.36204E+03-7.37977E+01 4.85511E+02
 -1      6619-5.40281E+04 3.00887E+03 1.25826E+02 1.24934E+04 2.85345E+02 5.21279E+02
 -1      6620 2.59931E+03 1.18554E+04-4.82464E+01-9.69659E+03-1.07772E+03 6.30479E+01
 -1      6621-3.72985E+04-9.17889E+03 4.39496E+02-2.22227E+04 1.30608E+02 5.82140E+02
 -1      6622 3.78619E+03 1.46774E+04-3.01213E+02-1.24872E+04-1.40783E+03 3.44021E+02
 -1      6623 1.01506E+04 7.33367E+03-1.09230E+02-2.16467E+04-8.15897E+01 5.82364E+01
 -1      6624-7.15535E+04-1.50527E+04-2.93650E+03-2.14609E+04 8.50416E+02-6.82100E+02
 -1      6625-6.21299E+04-1.12101E+04-8.03114E+02-2.09588E+04 7.41795E+02 4.16018E+02
 -1      6626 7.57872E+03-4.48798E+03-1.04386E+02-1.55757E+04 5.64246E+02 2.87438E+02
 -1      6627 2.14319E+04-1.97134E+03-2.10572E+02-1.99919E+04 1.52870E+02 4.87910E+02
 -1      6628 1.75547E+04-3.31215E+03-1.46523E+02-2.17248E+04 3.84585E+02 1.34632E+02
 -1      6629 1.34213E+04 4.53876E+03-6.10339E+01-1.61512E+04-3.17089E+02 3.61956E+02
 -1      6630 6.51389E+03 1.47205E+03-2.05606E+02-4.90544E+03-2.32690E+02 2.72611E+02
 -1      6631-1.05395E+04-5.50217E+03 9.79106E+01-2.51149E+04-1.57605E+02 5.45908E+02
 -1      6632-1.78949E+04-3.22704E+03 1.22995E+02-2.43055E+04-1.60211E+02-6.37358E+02
 -1      6633 1.99073E+04 1.79122E+02 1.77635E+01-2.19871E+04 2.44961E+02 1.05917E+02
 -1      6634 7.12221E+03-3.52873E+03 1.10059E+02-2.05780E+04 4.47195E+02 9.74581E+01
 -1      6635-2.24775E+04-8.89704E+03-1.55249E+02-2.53034E+04-8.57814E+01-9.18165E+01
 -1      6636 1.15808E+04 4.49729E+03 1.65196E+01-1.28219E+04-2.66866E+02 3.25856E+02
 -1      6637-6.01777E+03-3.85003E+03-3.79191E+02-2.93793E+04-1.65729E+02-1.40086E+02
 -1      6638 1.04526E+03 4.30507E+03-4.57309E+02-3.02371E+03 2.38311E+01-7.06510E+01
 -1      6639-2.32213E+04-1.05766E+04-5.21394E+02-2.60739E+04 2.48793E+02-1.01774E+02
 -1      6640 1.34526E+04-1.32698E+03 4.89931E+01-3.38489E+03-6.66192E+01 1.20234E+02
 -1      6641 2.63347E+04-1.84700E+03 1.42905E+02-9.04909E+03 5.29092E+01 8.65516E+01
 -1      6642 2.83097E+04-1.93078E+03-1.95179E+02-1.43514E+04 9.82942E+01 3.22727E+02
 -1      6643 2.43054E+04-2.65886E+03 1.09812E+02-2.00232E+04 7.09293E+01 4.28362E+02
 -1      6644 6.32631E+03 1.02558E+04-5.42583E+02-1.31125E+04-3.47510E+02 3.33210E+02
 -1      6645 8.10995E+02 5.74603E+03-3.35854E+02-2.53762E+03-6.44756E+01 1.24792E+02
 -1      6646 1.09218E+03 5.96707E+03-4.95930E+02-2.98097E+03-2.67523E+01 3.18316E+00
 -1      6647 2.17771E+03 9.31500E+03-1.13833E+03-6.82523E+03-2.75303E+02-4.07552E+01
 -1      6648 3.12145E+03 1.36707E+04-7.49951E+02-9.25453E+03-2.28972E+02 3.60337E+02
 -1      6649 1.36999E+03 2.57127E+04-3.15331E+03-8.30800E+03 2.14665E+03 4.00545E+02
 -1      6650 9.97818E+02 1.57232E+04-1.22619E+03-5.52952E+03 7.51081E+02 9.87699E+01
 -1      6651 4.99621E+03 6.52610E+04-9.46845E+03-2.76023E+04 2.03202E+04-3.91638E+03
 -1      6652 2.27278E+04 7.77745E+04-1.18122E+04-5.22752E+04 3.73539E+04-3.10594E+04
 -1      6653 8.24805E+03 4.67919E+02 3.90057E+02-3.33716E+04-3.15343E+02 5.74403E+02
 -1      6654 6.53414E+03 1.14604E+02-3.70487E+01-4.39322E+04-9.31895E+01-1.23414E+02
 -1      6655 4.44509E+04 1.98480E+05 2.84448E+04-9.93476E+04-2.75853E+04-3.81680E+03
 -1      6656-1.46090E+04-2.47594E+03 3.41443E+02-2.10076E+04-3.53118E+02-7.19805E+02
 -1      6657-7.89769E+03-6.97597E+04 6.71187E+03-2.04527E+04 8.69860E+03 1.56874E+03
 -1      6658-3.58075E+03-3.05097E+04 3.06279E+03-1.26584E+04-7.48048E+02-3.34260E+02
 -1      6659-1.63297E+04-1.93484E+04 1.39618E+03-2.67641E+04 9.42339E+03 9.86997E+03
 -1      6660-4.96086E+03-9.32782E+03 1.11199E+02-1.09094E+04-1.88294E+02-2.15134E+02
 -1      6661-7.24332E+03-6.66325E+03-2.20303E+02-3.25714E+04 3.45302E+01-4.36234E+00
 -1      6662-1.41450E+03-4.45167E+03 6.73163E+01-3.36024E+03-2.29970E+02 7.31642E+01
 -1      6663 3.04015E+03 4.24941E+03 1.35172E+02-3.66281E+04-2.07088E+02-1.19676E+02
 -1      6664-3.95043E+03-3.16840E+03-1.74383E+01-4.67640E+03-5.85290E+01-2.11949E+02
 -1      6665-5.51709E+02-2.90849E+03 1.61606E+02-1.60189E+03 3.75777E+01-2.52057E+01
 -1      6666-2.22729E+03-8.56177E+03-1.60239E+02-6.11711E+03-3.28057E+01-4.99979E+00
 -1      6667-1.80653E+04-2.62995E+03 1.60997E+02-2.56259E+04-6.41900E+00-3.93132E+02
 -1      6668-1.27547E+04-2.44013E+04 2.32890E+03-2.64770E+04 4.00827E+02 4.08318E+00
 -1      6669-1.68044E+04-4.03885E+01 2.67628E+02-2.55590E+04 2.56970E+02-2.13834E+02
 -1      6670-7.78672E+02-8.46857E+03 4.20048E+02-3.07599E+03 8.35226E+01-1.09427E+02
 -1      6671-2.69018E+04-1.16461E+04-5.11800E+03-2.29087E+04-9.07861E+01-2.69831E+03
 -1      6672-2.03331E+04-9.40432E+03-4.81615E+03-2.40556E+04 8.67833E+01-1.97623E+03
 -1      6673-1.39545E+04-6.70419E+03-3.33140E+03-2.50784E+04 1.19814E+02-1.33784E+03
 -1      6674-1.45924E+04-2.31068E+03-1.51616E+02-1.44577E+04-1.76687E+02-3.70662E+02
 -1      6675-1.15996E+04 3.04928E+03-6.50413E+01-7.61915E+02-2.74543E+02 2.22945E+02
 -1      6676-1.15057E+04-4.25089E+03-1.32496E+02-1.32826E+04-2.51828E+02-2.07157E+02
 -1      6677-1.51365E+03 5.27646E+02 1.29442E+02 2.90923E+03 6.45116E+01-1.99141E+02
 -1      6678-4.90552E+03-7.14317E+03 1.00332E+02-8.47684E+03-2.63937E+02-1.67368E+02
 -1      6679-7.89820E+04-2.73407E+04-1.71225E+04-1.96290E+04 6.86633E+02-7.42668E+03
 -1      6680-2.14310E+03-3.31309E+04 2.39378E+03-1.07517E+04 1.98126E+03-2.75125E+02
 -1      6681-1.27353E+04-9.12928E+03 1.07473E+02-2.02433E+04-3.57707E+02-4.23281E+02
 -1      6682-9.54588E+04-3.35054E+04-2.59215E+04-2.03651E+04-2.35460E+03 1.13096E+04
 -1      6683-3.24712E+04-1.28933E+04-9.67350E+03-2.16386E+04-4.07550E+01-4.11221E+03
 -1      6684-7.02244E+03-8.18385E+04-8.50654E+02-4.25949E+04 4.47862E+04 1.87015E+04
 -1      6685-5.53343E+03-1.82983E+03 1.91923E+02-2.20858E+04 4.69350E+02-4.92655E+01
 -1      6686-1.01240E+05-3.51314E+04-2.32148E+04-1.84710E+04 1.54606E+03-9.69427E+03
 -1      6687-1.37596E+04-7.46862E+02-3.00582E+02-2.51858E+04 1.82513E+02-3.40386E+02
 -1      6688-6.11582E+04 3.88210E+03 4.49405E+02 2.32983E+04 6.83021E+02-9.00032E+02
 -1      6689-1.68349E+04-8.68735E+03-8.90396E+01-2.55227E+04-4.19676E+01-4.98147E+02
 -1      6690-1.57854E+05-3.87298E+04-3.98864E+04-1.25320E+04 1.22514E+03-7.57576E+03
 -1      6691-1.44253E+04-1.49752E+03 6.07420E+01-2.44716E+04 2.51392E+02-3.75103E+02
 -1      6692-7.81860E+04-2.21575E+04 4.47066E+02 5.27832E+04-1.88995E+03 8.76314E+02
 -1      6693-9.79755E+03 1.62706E+03 9.29371E+01-1.77412E+04 3.32475E+02-2.58138E+02
 -1      6694-1.11838E+05-6.36397E+03-4.57144E+03-1.32607E+04 1.46460E+03 6.39694E+02
 -1      6695-1.54823E+04-5.16955E+03 3.12674E+02-2.11623E+04-1.58286E+03-2.40128E+03
 -1      6696-5.55570E+04-3.35974E+02 1.13127E+03-1.51989E+04-6.24062E+02-1.93720E+03
 -1      6697-1.20218E+04-1.33884E+03-1.81006E+02-2.52389E+04 1.76415E+02-1.32424E+02
 -1      6698-1.23383E+03-5.20388E+02-1.60372E+02-2.51321E+04 8.07293E+01-9.90672E+01
 -1      6699-1.37060E+05-1.40093E+03-6.27312E+03 6.31658E+02 1.41036E+03 3.30936E+02
 -1      6700-2.08688E+04-1.43558E+03-7.87219E+01-2.45853E+04-4.85861E+01-1.79792E+02
 -1      6701-4.00521E+04-2.19573E+04-5.57470E+02-2.76503E+04-1.80770E+02-3.75867E+02
 -1      6702-2.57835E+04-1.29911E+04 1.20912E+03 2.21427E+04 3.14990E+03-1.93983E+03
 -1      6703-5.75520E+04-3.46179E+04-6.74376E+02-3.61696E+04 5.00212E+01-1.01788E+03
 -1      6704-3.63069E+04-4.34087E+03 1.00631E+02-1.81661E+04 2.99969E+01-3.06801E+02
 -1      6705-4.80242E+04-3.02557E+04-2.27351E+02-3.19698E+04-2.50384E+02-2.99311E+02
 -1      6706-2.84909E+04 5.19192E+02 1.71963E+01-1.57747E+04 4.20112E+00-5.46625E+02
 -1      6707-4.87539E+04 3.43625E+03 3.46158E+01 1.38226E+04 4.84544E+02-2.87726E+02
 -1      6708-9.30081E+04-3.65889E+04-9.50119E+02-5.03625E+04-5.44921E+02 1.13514E+02
 -1      6709-7.66511E+03 1.01535E+03 1.54730E+01 1.38391E+03-1.42100E+02-9.10291E+01
 -1      6710-3.67294E+04 2.96995E+03 3.29218E+02 8.25100E+03-6.12508E+01 1.27093E+03
 -1      6711-1.57565E+04 9.31571E+02 3.13067E+01-1.63863E+03-4.05437E+01-1.15548E+02
 -1      6712-2.60663E+04 1.16041E+03 1.19812E+01-8.99780E+03-1.06416E+02-2.17683E+02
 -1      6713-3.95616E+04-4.05833E+04 5.73436E+01-3.66050E+04-7.42198E+02-4.94128E+02
 -1      6714-1.11073E+04 5.41081E+02 5.40579E+01-3.82492E+03-5.71182E+01 1.11585E+02
 -1      6715-1.33272E+05-3.00722E+04-2.07804E+04-1.79208E+04 2.92464E+03-9.41281E+03
 -1      6716-4.34757E+04-1.46703E+04-1.23395E+02-2.31262E+04 2.22836E+02-5.04995E+02
 -1      6717-8.40890E+03-1.86534E+04-1.54361E+02-1.64621E+04-1.25363E+03-1.84344E+02
 -1      6718-8.03709E+04 8.29319E+03 2.83167E+02 2.27339E+04-3.68283E+02 5.47355E+02
 -1      6719-8.44638E+02 6.15234E+02 1.61456E+02-2.28975E+04-2.16940E+02 2.90971E+01
 -1      6720-1.05757E+04-6.34299E+03-9.00257E+01-2.29512E+04-2.17100E+01-2.19882E+01
 -1      6721-6.41584E+04-2.41689E+04 3.35887E+01-2.33343E+04-5.81401E+02-8.75492E+02
 -1      6722-5.80505E+04 1.71278E+04-5.51422E+02-1.25034E+04 3.85529E+02 1.35404E+02
 -1      6723-5.30542E+04 4.21049E+03 4.80984E+01 1.12598E+04 3.02582E+01-6.12607E+02
 -1      6724-6.11699E+03-3.83933E+03-8.07403E+02-2.79821E+04-4.49818E+02 6.00952E+02
 -1      6725-9.11259E+04 1.16246E+04 1.21878E+03 1.00711E+04-3.13675E+02 1.74383E+03
 -1      6726 4.79471E+04 1.79842E+04 9.04994E+03-1.98645E+04 7.62081E+02 4.85407E+03
 -1      6727 1.34290E+04 7.49510E+03 1.31859E+02-2.89557E+04-2.96468E+02 1.94892E+02
 -1      6728 2.17525E+02-2.29592E+04-1.56372E+04-1.56534E+04-2.37420E+04-1.02382E+04
 -1      6729-1.08440E+04-1.23137E+04 8.80508E+02-2.11596E+04-1.69149E+03-9.80667E+02
 -1      6730-6.84705E+04 1.60734E+03 5.26072E+01 3.25918E+04 1.01885E+03-2.43728E+03
 -1      6731-1.90676E+04-3.81459E+04 2.98943E+02-1.95461E+04-4.00205E+02-2.25517E+02
 -1      6732 4.75830E+04-1.93122E+04 5.46731E+02-1.09721E+04-3.04526E+02 3.00240E+02
 -1      6733-6.56781E+04 2.90136E+03 2.56318E+02 1.28445E+04-1.86407E+02-1.65089E+02
 -1      6734-4.69963E+03-8.81872E+02-1.36708E+02-1.77063E+04 4.22293E+02-2.64129E+01
 -1      6735 5.48536E+04-1.07210E+04 1.07863E+03 3.07339E+03-5.50041E+02-3.36033E+01
 -1      6736 5.09551E+04-9.73521E+02-3.94633E+02-7.11076E+03-3.53551E+01-6.40859E+02
 -1      6737 1.02080E+05-3.63527E+03 2.04733E+03 3.32736E+04 1.47914E+03 3.59630E+03
 -1      6738 6.17286E+04 1.52527E+03-4.15268E+02 3.28777E+04-6.56152E+02-7.26894E+02
 -1      6739 1.17124E+05 5.36283E+03 3.23471E+03-1.35257E+04 1.19598E+03 2.11769E+03
 -1      6740-4.86274E+04-9.03900E+03 8.93280E+01-3.32949E+04-2.01476E+02-2.88481E+02
 -1      6741 3.99728E+03 4.49432E+03-8.64429E+01-3.79997E+04-4.25220E+02 2.82628E+02
 -1      6742 1.12285E+03 6.93454E+03 2.22128E+02-1.88432E+04-7.54709E+02 1.71379E+02
 -1      6743 5.31328E+04-1.80160E+04 3.71287E+02-1.49503E+04 1.21313E+03-1.29767E+02
 -1      6744 2.95721E+04-1.81617E+02-3.90572E+02-6.67443E+03 2.30000E+00 1.31866E+02
 -1      6745 1.01444E+04 1.55071E+04 9.89614E+02-1.88075E+04-7.85128E+03 3.21815E+03
 -1      6746-1.80391E+03-8.75014E+02 7.34279E+01 1.72460E+03-4.58129E+01 1.36335E+02
 -1      6747-7.25404E+04 7.01896E+03 4.12129E+02 9.70118E+03 2.57732E+02 1.37174E+02
 -1      6748 2.37844E+04-2.63688E+03-1.10723E+02-1.49312E+04 6.22703E+01 3.58495E+02
 -1      6749 3.09539E+03 1.47581E+04-1.71690E+03-1.00774E+04-7.03456E+02 6.09251E+02
 -1      6750 4.88255E+03 2.57307E+04-2.60164E+02-1.96829E+04 2.32465E+03-1.26912E+03
 -1      6751-4.11170E+02 8.07797E+02 2.48361E+02-2.58398E+02 3.50138E+01 1.00351E+02
 -1      6752-3.91063E+04-1.57114E+04 1.41277E+03-2.00534E+04 8.49897E+02-3.27867E+02
 -1      6753-6.95089E+04 7.43826E+03 2.08822E+02 9.28842E+03 1.92369E+01 2.98764E+02
 -1      6754-6.92947E+04 3.88518E+03-2.23043E+02 1.59544E+04-1.98363E+02-1.65637E+02
 -1      6755 7.23856E+03 4.38517E+03 1.53228E+03-2.74829E+04-4.85683E+02-7.36794E+02
 -1      6756-4.88587E+04-1.99697E+04-1.47998E+04-2.03030E+04 2.81937E+02-3.14504E+03
 -1      6757-5.37036E+04 1.69686E+04-2.57462E+02-2.31827E+04-5.89956E+02-1.98046E+02
 -1      6758-2.60973E+04 2.34275E+04-9.78825E+02-1.37468E+04 1.71359E+02-8.67926E+02
 -1      6759 4.84611E+04 1.18351E+04 3.82610E+02-2.28781E+04 4.40843E+02 1.10177E+02
 -1      6760-5.01465E+04 8.92752E+03 3.12339E+01 7.08582E+03 4.49551E+02-4.65460E+02
 -1      6761 4.43671E+03 1.71037E+04 5.60077E+02-2.00602E+04 1.07548E+03 2.43800E+02
 -1      6762-7.65348E+03-4.71215E+03-4.57605E+02-2.71932E+04-5.45136E+01-4.52169E+02
 -1      6763-6.87234E+03-6.78464E+03 3.01965E+01-3.29658E+04 4.90688E+01 1.63221E+02
 -1      6764-2.10179E+05-5.26432E+04-5.31822E+04 2.39906E+04 6.37436E+03-1.74057E+04
 -1      6765-6.25751E+04 4.75175E+03 5.71768E+02 1.42450E+04 1.42698E+02 3.25868E+02
 -1      6766-1.55895E+03-1.79900E+04 7.86284E+02-5.85058E+03 5.03052E+02 4.21223E+01
 -1      6767-5.82961E+04 2.61894E+03 1.01724E+02 1.60535E+04 4.23000E+02-2.15459E+02
 -1      6768 1.56819E+04 5.14787E+03 3.63429E+01-2.28337E+03-4.52068E+02 2.80741E+02
 -1      6769 5.62909E+04 1.12882E+04-3.87062E+02-3.20803E+04-4.69374E+02 3.19951E+02
 -1      6770-2.49353E+04-2.45790E+03-1.21134E+02-1.17593E+03-1.37152E+02 6.30055E+01
 -1      6771 1.74232E+03-1.42971E+03-1.53817E+01 1.27031E+03-1.31833E+02 1.04736E+02
 -1      6772-1.40486E+04 2.98153E+02 1.56994E+02 1.07762E+03-1.81724E+02-2.57892E+02
 -1      6773-3.56642E+04-2.74291E+04 1.68471E+03 3.39878E+04 1.62156E+03-2.77131E+03
 -1      6774-1.04573E+05-5.98163E+03-1.67043E+03 3.93857E+04 3.00884E+03-3.42079E+03
 -1      6775-1.99043E+02-4.68188E+03 4.75693E+01-3.21248E+04-1.47485E+02 3.43114E+02
 -1      6776-4.60425E+04-9.02997E+03-6.28465E+02-2.20523E+04 2.41072E+02 5.72656E+02
 -1      6777 1.45694E+04 7.64948E+03 3.33709E+03-2.60491E+04-2.67779E+01 5.41964E+02
 -1      6778-5.21457E+04 1.58317E+04-1.73334E+03-1.81274E+04 4.36055E+02 1.00879E+02
 -1      6779 7.07963E+04-6.24727E+03-2.35329E+02 1.02295E+04 8.59544E+02 1.45609E+02
 -1      6780 2.95235E+04 9.48180E+03-1.99033E+02-5.57783E+03-7.83373E+02-3.89176E+02
 -1      6781-6.76748E+04 1.38882E+04-1.88879E+01-9.06526E+03 1.30781E+03 2.12687E+02
 -1      6782 3.52909E+03 3.72183E+03 1.93431E+02-4.85669E+03-3.09962E+02 5.86992E+01
 -1      6783 1.77923E+04 3.21804E+04-1.60661E+03-3.02457E+04 5.98954E+03-1.52252E+03
 -1      6784 4.18827E+03-8.61217E+02-1.13122E+02-2.27564E+03-3.40989E+02-6.11660E+01
 -1      6785 4.87551E+02 2.58484E+03-3.93487E+02-1.56854E+03-3.02254E+00 2.13935E+01
 -1      6786 3.86992E+03-8.74101E+01-1.21448E+02-4.42592E+02-9.77381E+01 7.05491E+01
 -1      6787 4.00734E+04 1.56417E+04-1.67789E+03-1.83520E+04 5.96161E+02 4.46617E+02
 -1      6788 3.94083E+04 1.30531E+04-1.31104E+03-1.18714E+04 3.22265E+02 4.89766E+02
 -1      6789 7.58941E+02 7.49005E+03-1.33030E+03-3.40740E+03-3.77843E+01-7.28855E+01
 -1      6790-5.53177E+03-2.92853E+03-2.35255E+01-2.33296E+04 1.22866E+02 7.26786E+01
 -1      6791 1.24627E+03 1.04006E+04-1.17378E+03-3.92765E+03 1.51305E+02 1.33641E+02
 -1      6792-1.40279E+04-4.14231E+04 4.39569E+03-2.95687E+04 5.81030E+03 2.04653E+03
 -1      6793-7.68631E+02-6.61949E+03 3.35228E+02-2.98603E+03 2.34512E+02 4.46130E+00
 -1      6794-1.72501E+04-8.52995E+03-1.24268E+03-2.62464E+04 1.36489E+02-5.75272E+02
 -1      6795 3.70647E+02 1.45671E+03-2.42490E+02-1.46720E+04-1.02121E+03-2.60046E+01
 -1      6796-1.92969E+04-2.01305E+03 1.26381E+01-2.49335E+04 6.44356E+01-3.11600E+02
 -1      6797-7.35097E+04-2.68714E+04-2.23431E+04-2.02472E+04-2.92651E+02 1.71773E+03
 -1      6798 9.22907E+02 1.69864E+03-3.36132E+02-1.78970E+03 2.97602E+01-2.26534E+02
 -1      6799-1.96576E+03-9.70697E+03 3.58186E+02-6.72779E+03-3.76058E+02-1.47740E+02
 -1      6800-2.38471E+03 1.40848E+03-2.06403E+02 2.44172E+03-1.45412E+02 8.01715E+00
 -1      6801-1.54339E+04 1.62008E+04-3.87626E+02-2.95057E+02 2.14858E+02-1.02485E+02
 -1      6802 3.51567E+04 2.48045E+03 6.16924E+02-1.73218E+04-5.70087E+02 7.04891E+02
 -1      6803-4.52479E+04-5.41770E+03 4.73889E+02-3.43967E+04-5.05803E+02-6.65022E+02
 -1      6804 7.42344E+04-2.38478E+03-3.83866E+02 1.42711E+04 2.07356E+02 2.07395E+02
 -3
 9999
